c E6 resource-count instance family=3-COL n=30 (Random(9) stream)
c order 8 29 12 18 26 6 4 20 2 23 7 9 10 1 5 15 3 21 11 28 27 16 17 19 14 22 25 13 30 24
p cnf 30 111
-1 -2 0
-3 -4 0
-5 -6 0
-7 -8 0
-9 -10 0
-11 -12 0
-13 -14 0
-15 -16 0
-17 -18 0
-19 -20 0
-21 -22 0
-23 -24 0
-25 -26 0
-27 -28 0
-29 -30 0
1 2 5 6 0
-1 2 -5 6 0
1 -2 5 -6 0
1 2 9 10 0
-1 2 -9 10 0
1 -2 9 -10 0
1 2 15 16 0
-1 2 -15 16 0
1 -2 15 -16 0
1 2 17 18 0
-1 2 -17 18 0
1 -2 17 -18 0
3 4 5 6 0
-3 4 -5 6 0
3 -4 5 -6 0
3 4 7 8 0
-3 4 -7 8 0
3 -4 7 -8 0
3 4 11 12 0
-3 4 -11 12 0
3 -4 11 -12 0
3 4 29 30 0
-3 4 -29 30 0
3 -4 29 -30 0
5 6 7 8 0
-5 6 -7 8 0
5 -6 7 -8 0
5 6 21 22 0
-5 6 -21 22 0
5 -6 21 -22 0
5 6 23 24 0
-5 6 -23 24 0
5 -6 23 -24 0
5 6 27 28 0
-5 6 -27 28 0
5 -6 27 -28 0
7 8 11 12 0
-7 8 -11 12 0
7 -8 11 -12 0
7 8 13 14 0
-7 8 -13 14 0
7 -8 13 -14 0
9 10 11 12 0
-9 10 -11 12 0
9 -10 11 -12 0
9 10 17 18 0
-9 10 -17 18 0
9 -10 17 -18 0
9 10 19 20 0
-9 10 -19 20 0
9 -10 19 -20 0
9 10 27 28 0
-9 10 -27 28 0
9 -10 27 -28 0
11 12 27 28 0
-11 12 -27 28 0
11 -12 27 -28 0
13 14 15 16 0
-13 14 -15 16 0
13 -14 15 -16 0
13 14 17 18 0
-13 14 -17 18 0
13 -14 17 -18 0
13 14 27 28 0
-13 14 -27 28 0
13 -14 27 -28 0
17 18 21 22 0
-17 18 -21 22 0
17 -18 21 -22 0
17 18 25 26 0
-17 18 -25 26 0
17 -18 25 -26 0
17 18 27 28 0
-17 18 -27 28 0
17 -18 27 -28 0
19 20 23 24 0
-19 20 -23 24 0
19 -20 23 -24 0
19 20 27 28 0
-19 20 -27 28 0
19 -20 27 -28 0
21 22 27 28 0
-21 22 -27 28 0
21 -22 27 -28 0
21 22 29 30 0
-21 22 -29 30 0
21 -22 29 -30 0
23 24 25 26 0
-23 24 -25 26 0
23 -24 25 -26 0
23 24 27 28 0
-23 24 -27 28 0
23 -24 27 -28 0
27 28 29 30 0
-27 28 -29 30 0
27 -28 29 -30 0
