c E6 resource-count instance family=3-COL n=60 (Random(9) stream)
c order 17 4 56 44 14 6 22 59 10 20 18 47 27 55 15 38 60 21 11 40 58 54 39 9 48 52 25 7 26 28 19 37 42 12 24 43 41 35 23 34 5 3 45 49 51 36 57 33 31 32 29 16 46 2 1 30 50 8 53 13
p cnf 60 219
-1 -2 0
-3 -4 0
-5 -6 0
-7 -8 0
-9 -10 0
-11 -12 0
-13 -14 0
-15 -16 0
-17 -18 0
-19 -20 0
-21 -22 0
-23 -24 0
-25 -26 0
-27 -28 0
-29 -30 0
-31 -32 0
-33 -34 0
-35 -36 0
-37 -38 0
-39 -40 0
-41 -42 0
-43 -44 0
-45 -46 0
-47 -48 0
-49 -50 0
-51 -52 0
-53 -54 0
-55 -56 0
-57 -58 0
-59 -60 0
1 2 17 18 0
-1 2 -17 18 0
1 -2 17 -18 0
1 2 19 20 0
-1 2 -19 20 0
1 -2 19 -20 0
1 2 23 24 0
-1 2 -23 24 0
1 -2 23 -24 0
1 2 33 34 0
-1 2 -33 34 0
1 -2 33 -34 0
1 2 35 36 0
-1 2 -35 36 0
1 -2 35 -36 0
1 2 55 56 0
-1 2 -55 56 0
1 -2 55 -56 0
3 4 23 24 0
-3 4 -23 24 0
3 -4 23 -24 0
3 4 43 44 0
-3 4 -43 44 0
3 -4 43 -44 0
5 6 21 22 0
-5 6 -21 22 0
5 -6 21 -22 0
5 6 25 26 0
-5 6 -25 26 0
5 -6 25 -26 0
5 6 29 30 0
-5 6 -29 30 0
5 -6 29 -30 0
5 6 41 42 0
-5 6 -41 42 0
5 -6 41 -42 0
5 6 47 48 0
-5 6 -47 48 0
5 -6 47 -48 0
5 6 57 58 0
-5 6 -57 58 0
5 -6 57 -58 0
7 8 15 16 0
-7 8 -15 16 0
7 -8 15 -16 0
7 8 17 18 0
-7 8 -17 18 0
7 -8 17 -18 0
7 8 31 32 0
-7 8 -31 32 0
7 -8 31 -32 0
7 8 39 40 0
-7 8 -39 40 0
7 -8 39 -40 0
7 8 55 56 0
-7 8 -55 56 0
7 -8 55 -56 0
9 10 23 24 0
-9 10 -23 24 0
9 -10 23 -24 0
9 10 25 26 0
-9 10 -25 26 0
9 -10 25 -26 0
11 12 13 14 0
-11 12 -13 14 0
11 -12 13 -14 0
11 12 37 38 0
-11 12 -37 38 0
11 -12 37 -38 0
11 12 43 44 0
-11 12 -43 44 0
11 -12 43 -44 0
11 12 53 54 0
-11 12 -53 54 0
11 -12 53 -54 0
13 14 39 40 0
-13 14 -39 40 0
13 -14 39 -40 0
13 14 41 42 0
-13 14 -41 42 0
13 -14 41 -42 0
13 14 53 54 0
-13 14 -53 54 0
13 -14 53 -54 0
15 16 21 22 0
-15 16 -21 22 0
15 -16 21 -22 0
15 16 33 34 0
-15 16 -33 34 0
15 -16 33 -34 0
15 16 49 50 0
-15 16 -49 50 0
15 -16 49 -50 0
15 16 57 58 0
-15 16 -57 58 0
15 -16 57 -58 0
17 18 35 36 0
-17 18 -35 36 0
17 -18 35 -36 0
19 20 59 60 0
-19 20 -59 60 0
19 -20 59 -60 0
21 22 27 28 0
-21 22 -27 28 0
21 -22 27 -28 0
21 22 51 52 0
-21 22 -51 52 0
21 -22 51 -52 0
21 22 57 58 0
-21 22 -57 58 0
21 -22 57 -58 0
23 24 29 30 0
-23 24 -29 30 0
23 -24 29 -30 0
23 24 51 52 0
-23 24 -51 52 0
23 -24 51 -52 0
23 24 59 60 0
-23 24 -59 60 0
23 -24 59 -60 0
25 26 59 60 0
-25 26 -59 60 0
25 -26 59 -60 0
27 28 29 30 0
-27 28 -29 30 0
27 -28 29 -30 0
27 28 53 54 0
-27 28 -53 54 0
27 -28 53 -54 0
29 30 33 34 0
-29 30 -33 34 0
29 -30 33 -34 0
29 30 35 36 0
-29 30 -35 36 0
29 -30 35 -36 0
31 32 41 42 0
-31 32 -41 42 0
31 -32 41 -42 0
33 34 41 42 0
-33 34 -41 42 0
33 -34 41 -42 0
33 34 45 46 0
-33 34 -45 46 0
33 -34 45 -46 0
33 34 55 56 0
-33 34 -55 56 0
33 -34 55 -56 0
33 34 57 58 0
-33 34 -57 58 0
33 -34 57 -58 0
35 36 41 42 0
-35 36 -41 42 0
35 -36 41 -42 0
35 36 43 44 0
-35 36 -43 44 0
35 -36 43 -44 0
35 36 47 48 0
-35 36 -47 48 0
35 -36 47 -48 0
35 36 59 60 0
-35 36 -59 60 0
35 -36 59 -60 0
37 38 49 50 0
-37 38 -49 50 0
37 -38 49 -50 0
39 40 43 44 0
-39 40 -43 44 0
39 -40 43 -44 0
39 40 57 58 0
-39 40 -57 58 0
39 -40 57 -58 0
41 42 55 56 0
-41 42 -55 56 0
41 -42 55 -56 0
45 46 47 48 0
-45 46 -47 48 0
45 -46 47 -48 0
45 46 55 56 0
-45 46 -55 56 0
45 -46 55 -56 0
47 48 57 58 0
-47 48 -57 58 0
47 -48 57 -58 0
49 50 57 58 0
-49 50 -57 58 0
49 -50 57 -58 0
51 52 59 60 0
-51 52 -59 60 0
51 -52 59 -60 0
