c E6 resource-count instance family=3-COL n=70 (Random(9) stream)
c order 65 42 21 6 49 32 20 36 11 48 2 56 3 64 19 22 60 30 51 55 57 25 16 38 9 24 4 66 33 59 5 23 31 70 50 7 58 1 54 46 63 10 34 39 28 12 41 52 8 47 18 62 37 29 14 69 44 61 45 35 17 13 68 27 43 53 15 67 26 40
p cnf 70 257
-1 -2 0
-3 -4 0
-5 -6 0
-7 -8 0
-9 -10 0
-11 -12 0
-13 -14 0
-15 -16 0
-17 -18 0
-19 -20 0
-21 -22 0
-23 -24 0
-25 -26 0
-27 -28 0
-29 -30 0
-31 -32 0
-33 -34 0
-35 -36 0
-37 -38 0
-39 -40 0
-41 -42 0
-43 -44 0
-45 -46 0
-47 -48 0
-49 -50 0
-51 -52 0
-53 -54 0
-55 -56 0
-57 -58 0
-59 -60 0
-61 -62 0
-63 -64 0
-65 -66 0
-67 -68 0
-69 -70 0
1 2 7 8 0
-1 2 -7 8 0
1 -2 7 -8 0
1 2 11 12 0
-1 2 -11 12 0
1 -2 11 -12 0
1 2 45 46 0
-1 2 -45 46 0
1 -2 45 -46 0
3 4 33 34 0
-3 4 -33 34 0
3 -4 33 -34 0
3 4 35 36 0
-3 4 -35 36 0
3 -4 35 -36 0
3 4 53 54 0
-3 4 -53 54 0
3 -4 53 -54 0
5 6 13 14 0
-5 6 -13 14 0
5 -6 13 -14 0
5 6 19 20 0
-5 6 -19 20 0
5 -6 19 -20 0
5 6 45 46 0
-5 6 -45 46 0
5 -6 45 -46 0
5 6 67 68 0
-5 6 -67 68 0
5 -6 67 -68 0
7 8 9 10 0
-7 8 -9 10 0
7 -8 9 -10 0
7 8 35 36 0
-7 8 -35 36 0
7 -8 35 -36 0
7 8 41 42 0
-7 8 -41 42 0
7 -8 41 -42 0
7 8 61 62 0
-7 8 -61 62 0
7 -8 61 -62 0
9 10 45 46 0
-9 10 -45 46 0
9 -10 45 -46 0
11 12 31 32 0
-11 12 -31 32 0
11 -12 31 -32 0
11 12 49 50 0
-11 12 -49 50 0
11 -12 49 -50 0
13 14 19 20 0
-13 14 -19 20 0
13 -14 19 -20 0
13 14 31 32 0
-13 14 -31 32 0
13 -14 31 -32 0
13 14 33 34 0
-13 14 -33 34 0
13 -14 33 -34 0
13 14 43 44 0
-13 14 -43 44 0
13 -14 43 -44 0
13 14 47 48 0
-13 14 -47 48 0
13 -14 47 -48 0
13 14 49 50 0
-13 14 -49 50 0
13 -14 49 -50 0
13 14 57 58 0
-13 14 -57 58 0
13 -14 57 -58 0
13 14 61 62 0
-13 14 -61 62 0
13 -14 61 -62 0
13 14 69 70 0
-13 14 -69 70 0
13 -14 69 -70 0
15 16 35 36 0
-15 16 -35 36 0
15 -16 35 -36 0
15 16 43 44 0
-15 16 -43 44 0
15 -16 43 -44 0
15 16 55 56 0
-15 16 -55 56 0
15 -16 55 -56 0
15 16 63 64 0
-15 16 -63 64 0
15 -16 63 -64 0
15 16 67 68 0
-15 16 -67 68 0
15 -16 67 -68 0
17 18 25 26 0
-17 18 -25 26 0
17 -18 25 -26 0
17 18 27 28 0
-17 18 -27 28 0
17 -18 27 -28 0
17 18 55 56 0
-17 18 -55 56 0
17 -18 55 -56 0
17 18 63 64 0
-17 18 -63 64 0
17 -18 63 -64 0
19 20 21 22 0
-19 20 -21 22 0
19 -20 21 -22 0
19 20 47 48 0
-19 20 -47 48 0
19 -20 47 -48 0
19 20 49 50 0
-19 20 -49 50 0
19 -20 49 -50 0
19 20 67 68 0
-19 20 -67 68 0
19 -20 67 -68 0
21 22 25 26 0
-21 22 -25 26 0
21 -22 25 -26 0
21 22 33 34 0
-21 22 -33 34 0
21 -22 33 -34 0
21 22 55 56 0
-21 22 -55 56 0
21 -22 55 -56 0
23 24 53 54 0
-23 24 -53 54 0
23 -24 53 -54 0
23 24 59 60 0
-23 24 -59 60 0
23 -24 59 -60 0
27 28 37 38 0
-27 28 -37 38 0
27 -28 37 -38 0
27 28 43 44 0
-27 28 -43 44 0
27 -28 43 -44 0
27 28 51 52 0
-27 28 -51 52 0
27 -28 51 -52 0
27 28 59 60 0
-27 28 -59 60 0
27 -28 59 -60 0
27 28 65 66 0
-27 28 -65 66 0
27 -28 65 -66 0
29 30 33 34 0
-29 30 -33 34 0
29 -30 33 -34 0
29 30 61 62 0
-29 30 -61 62 0
29 -30 61 -62 0
31 32 61 62 0
-31 32 -61 62 0
31 -32 61 -62 0
31 32 63 64 0
-31 32 -63 64 0
31 -32 63 -64 0
33 34 47 48 0
-33 34 -47 48 0
33 -34 47 -48 0
33 34 51 52 0
-33 34 -51 52 0
33 -34 51 -52 0
37 38 43 44 0
-37 38 -43 44 0
37 -38 43 -44 0
37 38 57 58 0
-37 38 -57 58 0
37 -38 57 -58 0
37 38 61 62 0
-37 38 -61 62 0
37 -38 61 -62 0
39 40 41 42 0
-39 40 -41 42 0
39 -40 41 -42 0
39 40 47 48 0
-39 40 -47 48 0
39 -40 47 -48 0
39 40 49 50 0
-39 40 -49 50 0
39 -40 49 -50 0
39 40 53 54 0
-39 40 -53 54 0
39 -40 53 -54 0
43 44 51 52 0
-43 44 -51 52 0
43 -44 51 -52 0
43 44 57 58 0
-43 44 -57 58 0
43 -44 57 -58 0
43 44 63 64 0
-43 44 -63 64 0
43 -44 63 -64 0
43 44 69 70 0
-43 44 -69 70 0
43 -44 69 -70 0
45 46 57 58 0
-45 46 -57 58 0
45 -46 57 -58 0
45 46 61 62 0
-45 46 -61 62 0
45 -46 61 -62 0
47 48 55 56 0
-47 48 -55 56 0
47 -48 55 -56 0
49 50 57 58 0
-49 50 -57 58 0
49 -50 57 -58 0
51 52 61 62 0
-51 52 -61 62 0
51 -52 61 -62 0
51 52 65 66 0
-51 52 -65 66 0
51 -52 65 -66 0
53 54 65 66 0
-53 54 -65 66 0
53 -54 65 -66 0
57 58 65 66 0
-57 58 -65 66 0
57 -58 65 -66 0
