c E6 resource-count instance family=3-COL n=80 (Random(9) stream)
c order 18 73 47 67 19 2 9 59 80 32 13 69 60 74 28 12 15 11 41 51 39 56 63 14 76 3 68 23 34 27 4 72 30 79 35 20 55 50 66 16 43 24 71 75 40 78 45 1 70 77 22 65 26 46 6 29 21 36 57 49 31 17 38 7 48 62 64 54 33 10 44 37 25 42 52 8 53 61 58 5
p cnf 80 292
-1 -2 0
-3 -4 0
-5 -6 0
-7 -8 0
-9 -10 0
-11 -12 0
-13 -14 0
-15 -16 0
-17 -18 0
-19 -20 0
-21 -22 0
-23 -24 0
-25 -26 0
-27 -28 0
-29 -30 0
-31 -32 0
-33 -34 0
-35 -36 0
-37 -38 0
-39 -40 0
-41 -42 0
-43 -44 0
-45 -46 0
-47 -48 0
-49 -50 0
-51 -52 0
-53 -54 0
-55 -56 0
-57 -58 0
-59 -60 0
-61 -62 0
-63 -64 0
-65 -66 0
-67 -68 0
-69 -70 0
-71 -72 0
-73 -74 0
-75 -76 0
-77 -78 0
-79 -80 0
1 2 53 54 0
-1 2 -53 54 0
1 -2 53 -54 0
3 4 23 24 0
-3 4 -23 24 0
3 -4 23 -24 0
3 4 25 26 0
-3 4 -25 26 0
3 -4 25 -26 0
3 4 47 48 0
-3 4 -47 48 0
3 -4 47 -48 0
3 4 51 52 0
-3 4 -51 52 0
3 -4 51 -52 0
3 4 61 62 0
-3 4 -61 62 0
3 -4 61 -62 0
3 4 65 66 0
-3 4 -65 66 0
3 -4 65 -66 0
3 4 67 68 0
-3 4 -67 68 0
3 -4 67 -68 0
5 6 7 8 0
-5 6 -7 8 0
5 -6 7 -8 0
5 6 13 14 0
-5 6 -13 14 0
5 -6 13 -14 0
5 6 35 36 0
-5 6 -35 36 0
5 -6 35 -36 0
5 6 45 46 0
-5 6 -45 46 0
5 -6 45 -46 0
5 6 59 60 0
-5 6 -59 60 0
5 -6 59 -60 0
7 8 57 58 0
-7 8 -57 58 0
7 -8 57 -58 0
9 10 45 46 0
-9 10 -45 46 0
9 -10 45 -46 0
9 10 53 54 0
-9 10 -53 54 0
9 -10 53 -54 0
11 12 23 24 0
-11 12 -23 24 0
11 -12 23 -24 0
11 12 31 32 0
-11 12 -31 32 0
11 -12 31 -32 0
11 12 37 38 0
-11 12 -37 38 0
11 -12 37 -38 0
11 12 39 40 0
-11 12 -39 40 0
11 -12 39 -40 0
11 12 47 48 0
-11 12 -47 48 0
11 -12 47 -48 0
13 14 31 32 0
-13 14 -31 32 0
13 -14 31 -32 0
13 14 37 38 0
-13 14 -37 38 0
13 -14 37 -38 0
13 14 45 46 0
-13 14 -45 46 0
13 -14 45 -46 0
13 14 57 58 0
-13 14 -57 58 0
13 -14 57 -58 0
13 14 65 66 0
-13 14 -65 66 0
13 -14 65 -66 0
13 14 79 80 0
-13 14 -79 80 0
13 -14 79 -80 0
15 16 21 22 0
-15 16 -21 22 0
15 -16 21 -22 0
15 16 29 30 0
-15 16 -29 30 0
15 -16 29 -30 0
15 16 33 34 0
-15 16 -33 34 0
15 -16 33 -34 0
15 16 39 40 0
-15 16 -39 40 0
15 -16 39 -40 0
15 16 57 58 0
-15 16 -57 58 0
15 -16 57 -58 0
17 18 23 24 0
-17 18 -23 24 0
17 -18 23 -24 0
17 18 67 68 0
-17 18 -67 68 0
17 -18 67 -68 0
17 18 73 74 0
-17 18 -73 74 0
17 -18 73 -74 0
19 20 65 66 0
-19 20 -65 66 0
19 -20 65 -66 0
21 22 35 36 0
-21 22 -35 36 0
21 -22 35 -36 0
21 22 45 46 0
-21 22 -45 46 0
21 -22 45 -46 0
21 22 75 76 0
-21 22 -75 76 0
21 -22 75 -76 0
21 22 79 80 0
-21 22 -79 80 0
21 -22 79 -80 0
23 24 27 28 0
-23 24 -27 28 0
23 -24 27 -28 0
23 24 59 60 0
-23 24 -59 60 0
23 -24 59 -60 0
23 24 69 70 0
-23 24 -69 70 0
23 -24 69 -70 0
25 26 47 48 0
-25 26 -47 48 0
25 -26 47 -48 0
25 26 59 60 0
-25 26 -59 60 0
25 -26 59 -60 0
25 26 61 62 0
-25 26 -61 62 0
25 -26 61 -62 0
25 26 79 80 0
-25 26 -79 80 0
25 -26 79 -80 0
27 28 39 40 0
-27 28 -39 40 0
27 -28 39 -40 0
27 28 43 44 0
-27 28 -43 44 0
27 -28 43 -44 0
27 28 59 60 0
-27 28 -59 60 0
27 -28 59 -60 0
27 28 71 72 0
-27 28 -71 72 0
27 -28 71 -72 0
27 28 73 74 0
-27 28 -73 74 0
27 -28 73 -74 0
29 30 41 42 0
-29 30 -41 42 0
29 -30 41 -42 0
29 30 45 46 0
-29 30 -45 46 0
29 -30 45 -46 0
31 32 59 60 0
-31 32 -59 60 0
31 -32 59 -60 0
33 34 47 48 0
-33 34 -47 48 0
33 -34 47 -48 0
33 34 71 72 0
-33 34 -71 72 0
33 -34 71 -72 0
33 34 73 74 0
-33 34 -73 74 0
33 -34 73 -74 0
35 36 43 44 0
-35 36 -43 44 0
35 -36 43 -44 0
35 36 47 48 0
-35 36 -47 48 0
35 -36 47 -48 0
35 36 61 62 0
-35 36 -61 62 0
35 -36 61 -62 0
35 36 77 78 0
-35 36 -77 78 0
35 -36 77 -78 0
37 38 45 46 0
-37 38 -45 46 0
37 -38 45 -46 0
39 40 49 50 0
-39 40 -49 50 0
39 -40 49 -50 0
39 40 69 70 0
-39 40 -69 70 0
39 -40 69 -70 0
39 40 77 78 0
-39 40 -77 78 0
39 -40 77 -78 0
43 44 51 52 0
-43 44 -51 52 0
43 -44 51 -52 0
45 46 47 48 0
-45 46 -47 48 0
45 -46 47 -48 0
45 46 69 70 0
-45 46 -69 70 0
45 -46 69 -70 0
45 46 71 72 0
-45 46 -71 72 0
45 -46 71 -72 0
47 48 51 52 0
-47 48 -51 52 0
47 -48 51 -52 0
47 48 53 54 0
-47 48 -53 54 0
47 -48 53 -54 0
49 50 73 74 0
-49 50 -73 74 0
49 -50 73 -74 0
51 52 55 56 0
-51 52 -55 56 0
51 -52 55 -56 0
53 54 55 56 0
-53 54 -55 56 0
53 -54 55 -56 0
53 54 57 58 0
-53 54 -57 58 0
53 -54 57 -58 0
53 54 63 64 0
-53 54 -63 64 0
53 -54 63 -64 0
53 54 65 66 0
-53 54 -65 66 0
53 -54 65 -66 0
55 56 75 76 0
-55 56 -75 76 0
55 -56 75 -76 0
57 58 65 66 0
-57 58 -65 66 0
57 -58 65 -66 0
63 64 71 72 0
-63 64 -71 72 0
63 -64 71 -72 0
65 66 77 78 0
-65 66 -77 78 0
65 -66 77 -78 0
71 72 79 80 0
-71 72 -79 80 0
71 -72 79 -80 0
75 76 77 78 0
-75 76 -77 78 0
75 -76 77 -78 0
