c E6 resource-count instance family=4-SAT n=20 (Random(9) stream)
c order 16 12 1 11 5 19 10 17 7 2 6 8 15 13 9 4 14 18 3 20
p cnf 20 192
-8 12 -18 -4 0
4 15 -16 8 0
-14 -12 18 9 0
-20 10 -3 -16 0
-20 15 1 -12 0
20 3 4 2 0
18 -4 -20 11 0
5 -17 11 8 0
-15 -6 -4 11 0
14 -13 7 -1 0
-4 -17 -14 -16 0
2 13 16 3 0
1 -14 -12 -5 0
9 10 -15 -12 0
13 -11 -17 -12 0
-15 12 -19 -9 0
19 6 3 -4 0
2 -12 18 -4 0
14 -9 5 20 0
-13 1 -17 3 0
-3 17 11 -19 0
1 -20 16 2 0
14 6 8 -13 0
10 9 -8 -18 0
-19 8 13 -17 0
-4 10 5 -3 0
20 -18 12 -10 0
-2 -5 4 -3 0
-3 -11 18 10 0
-20 -14 3 -4 0
17 -11 15 -4 0
-12 11 19 -6 0
6 -9 -11 13 0
16 -3 -1 19 0
-10 -6 -11 -13 0
-20 12 -14 18 0
5 -10 -1 19 0
-2 13 -8 17 0
-11 7 -17 -18 0
-12 -16 -2 20 0
15 17 9 10 0
-4 -1 10 12 0
-13 9 -15 -16 0
-19 7 -5 -18 0
-11 19 -5 18 0
-1 13 12 -4 0
18 -5 17 -10 0
-9 1 -14 -6 0
-1 20 -18 19 0
12 -3 -9 4 0
-15 17 -9 20 0
-6 -17 8 13 0
-14 -17 -12 16 0
10 -14 20 -15 0
8 6 3 13 0
4 12 -8 11 0
-13 -9 2 -4 0
2 -13 8 17 0
-16 -10 -1 4 0
4 -6 20 -5 0
-6 8 -5 9 0
-12 -9 6 8 0
-20 -4 -14 3 0
18 -10 -9 3 0
1 -3 12 -8 0
19 -7 -12 11 0
-15 -13 14 -4 0
-19 -18 -15 1 0
-12 -11 3 15 0
-2 8 7 -11 0
-10 19 8 -17 0
20 2 -12 -16 0
15 -12 9 -18 0
-6 19 13 14 0
-7 -19 15 -14 0
-14 1 16 -15 0
-10 3 -9 -4 0
-7 -6 -4 19 0
13 -19 12 -20 0
-20 19 3 -17 0
-5 -6 16 -14 0
18 20 17 -6 0
8 12 -18 1 0
4 20 -11 16 0
-7 -9 19 -15 0
-13 -4 -20 12 0
-6 -5 -14 7 0
9 -12 14 17 0
-1 11 -16 13 0
6 -14 -17 -3 0
16 20 9 -10 0
13 -9 -20 -4 0
-11 -2 4 10 0
13 -17 -7 15 0
-7 12 8 20 0
9 4 15 2 0
-2 -9 11 19 0
-19 -5 9 -17 0
-6 12 -10 -19 0
-10 -2 -8 -17 0
-19 -12 5 -2 0
2 -12 -9 5 0
-9 -14 -17 -11 0
5 -6 18 11 0
-14 -10 3 11 0
-1 -11 8 17 0
-13 20 5 1 0
-7 10 13 2 0
7 1 -11 10 0
7 -8 13 -3 0
2 12 -4 5 0
20 -2 5 -17 0
18 6 17 -9 0
4 14 -1 -2 0
3 -15 5 -14 0
9 -5 1 -14 0
8 6 -12 13 0
1 11 7 -8 0
-18 -20 15 6 0
8 -2 6 18 0
17 -8 19 18 0
19 -4 -6 -11 0
3 -19 -7 20 0
19 -16 -2 -13 0
-12 -14 13 -1 0
-1 18 -16 17 0
8 -14 -3 2 0
-15 10 -9 -1 0
9 -12 6 -17 0
2 -3 -12 -4 0
9 12 -16 -19 0
2 19 4 -10 0
-13 20 8 -7 0
5 -8 -4 -2 0
-8 -18 -14 4 0
19 17 -18 -5 0
17 -4 -10 9 0
-6 -8 7 -10 0
-8 -18 -5 -15 0
-5 -7 16 -3 0
-19 13 -15 -2 0
17 7 2 18 0
-7 -20 9 -12 0
1 -11 13 -5 0
19 6 -11 -13 0
-20 -4 11 -19 0
20 14 -9 8 0
7 -6 -18 17 0
-15 -14 3 11 0
18 -12 -17 -9 0
4 -1 -18 12 0
16 -9 20 -6 0
-13 15 11 -18 0
-6 -15 -14 -7 0
-18 -3 -1 19 0
-6 -13 -3 -18 0
-15 14 19 18 0
-16 13 -12 -19 0
12 13 -16 7 0
6 -2 -4 -9 0
-19 12 -17 -8 0
-9 3 2 -7 0
6 -20 -5 -10 0
3 4 8 -2 0
-8 -9 19 -6 0
9 13 3 -17 0
-20 -1 -6 -18 0
5 -4 -14 3 0
-13 3 5 -8 0
-5 -14 -9 -18 0
-3 12 6 -7 0
19 -4 10 -20 0
-19 -16 -14 7 0
-7 15 4 -17 0
-8 -4 -18 -17 0
-7 20 -15 -6 0
-8 4 -16 20 0
-9 4 16 -17 0
-17 8 16 -18 0
-1 16 7 -18 0
-3 -8 -13 -6 0
-3 7 17 -19 0
-6 15 17 -7 0
-13 -7 19 16 0
18 -16 -9 -15 0
-16 -18 -2 -9 0
-12 -6 8 19 0
-3 17 12 -8 0
-11 -8 1 -6 0
-5 19 -14 -13 0
-16 9 20 -6 0
-5 -10 17 -18 0
