c E6 resource-count instance family=4-SAT n=30 (Random(9) stream)
c order 18 30 20 9 27 7 26 14 16 15 2 5 11 22 19 24 28 6 17 10 12 4 3 21 29 13 23 1 25 8
p cnf 30 288
6 -13 7 25 0
24 -4 19 -7 0
24 -6 19 18 0
4 29 -5 2 0
2 30 16 -11 0
-11 30 13 -16 0
5 -22 21 -19 0
7 9 1 13 0
9 7 -10 -23 0
-11 25 8 1 0
-3 -6 -27 -19 0
-22 -11 -5 -12 0
20 -5 -2 -24 0
26 9 15 -25 0
4 -14 -18 -17 0
11 5 -21 -10 0
-2 9 12 6 0
10 19 12 17 0
-23 22 -7 18 0
-14 23 -10 4 0
-15 -12 -20 -6 0
-22 -15 24 16 0
-4 -19 1 11 0
-11 -15 4 26 0
-5 -6 -17 11 0
-30 -5 -8 -16 0
-8 14 -20 7 0
-17 21 26 23 0
18 25 -26 9 0
5 -26 22 10 0
-17 5 4 -25 0
-3 -11 -9 -25 0
-27 -28 19 23 0
-10 30 -22 17 0
25 1 -11 6 0
-18 -22 11 13 0
-29 -5 3 -2 0
30 -11 20 -21 0
-19 -2 -12 17 0
-15 18 -26 -9 0
-6 -29 4 21 0
25 3 -20 12 0
-25 18 5 -20 0
11 -10 -8 -12 0
-3 -29 -23 -27 0
24 30 -20 2 0
-14 1 3 -4 0
-19 -8 21 11 0
2 -30 4 9 0
5 -25 15 2 0
-5 -6 -30 -24 0
-27 10 -5 -8 0
-24 14 23 30 0
22 -29 -3 -6 0
-27 -2 14 -7 0
-28 -25 -30 15 0
-23 19 -3 -4 0
-10 -12 -7 -21 0
-7 18 6 -14 0
-11 -6 25 4 0
-2 -28 -18 8 0
-18 21 -10 -4 0
-16 24 -13 21 0
29 12 3 16 0
5 30 -13 -23 0
-27 2 1 -25 0
-4 28 -7 22 0
3 -24 -2 -6 0
-28 -25 -17 9 0
11 -19 -30 8 0
5 -20 16 -29 0
7 28 2 -27 0
-30 25 14 -21 0
4 8 -16 21 0
-3 18 16 15 0
-18 -20 -11 27 0
21 3 13 -23 0
-25 -27 -5 30 0
-30 12 25 20 0
15 -16 -12 -14 0
-4 -7 -5 11 0
28 30 25 -29 0
13 18 -11 22 0
-3 29 -23 25 0
-27 7 25 12 0
-13 17 5 -15 0
-23 6 4 19 0
-4 13 23 -22 0
-28 -11 4 1 0
6 -19 2 -18 0
26 25 18 -24 0
11 14 28 -25 0
-19 -17 25 22 0
2 9 -30 -17 0
3 9 -30 -19 0
25 -9 10 -21 0
-24 -23 -2 -8 0
1 17 -8 4 0
-16 -27 15 -30 0
16 -21 18 -28 0
-5 27 -23 -24 0
-10 26 3 -6 0
30 19 12 -8 0
3 22 -19 5 0
-14 10 30 -23 0
-10 18 16 -24 0
-11 -22 -21 -30 0
6 -18 -2 29 0
15 -22 -24 -26 0
-13 -11 -29 8 0
2 4 8 26 0
-9 27 -24 2 0
-10 7 25 -5 0
25 -14 1 -4 0
-4 -23 9 -16 0
-3 -8 -14 -24 0
24 -15 16 -28 0
-17 21 -10 -6 0
12 -21 -28 27 0
21 23 -17 2 0
28 7 -6 -30 0
-12 2 5 6 0
-11 -18 2 -20 0
-6 21 -30 -24 0
-20 30 6 -15 0
-28 26 9 3 0
10 12 26 -19 0
2 15 -30 -5 0
27 24 -23 18 0
28 -26 -30 1 0
30 20 -12 -3 0
-1 -6 12 -10 0
-4 17 13 -23 0
30 12 -22 3 0
2 16 30 7 0
-21 -25 -23 -15 0
-26 -24 3 -2 0
-3 -16 17 22 0
-27 -25 13 -23 0
8 -13 -17 -16 0
-15 18 -28 14 0
-21 27 -8 10 0
12 3 25 28 0
-21 20 -25 -16 0
21 9 -24 8 0
-18 -12 -4 24 0
-9 -23 30 5 0
-10 -14 25 -2 0
-19 3 4 -26 0
3 -16 30 -18 0
-9 -23 14 10 0
-28 1 -15 29 0
15 1 -2 -23 0
16 27 -12 13 0
15 -6 -4 -23 0
-10 -11 -12 -3 0
-26 20 -24 -30 0
-16 23 2 -11 0
-3 -12 26 -25 0
-7 -29 12 -20 0
27 23 7 -16 0
-23 11 17 12 0
23 -30 15 17 0
-21 -4 8 12 0
14 -30 3 20 0
15 -1 -3 -7 0
4 -15 -6 -9 0
-4 15 25 -14 0
-9 21 1 25 0
4 -30 -28 -10 0
27 -24 17 -4 0
-23 20 -22 -8 0
-21 -27 25 3 0
-2 17 28 25 0
2 21 16 -24 0
23 -27 -19 6 0
-12 30 -27 -20 0
-4 -24 -6 21 0
9 -1 -8 -24 0
-1 -4 12 -13 0
12 -3 -11 10 0
-29 -3 -14 -4 0
-15 -30 8 2 0
-22 -3 29 16 0
-20 -3 -15 17 0
15 2 -11 22 0
4 -11 -28 -26 0
9 -24 19 -23 0
18 -20 -10 -6 0
-18 26 -30 15 0
28 -2 -11 -7 0
24 -11 5 -9 0
26 2 -29 8 0
-6 -25 -12 -24 0
7 2 22 -13 0
-7 21 2 -26 0
-14 8 -23 -20 0
-12 22 -28 -17 0
24 10 16 -17 0
3 -13 -16 20 0
10 4 22 27 0
23 14 12 -5 0
5 7 15 -8 0
-6 -10 13 -23 0
29 20 -17 9 0
23 -22 1 21 0
-24 12 -19 -1 0
-7 -11 20 -4 0
-20 4 1 29 0
24 15 18 7 0
-6 4 -23 -1 0
3 -21 -30 8 0
-19 -3 10 2 0
-29 -13 -28 -8 0
-25 29 -6 4 0
-3 -18 22 -9 0
-4 -26 -27 -1 0
29 -11 13 -6 0
30 -9 27 -25 0
7 -9 -29 6 0
20 3 21 -24 0
30 -1 -17 -24 0
15 6 -18 -8 0
7 8 16 -28 0
-2 -25 22 14 0
-9 26 1 -27 0
20 -6 -15 8 0
-20 -23 26 25 0
-7 -26 -30 -13 0
-12 10 25 -23 0
-24 -4 14 -13 0
-29 -5 1 -30 0
18 24 -30 9 0
4 26 16 3 0
28 5 19 3 0
-13 10 1 -25 0
-22 7 11 28 0
-14 17 24 2 0
-18 10 -9 -21 0
-6 -30 25 -11 0
-29 7 22 19 0
14 -27 18 -11 0
-8 -1 -27 -26 0
-5 29 21 -13 0
30 -20 26 22 0
-11 3 -27 -2 0
-18 -30 7 27 0
25 -12 -3 -8 0
-15 3 4 -1 0
26 10 -1 28 0
-19 15 -18 23 0
-12 20 28 6 0
14 -5 -11 -2 0
1 2 -10 8 0
12 -7 -17 -1 0
21 30 22 -7 0
-11 -25 8 21 0
21 29 -19 -11 0
14 3 18 8 0
14 2 -13 3 0
-21 -14 -3 13 0
25 -26 -8 3 0
23 30 26 21 0
-16 -1 -27 -23 0
7 -21 10 13 0
17 -16 -2 23 0
19 -21 4 -20 0
4 18 -10 -11 0
16 -26 -1 -23 0
1 23 30 5 0
29 13 -28 6 0
-13 -23 -11 6 0
-14 -7 25 27 0
-20 -17 -26 -9 0
-10 -27 20 -18 0
6 -26 -2 3 0
21 -3 -26 -8 0
-20 -14 5 8 0
-10 21 13 -11 0
11 -23 1 4 0
30 2 -27 11 0
-21 -27 -12 -6 0
22 11 23 29 0
-1 -24 -2 25 0
11 -24 21 -8 0
14 -11 -21 4 0
19 -29 -11 30 0
17 30 10 -18 0
