c E6 resource-count instance family=4-SAT n=40 (Random(9) stream)
c order 33 29 4 35 31 9 18 38 17 15 16 6 3 22 19 30 20 5 2 7 27 28 40 26 36 10 34 8 24 14 13 23 25 1 37 12 21 39 11 32
p cnf 40 384
-32 19 -14 17 0
8 11 31 28 0
20 25 22 -26 0
3 -40 36 -2 0
30 -37 -39 3 0
12 30 -35 27 0
11 6 35 -20 0
-34 -19 17 -21 0
-7 -32 -16 -31 0
1 -25 5 39 0
-21 -24 -37 -7 0
-17 -35 -1 -29 0
-10 -20 38 -29 0
-7 -10 34 -24 0
-18 -38 21 -34 0
-11 22 28 -23 0
4 16 8 24 0
7 -9 34 1 0
-32 25 18 24 0
-34 -9 27 1 0
38 14 -28 9 0
-20 -25 -10 -9 0
11 30 -1 -16 0
40 8 -30 6 0
-21 38 -13 -33 0
-19 32 -39 22 0
-6 -35 37 -22 0
-11 -7 22 -35 0
-17 27 35 -37 0
-14 26 10 -40 0
34 -6 8 -18 0
-34 -10 -20 -16 0
14 26 -9 39 0
37 -9 -8 33 0
-5 26 -1 25 0
-27 4 29 36 0
-15 -30 5 23 0
11 -2 29 7 0
24 14 -29 -37 0
-9 18 16 -35 0
10 18 -16 31 0
-25 -32 40 4 0
-29 -7 -32 33 0
37 -7 -16 -33 0
-37 -1 33 -30 0
-27 -21 6 36 0
-19 -21 -11 20 0
24 37 -15 -2 0
11 -21 -30 -12 0
-25 -26 2 -19 0
-18 -40 -3 -22 0
1 -33 19 38 0
-39 -1 37 33 0
1 15 9 29 0
-25 -37 -5 31 0
23 34 -18 -40 0
21 -39 23 8 0
-13 3 -38 -7 0
-7 -21 -12 -24 0
-6 -26 -10 -38 0
1 18 29 40 0
11 38 -23 -16 0
14 -18 -19 38 0
-19 20 -37 -28 0
-14 1 7 9 0
-37 -25 6 33 0
29 6 14 -25 0
12 -15 -8 -30 0
-6 28 -16 -8 0
2 -10 40 38 0
-29 -30 -4 -15 0
30 -32 6 -17 0
-23 -36 7 40 0
21 37 16 4 0
-33 -18 -24 26 0
21 -9 33 -38 0
35 2 26 -6 0
-29 6 -16 30 0
2 14 -23 38 0
-33 7 17 27 0
-25 1 -36 -13 0
-39 -5 34 9 0
14 27 -25 35 0
-1 11 -35 -4 0
7 -21 13 35 0
20 30 3 19 0
30 -40 39 -31 0
19 -12 32 -4 0
27 10 25 -11 0
18 -10 15 -23 0
-35 38 28 -29 0
10 -5 -40 20 0
-10 -29 -20 -15 0
-30 -26 -33 -16 0
13 26 12 24 0
10 6 -2 -25 0
-11 39 21 -32 0
3 -9 34 7 0
17 -37 31 -33 0
-36 -12 30 -19 0
22 36 -1 -31 0
18 31 -39 38 0
-9 4 -29 -39 0
7 -19 -15 -17 0
6 16 38 35 0
-16 3 -11 -36 0
40 11 -37 -22 0
-4 13 40 -9 0
-20 -23 -10 -39 0
7 25 -37 -36 0
19 -32 11 7 0
-31 -26 23 -40 0
21 30 -12 18 0
-21 -1 16 24 0
-26 23 31 25 0
38 26 33 -5 0
25 -24 -39 34 0
26 39 40 -21 0
15 -8 -9 -26 0
31 -26 33 35 0
-9 -25 -23 -37 0
21 -34 9 19 0
30 -29 16 37 0
-12 11 4 -16 0
5 -30 26 34 0
29 2 -14 31 0
-39 15 -30 33 0
29 38 -33 -10 0
-13 19 29 39 0
-21 -33 -34 -2 0
-39 32 17 7 0
27 -18 1 15 0
-34 38 -22 -31 0
18 33 -15 28 0
-28 -30 3 -23 0
-26 -20 13 12 0
-22 -30 17 13 0
-3 8 14 37 0
37 -28 26 40 0
13 -25 1 21 0
16 -37 28 -39 0
-24 22 -38 8 0
25 1 33 -29 0
23 21 25 -7 0
4 -20 16 -29 0
-18 10 -3 -20 0
-12 38 -35 1 0
-18 5 29 32 0
14 12 -39 16 0
25 39 -1 -10 0
-30 -19 -36 11 0
-8 -35 -28 38 0
23 14 12 -39 0
3 12 30 16 0
-24 -8 26 -21 0
26 27 -7 -5 0
-12 7 11 13 0
-22 35 31 7 0
19 -35 26 -30 0
40 -19 24 -37 0
40 -30 -28 33 0
6 -18 19 -17 0
17 -11 19 -9 0
-38 6 35 32 0
-19 -2 26 10 0
-9 33 -38 -14 0
8 -23 38 16 0
13 27 -29 -7 0
34 -5 -1 -19 0
14 -5 40 -13 0
36 -1 -12 22 0
31 -17 18 -8 0
35 4 18 -14 0
-24 2 29 5 0
-36 8 -5 -3 0
31 8 18 -40 0
-33 26 36 6 0
30 31 -8 25 0
-5 23 -7 28 0
20 30 -2 -1 0
-35 -7 -32 11 0
23 5 32 10 0
5 29 -34 -11 0
-18 38 -6 33 0
36 29 32 21 0
-15 14 -40 -25 0
-15 30 -17 -22 0
-33 18 -37 -27 0
39 -4 10 17 0
4 32 -22 16 0
14 -30 18 -5 0
-4 18 40 21 0
-36 -12 1 -40 0
10 34 31 -23 0
13 -3 -37 16 0
-39 -9 32 -40 0
-16 -10 4 20 0
11 -10 -33 -8 0
23 -36 -35 -25 0
-2 -16 14 18 0
10 5 -3 -4 0
-15 -6 -19 -17 0
-21 -25 -28 -29 0
39 -33 32 15 0
38 14 -6 33 0
1 5 -9 39 0
-20 -21 4 8 0
-28 -2 33 -15 0
-24 18 9 3 0
35 -36 -40 -18 0
20 -17 -9 -5 0
12 31 21 33 0
-19 -35 -24 23 0
-25 -1 10 -22 0
-33 -36 13 -35 0
6 -13 15 -37 0
-40 19 -25 -28 0
39 -31 -11 -35 0
4 -31 27 -13 0
-23 -18 -16 -10 0
24 -6 2 30 0
6 34 26 -40 0
-38 4 34 8 0
30 -33 26 1 0
33 -15 -22 27 0
-35 23 18 -34 0
-39 -28 -34 -18 0
2 35 11 9 0
-33 22 -14 -32 0
-35 12 2 10 0
32 -6 16 24 0
22 -33 9 -17 0
-13 -12 -26 -38 0
36 18 35 -37 0
34 -26 -9 -8 0
33 -30 -27 3 0
17 9 -8 -6 0
-15 26 -2 35 0
-35 22 -16 -7 0
23 29 -5 -18 0
37 -13 -40 -36 0
12 -7 -5 21 0
-25 -38 -10 -4 0
-1 -40 29 30 0
-31 5 19 27 0
-36 -7 12 -26 0
-20 -2 -21 12 0
23 -32 10 -35 0
4 -21 -15 13 0
-23 33 40 21 0
-29 25 35 13 0
-31 29 24 -36 0
-9 -39 27 31 0
-19 39 7 -4 0
34 35 3 -2 0
-14 24 -40 1 0
11 -27 29 31 0
-15 -16 20 -26 0
18 22 -40 -29 0
-22 -15 -5 19 0
-32 17 30 -5 0
9 -20 -32 18 0
-27 9 -1 -29 0
13 2 40 -8 0
39 17 -11 23 0
-32 -24 31 -16 0
20 -12 -25 28 0
39 -6 25 -15 0
-30 22 8 -23 0
-10 22 -7 -16 0
-38 39 -9 23 0
-14 26 20 19 0
14 -11 -4 5 0
4 -6 -40 9 0
35 -40 -4 -24 0
13 5 -3 -34 0
37 -14 -27 -28 0
40 -11 20 -21 0
32 24 38 -2 0
-33 32 -2 -35 0
-37 29 7 28 0
-34 -12 -32 -13 0
4 -37 -21 15 0
28 32 17 13 0
33 37 20 35 0
2 -22 27 20 0
12 -37 -38 22 0
11 31 15 17 0
-1 -10 27 -19 0
-7 14 -25 3 0
37 7 -33 -18 0
1 20 -29 -37 0
26 1 38 -27 0
-5 14 38 39 0
7 -28 -40 -4 0
33 7 -39 11 0
24 20 28 19 0
24 -33 -25 14 0
37 -12 7 -8 0
-36 -19 -16 37 0
-26 28 -3 10 0
-8 -28 -27 7 0
16 13 17 11 0
39 16 -35 -34 0
18 5 6 -37 0
-3 -20 -26 32 0
-31 -7 15 8 0
34 7 -17 -26 0
-2 -5 -9 -33 0
13 -40 -3 -24 0
-35 -30 -7 17 0
30 31 14 -28 0
-21 -2 -33 -29 0
-11 -22 13 25 0
-9 -10 3 8 0
27 40 7 20 0
-4 2 -18 -22 0
39 -4 15 -33 0
11 -9 -14 -26 0
-1 28 35 32 0
20 38 -30 -13 0
-26 11 -15 10 0
34 -22 18 3 0
-16 -15 10 2 0
30 10 12 17 0
12 3 10 -20 0
33 1 3 -40 0
-32 -16 35 -40 0
38 -7 4 -39 0
14 21 2 -27 0
21 -23 9 -40 0
5 28 -39 17 0
37 -26 -36 25 0
-14 20 -38 31 0
9 36 32 -4 0
-15 -17 -40 39 0
6 -20 -19 -12 0
-26 24 -20 11 0
37 3 18 -1 0
-6 30 -35 -37 0
7 18 -26 -28 0
-1 13 -23 7 0
3 -35 21 -9 0
-37 5 -4 39 0
-36 -26 -7 -5 0
30 31 -25 16 0
-31 -35 40 -11 0
-9 16 -36 -14 0
13 30 -32 -11 0
-6 -28 17 24 0
40 -22 -17 26 0
32 -37 6 -35 0
38 -18 26 -34 0
-20 26 -11 21 0
-17 -2 6 -16 0
-39 -11 -5 -4 0
1 -11 29 -6 0
-3 23 22 -36 0
16 28 34 26 0
-33 37 12 4 0
-5 -19 -8 -40 0
-31 -30 15 -23 0
30 -36 18 -25 0
-32 35 -12 -29 0
-35 -1 -6 -2 0
-25 -20 -8 36 0
-36 -37 4 -26 0
-35 10 9 5 0
34 -24 25 -9 0
34 -33 -27 -39 0
36 25 -27 38 0
-28 -11 -31 12 0
-20 22 32 11 0
-16 4 5 -8 0
6 -34 -4 -15 0
-22 -12 10 -33 0
38 -2 6 -26 0
-25 -36 19 -33 0
22 -9 -24 -5 0
3 -26 -6 -17 0
28 -5 36 25 0
12 8 -2 -6 0
-16 -28 22 30 0
-39 3 25 -17 0
