c E6 resource-count instance family=4-SAT n=50 (Random(9) stream)
c order 37 5 3 17 20 43 6 49 44 30 46 32 15 31 1 38 41 7 10 16 26 45 4 9 35 23 24 48 29 12 8 19 21 40 18 22 14 42 25 33 11 27 34 2 47 36 28 39 13 50
p cnf 50 480
-34 44 -39 36 0
-4 19 -41 36 0
-2 -45 9 -3 0
-45 -15 -35 -17 0
-13 -16 30 -10 0
-15 -17 11 -35 0
-46 42 -37 49 0
-23 -34 19 2 0
-41 -2 47 19 0
-25 -24 29 -30 0
-3 -14 33 49 0
-36 8 46 -9 0
-12 2 24 45 0
-43 -10 44 11 0
-43 -50 -49 -32 0
-33 28 37 -50 0
5 48 -11 19 0
-1 8 44 -47 0
42 -37 -10 35 0
21 -38 12 32 0
-20 1 37 -50 0
26 10 49 38 0
-45 46 3 14 0
23 43 -13 -45 0
32 -24 26 39 0
41 -29 -30 -3 0
-24 -33 -50 31 0
47 -29 -33 -50 0
-25 -4 -34 11 0
-43 9 -49 -27 0
13 -38 -29 -23 0
-2 -19 -5 -43 0
50 -40 34 -1 0
-14 -28 -41 38 0
-12 22 6 -35 0
-25 31 17 -48 0
24 -11 -48 -42 0
1 14 29 -26 0
37 1 -8 3 0
-16 34 12 20 0
-30 42 46 -23 0
22 4 -40 44 0
-47 31 19 10 0
39 -49 -35 -27 0
50 33 31 -38 0
-11 24 -2 -37 0
-15 43 47 -7 0
-41 -8 26 1 0
22 -28 -35 -23 0
23 -40 -31 7 0
-23 9 2 21 0
-5 19 45 -38 0
-6 -16 -12 -33 0
36 -16 -37 44 0
-48 29 -8 -44 0
-35 -36 38 25 0
-2 29 -21 40 0
-7 -42 3 21 0
-37 -3 10 -20 0
38 -35 42 10 0
-45 -22 11 12 0
-15 -38 -46 -35 0
-41 -12 25 -32 0
10 -7 17 16 0
10 42 4 33 0
-31 -44 27 -19 0
-19 34 -27 42 0
19 23 25 -47 0
1 -43 7 -14 0
39 31 16 47 0
42 -47 -50 8 0
-48 9 24 3 0
15 39 42 31 0
9 -35 -2 -34 0
-34 17 44 -8 0
27 -29 -22 -34 0
9 -31 47 4 0
4 32 40 -13 0
9 2 43 -36 0
-49 -44 -47 -31 0
-8 36 -10 -40 0
35 -41 -49 42 0
50 36 -31 -16 0
29 -41 -37 40 0
-32 -29 36 19 0
-42 16 14 33 0
31 -5 1 -37 0
46 -38 -32 -7 0
42 16 -8 25 0
6 -15 -3 -45 0
-46 -17 9 40 0
36 -20 -12 35 0
40 -18 -17 46 0
-8 26 9 -16 0
40 2 35 21 0
4 -24 8 20 0
13 -28 -5 -10 0
44 -45 24 -5 0
12 8 24 50 0
-14 -18 26 44 0
40 -23 -45 26 0
19 12 -3 46 0
49 -32 39 3 0
47 -37 49 42 0
-28 -31 22 23 0
19 46 22 34 0
-10 -34 -8 12 0
-42 -10 22 15 0
47 13 8 -23 0
-43 -32 -15 -44 0
20 35 -2 14 0
-29 45 -28 -18 0
-38 -39 11 -22 0
11 1 12 -47 0
44 -9 18 -10 0
38 11 19 -37 0
31 46 17 9 0
46 40 32 -39 0
21 -19 50 -2 0
9 41 -17 -31 0
-47 -45 -46 -19 0
-41 17 29 -15 0
-17 32 -26 36 0
-46 29 7 -32 0
-47 42 33 34 0
8 34 -13 45 0
-17 7 29 39 0
-12 36 -39 22 0
-38 -28 23 50 0
-43 21 -5 39 0
-31 22 -45 -28 0
48 44 -49 -38 0
34 17 12 -23 0
27 9 -13 42 0
34 4 38 22 0
5 -27 26 -33 0
-13 39 -12 -26 0
-16 20 48 7 0
-46 20 -39 -2 0
-20 14 -41 -25 0
-43 -21 -40 32 0
-13 24 -22 -19 0
-44 28 1 -22 0
-27 -40 -38 -49 0
10 32 47 44 0
47 21 -48 -16 0
45 15 34 26 0
7 -15 -25 39 0
20 38 30 -37 0
-43 39 44 -16 0
40 31 9 -30 0
41 21 -49 11 0
-15 29 31 -5 0
46 12 18 -8 0
2 -16 -4 -13 0
-12 -1 50 -6 0
7 -4 -31 -9 0
-36 32 -21 -44 0
15 38 9 34 0
-27 33 -47 -40 0
-28 -35 -49 -26 0
30 -23 43 21 0
-1 -31 27 -15 0
37 -50 13 27 0
17 8 41 -1 0
39 13 10 -9 0
18 -9 4 43 0
-16 17 -20 -32 0
-13 15 28 18 0
-24 19 -4 16 0
-50 -11 -16 -2 0
-41 38 14 -11 0
10 29 -6 -50 0
-30 34 -42 -15 0
20 2 -39 37 0
-5 -19 -40 -46 0
35 36 -9 -30 0
-24 -6 -2 -48 0
-32 -14 35 -45 0
15 26 14 -38 0
5 -40 -14 18 0
-46 -40 -17 41 0
-17 4 48 -36 0
39 50 -22 26 0
-43 27 -7 -33 0
-18 47 -39 -17 0
-13 45 40 16 0
-37 21 36 -17 0
47 -50 32 -8 0
12 -50 34 -14 0
18 -38 11 -23 0
38 -35 41 -33 0
41 -10 40 -7 0
34 22 -45 33 0
47 24 -11 -34 0
15 10 32 -37 0
36 46 10 -17 0
44 -8 -27 -13 0
22 -27 32 -41 0
-17 41 50 44 0
33 -29 11 43 0
15 10 8 23 0
-22 38 -3 -14 0
37 -31 -47 -35 0
43 47 38 -48 0
37 -27 20 46 0
7 2 22 -9 0
-25 22 39 -44 0
12 -22 50 -41 0
37 4 46 15 0
-4 40 5 -34 0
37 14 -40 -5 0
-26 47 21 -31 0
4 1 -36 42 0
48 -20 -11 -44 0
-20 -15 -3 -1 0
-36 -26 -3 -12 0
-24 -5 14 36 0
-1 47 -8 -21 0
-16 24 -28 22 0
10 33 43 -44 0
30 -50 -27 31 0
-1 6 33 29 0
-47 21 18 -25 0
44 47 -26 -37 0
36 -11 25 18 0
39 16 14 43 0
-8 -49 -35 41 0
38 -3 -22 -20 0
45 37 42 -13 0
45 -44 17 -41 0
12 -41 44 -4 0
34 -46 28 1 0
21 26 -38 -45 0
1 27 2 28 0
-7 8 -2 -12 0
19 37 48 -13 0
31 -1 -41 -39 0
32 -18 -39 -11 0
-46 -26 50 45 0
37 -5 50 45 0
15 -32 -19 -3 0
28 -13 21 35 0
36 30 -2 -42 0
11 -7 50 -27 0
-44 20 12 -11 0
39 34 37 42 0
28 48 -39 27 0
13 -42 18 -46 0
-5 -45 33 -11 0
24 6 41 42 0
15 2 -21 -40 0
-8 24 -3 34 0
20 -18 -8 -5 0
30 46 49 13 0
-16 23 35 3 0
5 10 -48 -16 0
-6 -17 -22 -14 0
45 -50 -31 -10 0
-6 24 -14 22 0
-8 -45 -13 -26 0
49 37 9 29 0
13 -32 -46 -10 0
-6 48 38 27 0
-16 -4 41 -34 0
48 -34 -27 -30 0
-28 32 46 44 0
24 22 -45 -11 0
-33 5 -30 16 0
35 -7 37 5 0
-18 -47 -3 -26 0
-27 24 36 43 0
-12 34 -19 -45 0
8 -19 -45 26 0
-40 20 38 35 0
-42 31 -43 -19 0
-34 -39 20 18 0
47 -19 36 28 0
-15 38 -8 19 0
16 2 47 -5 0
-47 -28 -25 -45 0
41 -27 29 -1 0
-47 37 -20 2 0
27 50 -34 -41 0
20 -36 34 -41 0
7 20 30 -22 0
1 21 34 4 0
45 49 -4 -32 0
8 -11 40 -38 0
10 -8 -37 36 0
-21 20 -46 -31 0
28 -39 17 -11 0
13 11 29 2 0
24 -4 33 -39 0
36 42 -18 2 0
-11 36 44 -35 0
-40 -15 -18 -39 0
23 -29 31 -46 0
-14 2 15 27 0
-45 -32 3 36 0
-13 -50 1 10 0
14 39 -40 34 0
9 -26 42 1 0
-25 -15 -7 47 0
-6 -40 28 -19 0
8 -32 5 -28 0
-36 11 -3 -1 0
36 -6 16 48 0
3 -34 37 1 0
-46 23 29 -50 0
-35 -40 -10 8 0
20 -12 22 10 0
20 -8 39 34 0
-6 16 -27 -14 0
42 -13 44 -7 0
32 2 6 -8 0
13 -6 18 47 0
18 -46 -42 -47 0
-45 -48 -43 35 0
-3 45 -19 -13 0
25 9 7 -24 0
-23 -14 29 7 0
49 9 -36 -50 0
18 -44 28 34 0
2 -47 -42 -40 0
10 31 -39 -44 0
-16 -36 50 -11 0
39 22 18 34 0
-30 -2 -39 -16 0
50 3 -13 9 0
-29 -37 24 -23 0
-29 -44 -16 -40 0
2 36 -8 -19 0
-13 45 7 -41 0
33 11 41 -5 0
-42 -2 22 -36 0
44 3 -4 27 0
-25 -13 48 28 0
11 -17 3 -4 0
-46 42 -31 -23 0
-2 -9 -22 40 0
8 45 14 31 0
12 31 -14 21 0
38 -28 48 -22 0
50 42 -27 -39 0
25 -29 -44 -7 0
45 11 34 47 0
-38 50 -16 -3 0
-3 7 -2 -35 0
46 -4 -23 -6 0
-48 16 -38 -21 0
32 -47 38 27 0
40 44 -49 46 0
8 17 31 40 0
-41 7 -12 48 0
45 16 50 36 0
23 -28 -35 26 0
25 -34 35 -32 0
-44 12 1 25 0
-19 26 7 -15 0
39 49 22 16 0
-43 -31 -48 -39 0
-42 -22 40 -10 0
-4 -44 6 -40 0
-18 -5 -16 17 0
-11 -39 15 -4 0
28 16 9 -22 0
-21 -34 -42 38 0
32 47 -22 31 0
-35 -27 41 12 0
18 -28 35 -40 0
29 32 -16 14 0
14 10 29 -44 0
17 -11 -13 -38 0
8 -29 48 -37 0
27 42 47 -25 0
3 -44 30 -6 0
29 4 36 45 0
-19 25 37 -3 0
-44 -39 21 -1 0
44 5 49 -26 0
-36 -39 -15 -23 0
-28 -32 4 -11 0
8 -2 -21 33 0
-8 12 34 -14 0
-13 14 -19 49 0
-22 -42 -31 39 0
-10 14 35 -3 0
33 -17 12 -39 0
34 -48 14 22 0
10 -8 36 -42 0
-7 16 45 -4 0
32 47 -8 -46 0
17 20 -2 1 0
-46 7 -49 -3 0
-23 16 -50 8 0
1 -25 42 -36 0
-47 5 -34 -29 0
44 42 -13 -50 0
27 3 -18 -21 0
-42 7 -14 22 0
39 47 31 16 0
-21 -22 -29 28 0
15 -10 7 22 0
-48 -9 10 11 0
-24 -48 -18 -20 0
2 -25 -50 33 0
-8 -17 -35 11 0
-42 26 -13 -50 0
-29 40 -14 7 0
36 46 33 -37 0
39 9 -35 18 0
40 19 -13 -26 0
36 -25 -6 47 0
-49 8 35 5 0
21 34 10 20 0
-19 7 23 -3 0
-4 3 26 -42 0
-33 -34 9 -28 0
41 -16 22 33 0
42 -29 34 12 0
22 24 37 -28 0
1 50 6 -25 0
-42 -48 -1 -45 0
13 -25 -41 47 0
-32 -41 16 -42 0
13 40 -6 -36 0
-9 -45 -40 37 0
14 36 -4 -2 0
24 20 41 -16 0
31 9 -45 26 0
19 -32 -31 9 0
-15 -32 45 -8 0
3 42 2 -8 0
27 31 -8 38 0
-9 -48 5 -1 0
-47 -27 49 2 0
4 27 28 -33 0
-17 -34 12 -14 0
16 38 -15 -17 0
3 -4 30 45 0
32 33 30 -37 0
-28 21 -23 -9 0
-8 -2 26 -1 0
-29 -39 35 47 0
-23 34 -50 -12 0
-42 18 43 -41 0
-2 -35 16 46 0
-48 25 23 17 0
15 39 -47 -41 0
33 6 50 -29 0
43 36 41 -46 0
-28 -35 16 24 0
39 47 37 13 0
7 28 -43 24 0
46 41 -13 15 0
13 50 22 1 0
-31 -36 -38 -22 0
48 -34 25 -28 0
40 -20 -28 27 0
4 -22 8 -12 0
-13 40 -47 -45 0
-44 -30 23 -15 0
-5 8 -22 33 0
49 -24 -40 -35 0
27 21 -44 19 0
48 -46 34 -39 0
-22 -49 42 -35 0
-24 42 -30 -37 0
22 -12 -38 37 0
49 12 -10 -6 0
9 -16 -5 29 0
-42 39 28 -35 0
46 -45 21 35 0
32 -40 49 12 0
23 -6 -20 -32 0
13 35 49 -39 0
16 -2 -24 -15 0
25 -43 27 -23 0
-8 -24 -32 -40 0
