c E6 resource-count instance family=4-SAT n=60 (Random(9) stream)
c order 13 37 1 42 4 40 31 47 16 46 3 52 36 41 11 43 48 25 57 58 5 59 7 49 32 55 30 39 60 8 27 15 38 17 19 9 26 34 35 51 14 20 44 10 33 50 53 24 54 6 56 21 23 28 12 2 45 29 18 22
p cnf 60 576
20 -18 37 33 0
32 21 -39 26 0
-23 -46 25 54 0
-50 29 35 3 0
22 -24 -42 -51 0
10 -9 58 -7 0
-14 51 43 4 0
28 51 30 34 0
44 -26 -5 -17 0
44 33 -41 -17 0
-44 -54 45 -30 0
-42 1 -55 -28 0
42 -32 -39 -54 0
59 58 3 9 0
-34 -55 49 -1 0
-60 -20 -37 -35 0
25 -43 5 40 0
12 54 -39 -42 0
23 22 -9 -47 0
-59 -38 -52 47 0
-26 17 50 -14 0
2 -10 48 25 0
17 42 -55 1 0
-4 26 16 58 0
13 19 -22 -23 0
-18 -58 -53 -32 0
23 -12 -25 -30 0
30 -45 -3 -47 0
13 49 14 -35 0
49 54 -12 -28 0
55 -28 49 18 0
-29 -41 -8 -12 0
-28 29 -22 50 0
-27 -22 35 31 0
19 4 -57 33 0
-6 -53 5 -43 0
4 20 26 52 0
35 -54 48 -29 0
24 -10 -34 41 0
50 -9 53 -40 0
48 6 39 50 0
-32 -13 -16 -8 0
-4 18 -26 -52 0
41 -55 -43 -17 0
-31 30 20 7 0
15 -52 18 -51 0
-22 -17 -57 -31 0
34 9 -15 -17 0
-55 37 51 26 0
20 -49 -59 -13 0
-44 45 1 46 0
22 53 -42 -54 0
-31 40 -57 2 0
58 52 4 44 0
-57 -21 28 7 0
-1 20 -16 4 0
-35 18 -29 -38 0
-26 14 45 -23 0
9 32 45 -51 0
-3 18 9 50 0
-10 -27 -25 34 0
-22 -42 -37 50 0
-41 54 18 42 0
-29 49 28 18 0
4 -25 -48 -57 0
33 17 -4 -11 0
59 -37 -48 -6 0
18 55 20 -39 0
21 -13 27 -57 0
53 47 20 -3 0
-36 -29 48 60 0
-54 49 -58 20 0
-60 37 -23 -59 0
32 22 -52 -14 0
-10 -38 -60 -43 0
-18 50 58 -53 0
49 4 -35 -57 0
-7 -58 -31 -41 0
-28 24 18 7 0
27 12 1 22 0
11 -43 -19 48 0
-26 -51 -11 -60 0
-28 -40 35 -11 0
38 -3 27 48 0
47 41 -9 -35 0
-40 -4 16 12 0
21 28 -5 32 0
-16 -10 -39 17 0
50 4 53 17 0
-45 -53 17 -40 0
49 57 -8 -24 0
2 46 57 6 0
33 60 -24 48 0
-29 -31 18 -10 0
-60 58 -33 -4 0
-4 -27 18 -58 0
-25 1 -5 -14 0
-25 56 41 -40 0
-27 23 4 -58 0
-50 20 57 -53 0
-11 -8 -33 17 0
-53 44 45 2 0
32 43 -42 -7 0
-50 -24 -35 52 0
-9 -46 -32 -24 0
-34 -7 -30 4 0
-34 8 37 -48 0
-25 -51 12 -45 0
-23 -29 50 28 0
20 58 51 19 0
14 46 17 -44 0
45 -38 -32 -46 0
-51 -8 55 60 0
-59 -43 -17 40 0
15 52 6 -13 0
-55 49 39 47 0
57 -14 -60 51 0
24 -6 16 43 0
32 11 -51 -39 0
46 22 -48 60 0
55 7 15 26 0
27 -43 -16 53 0
-52 -27 42 45 0
-36 -18 58 -52 0
-20 49 -39 25 0
-13 -44 3 -39 0
14 -4 -46 -28 0
33 27 -41 59 0
-32 55 49 34 0
-23 20 -58 7 0
19 7 52 34 0
6 19 53 15 0
-49 -42 -55 -21 0
-40 -27 -37 -36 0
-7 -9 -21 -11 0
43 -50 17 -18 0
-1 5 4 3 0
-14 28 -2 4 0
-22 57 -13 -52 0
-38 -5 -15 -13 0
39 -24 52 -17 0
-46 -47 28 -34 0
-21 -26 33 -38 0
30 -18 43 -57 0
-24 -42 12 -1 0
37 13 -16 54 0
-19 -3 5 -30 0
13 27 -49 36 0
-20 -31 -39 30 0
38 -43 33 8 0
8 16 50 -44 0
44 37 -52 -38 0
49 39 54 -37 0
58 33 16 27 0
49 -57 -27 -59 0
54 31 29 47 0
-23 -13 2 31 0
39 32 18 47 0
30 42 -44 -22 0
4 51 -26 12 0
-1 -58 -25 -38 0
-4 -28 -23 39 0
-14 -18 -19 15 0
17 56 14 -28 0
-54 27 -13 -21 0
57 50 14 36 0
34 11 -23 -29 0
25 -15 -29 -11 0
-57 54 -39 41 0
59 -28 46 55 0
-42 59 -16 -58 0
35 34 50 3 0
13 -55 26 -36 0
-31 -2 -24 41 0
-22 -4 3 59 0
35 -52 29 -58 0
-2 -23 -25 46 0
-31 -45 -58 -24 0
31 21 -51 -38 0
-43 -9 -40 8 0
-53 29 46 51 0
16 6 21 -42 0
6 26 -27 -41 0
48 59 24 56 0
9 -27 11 -44 0
21 -23 -57 -36 0
-31 16 -44 24 0
52 -23 -44 -57 0
13 -50 -29 44 0
23 -36 -53 6 0
-15 54 50 -32 0
7 -59 -27 -11 0
-55 37 -42 20 0
-14 -35 -8 -26 0
36 -28 -57 -55 0
-49 -9 -48 -33 0
-25 4 45 -54 0
56 11 -53 59 0
15 34 25 60 0
14 -27 -47 -45 0
-7 -45 29 13 0
24 46 30 12 0
-23 15 46 42 0
-21 13 60 28 0
49 27 -32 11 0
-47 -43 -2 35 0
-43 57 -55 -59 0
26 55 15 -46 0
40 -3 41 -2 0
37 4 -48 -7 0
-46 -59 -37 11 0
49 -51 8 -57 0
-46 59 24 -9 0
12 9 -11 -38 0
45 35 -51 -14 0
52 17 -14 -25 0
-17 -47 -43 48 0
30 -58 -21 18 0
-33 44 42 9 0
6 27 -41 -33 0
-40 13 -17 -35 0
33 -5 -23 37 0
-28 -58 25 16 0
31 57 48 52 0
14 26 -31 59 0
-17 -19 -49 33 0
11 -6 3 40 0
3 36 -55 -24 0
54 -13 20 47 0
-46 -32 10 -24 0
41 31 -45 -59 0
8 45 56 -60 0
-56 -39 43 -17 0
-53 13 -33 24 0
33 35 -29 -19 0
-41 49 33 -17 0
-55 33 -19 -34 0
17 -21 -18 -24 0
8 -17 20 -12 0
24 -10 36 12 0
9 -57 -7 -16 0
32 -17 12 56 0
10 7 -47 -25 0
57 12 7 39 0
-55 -10 17 -18 0
-16 9 -1 44 0
50 3 -41 -44 0
-58 53 35 41 0
60 -30 -25 19 0
35 -58 -34 -11 0
-15 52 -54 -17 0
-52 -18 12 -42 0
-55 45 52 38 0
55 -34 58 -30 0
29 27 -2 -24 0
40 -25 51 -3 0
25 24 -27 -53 0
-18 -36 27 -33 0
22 -52 53 30 0
-11 -23 -46 -44 0
52 -43 -25 -15 0
60 26 -22 20 0
-56 10 -13 -48 0
23 -7 12 -33 0
-26 1 -15 -5 0
-44 -45 36 26 0
-22 35 6 30 0
-2 -6 -49 41 0
-44 -48 -6 -2 0
29 -36 -54 30 0
-37 -6 -44 -24 0
30 -60 -4 -58 0
-35 14 56 -38 0
-59 -1 10 -56 0
7 -50 -57 36 0
-22 1 41 44 0
21 -22 26 -43 0
-56 -32 17 -33 0
-34 -17 -25 22 0
-25 32 35 50 0
-7 34 40 51 0
10 -40 -49 -2 0
-58 -48 7 49 0
48 -21 -24 15 0
39 4 3 18 0
-36 14 12 31 0
-31 -39 -24 55 0
53 -11 37 -28 0
10 48 28 6 0
-51 48 13 -12 0
6 12 -44 -32 0
-28 56 -43 -12 0
23 -18 -52 -58 0
34 10 -31 -36 0
30 -5 -3 45 0
-47 8 -37 -51 0
11 -14 29 55 0
-3 -58 -41 -24 0
-27 -18 11 15 0
-59 35 -46 39 0
-54 11 -12 3 0
4 27 -16 32 0
32 -48 19 -16 0
15 29 47 17 0
21 33 -34 -57 0
-50 60 29 19 0
-15 -48 -46 50 0
9 17 40 -18 0
-46 -54 32 -15 0
-52 -11 -20 26 0
-4 -42 -24 -48 0
60 11 32 3 0
32 -20 60 10 0
-52 23 -15 7 0
-50 32 4 -2 0
31 -7 35 49 0
-14 -58 34 -22 0
39 -6 -12 50 0
-59 -36 27 35 0
-46 -17 -50 -41 0
-28 43 -2 -13 0
35 47 17 -16 0
20 -53 -19 36 0
-53 2 10 -58 0
-53 -4 1 59 0
-43 54 53 33 0
54 -18 -39 -31 0
4 -41 -20 40 0
-11 -29 -60 -33 0
-7 -14 -39 17 0
60 19 40 27 0
21 26 55 -43 0
9 -38 -24 48 0
-52 24 54 -60 0
-56 35 -24 23 0
-18 19 30 3 0
-11 29 -3 -7 0
-30 3 -49 -7 0
-56 -9 -23 -48 0
-41 -1 4 -43 0
-31 -48 3 49 0
-11 -57 42 -14 0
40 -26 -39 -35 0
5 18 -33 31 0
-6 -37 -60 25 0
-20 -41 16 -12 0
-10 -53 49 -6 0
-47 -26 -34 -50 0
1 -44 -59 35 0
-42 58 51 -23 0
-36 32 15 1 0
27 -20 -24 6 0
-52 39 -8 -21 0
52 -19 -32 23 0
-26 -52 -47 -40 0
-16 11 6 -42 0
-24 -1 -54 -43 0
-5 40 -43 41 0
-22 -12 -55 -20 0
-35 45 44 58 0
50 -31 34 35 0
-33 -2 -56 -58 0
-7 -2 14 12 0
18 -34 11 -39 0
-52 32 45 7 0
-26 -54 9 58 0
-58 -32 56 60 0
9 12 11 -45 0
-59 -14 -7 36 0
56 53 -57 -58 0
-8 49 7 -17 0
36 -25 29 -49 0
53 57 33 -47 0
14 34 22 -7 0
58 44 -3 16 0
-4 -17 23 21 0
13 28 23 36 0
4 -53 -39 7 0
-59 37 23 -50 0
15 -12 49 -10 0
-10 49 56 -44 0
-59 -3 46 40 0
10 34 -18 -35 0
-10 60 48 -54 0
30 -40 26 23 0
-52 -14 -54 -30 0
21 20 40 -28 0
47 26 -59 6 0
32 41 1 -45 0
34 -41 -45 -48 0
-32 8 -45 48 0
53 -46 -47 -38 0
-15 -52 -34 21 0
30 37 -51 15 0
26 1 -9 -35 0
33 14 -32 -12 0
-15 18 -23 -17 0
-54 -7 -39 27 0
41 14 -5 58 0
29 13 -56 49 0
-19 -11 59 -1 0
-2 -54 53 51 0
-49 15 60 21 0
58 39 -12 -4 0
13 11 -47 -9 0
28 -16 -36 34 0
-18 51 25 3 0
-29 43 2 33 0
-12 -49 -58 -31 0
-23 -28 30 42 0
2 15 7 37 0
48 20 -1 15 0
29 -35 -23 -40 0
-47 -27 2 52 0
9 -56 -28 2 0
-24 -26 -6 34 0
52 39 4 41 0
-13 -17 59 -19 0
25 23 -57 14 0
45 55 31 -8 0
-7 -35 8 -47 0
-31 60 -23 37 0
-52 50 -15 -34 0
51 -11 28 -31 0
-53 -49 -30 -27 0
47 -15 19 2 0
-18 -10 -34 -42 0
-44 42 -59 -21 0
28 31 10 -39 0
19 -37 6 44 0
60 2 -23 26 0
-11 -33 -38 45 0
16 58 -39 28 0
8 -30 11 -23 0
-2 43 -33 -14 0
48 -10 19 -54 0
38 53 -8 -33 0
-9 -57 -38 60 0
7 -5 -26 -14 0
-58 -19 -37 -51 0
-19 42 -51 12 0
-16 -49 -25 -40 0
-19 -12 -29 -37 0
-29 59 46 -8 0
-39 49 -19 53 0
-24 18 38 -28 0
-41 50 27 8 0
9 47 30 15 0
-16 -41 -11 -49 0
24 -39 8 -11 0
-34 57 -22 8 0
45 -40 44 -38 0
-24 -48 57 -22 0
-36 60 -35 -50 0
7 48 30 -34 0
1 -9 36 58 0
33 55 -15 56 0
-41 -55 -52 -53 0
4 60 2 30 0
-10 29 -49 -36 0
10 -22 6 41 0
-10 -26 -36 54 0
-4 -46 21 5 0
-36 59 -38 56 0
51 -41 6 -21 0
-51 28 16 41 0
-22 3 -26 -12 0
28 -48 -57 1 0
-50 -17 -57 -43 0
-41 49 -30 -31 0
-21 -58 10 -39 0
27 -28 -45 -16 0
8 -10 -34 -51 0
-44 -37 -7 -38 0
-56 6 30 -29 0
50 -23 -31 -46 0
4 -54 -34 40 0
23 -18 50 -26 0
22 -18 59 34 0
-40 -54 -7 -50 0
-55 36 -14 -19 0
-55 53 45 -41 0
23 -10 49 -53 0
41 22 -26 58 0
-26 -7 31 48 0
33 7 -45 50 0
-55 47 -12 -35 0
-13 -16 -3 51 0
1 -18 47 -49 0
48 40 47 -2 0
8 -56 11 36 0
15 55 -33 26 0
-51 1 -7 56 0
39 27 -51 6 0
-32 54 48 12 0
-59 48 -55 40 0
-3 -4 28 -43 0
-3 -16 -5 -55 0
-54 11 32 -21 0
30 -4 -45 8 0
53 -54 21 32 0
57 -50 29 14 0
-18 -32 -52 -59 0
-57 37 -18 51 0
37 2 31 -32 0
-53 18 32 37 0
41 -27 -46 4 0
46 -36 59 -48 0
-8 31 -32 -27 0
19 48 -24 -33 0
-33 13 50 -8 0
12 17 -24 38 0
57 25 54 40 0
46 60 -3 -8 0
54 -9 8 40 0
-2 -36 -18 34 0
-6 -47 -45 55 0
3 -9 35 49 0
-13 34 -20 -1 0
44 52 -43 -22 0
-39 -28 -58 53 0
-54 -24 36 -29 0
-5 -14 32 -44 0
-54 -55 -4 -56 0
-2 -6 49 -60 0
18 25 -36 -8 0
58 -53 -12 32 0
8 14 -21 55 0
-29 25 -37 -28 0
10 58 55 23 0
1 -12 -28 2 0
-1 -44 18 -16 0
-46 12 17 36 0
40 53 52 19 0
-32 48 47 -51 0
-19 -52 -22 -60 0
2 -8 18 19 0
45 -53 41 47 0
-37 -52 -21 -7 0
30 -20 41 24 0
-56 -12 -11 43 0
-53 -11 40 56 0
-53 38 -14 -42 0
23 24 3 43 0
-27 33 -46 31 0
2 21 -15 -46 0
58 -55 14 -45 0
18 1 35 -15 0
6 -47 -28 46 0
-6 -2 42 -35 0
14 38 -10 -39 0
6 -18 -23 -10 0
-12 -44 -48 -35 0
49 -43 -16 15 0
-35 -25 34 7 0
54 52 -44 1 0
60 -38 -27 54 0
53 -45 -8 -20 0
-31 -7 -4 23 0
53 31 58 26 0
46 -37 42 23 0
-10 -56 23 40 0
-58 26 -12 -57 0
-49 -44 59 9 0
-7 -23 -59 37 0
12 46 40 31 0
49 29 -41 52 0
-40 14 -60 45 0
24 -26 -9 50 0
-54 35 27 -21 0
44 4 57 -37 0
2 -30 -14 -24 0
-21 9 -45 -1 0
-37 -30 3 25 0
-52 -12 25 26 0
-50 -44 -6 -58 0
