c E6 resource-count instance family=4-SAT n=70 (Random(9) stream)
c order 55 4 41 25 44 8 47 69 2 57 17 63 6 1 59 40 13 37 42 23 16 35 27 9 38 32 33 30 61 67 11 62 65 34 39 12 10 19 64 49 3 66 50 26 18 54 48 5 60 20 68 24 46 70 43 21 56 28 53 58 36 22 31 14 29 52 15 51 45 7
p cnf 70 672
-9 32 -12 -70 0
47 51 -63 3 0
-69 -2 47 -12 0
67 -43 -3 -18 0
42 -33 70 -62 0
42 -64 -41 -10 0
-37 -23 -19 -16 0
27 -66 29 28 0
20 32 11 43 0
49 -8 -23 3 0
19 52 -62 -8 0
60 -26 1 -53 0
69 49 45 -66 0
-15 13 18 8 0
-68 -52 66 -48 0
-41 1 62 63 0
8 -31 10 -30 0
16 -49 -68 44 0
34 -20 4 43 0
16 -36 -56 -63 0
70 27 -13 44 0
-56 -48 -8 60 0
41 -44 -47 -2 0
-64 37 -35 -12 0
-20 5 69 -36 0
-27 -69 40 -21 0
50 44 -54 -52 0
61 -57 -49 40 0
-61 42 -10 -39 0
11 -41 -55 -69 0
-40 17 -67 -32 0
48 6 43 -57 0
49 17 70 -12 0
-43 -35 -47 -14 0
10 11 48 17 0
9 43 48 -45 0
-68 69 -14 -27 0
-43 6 -29 -10 0
-13 34 -27 -58 0
63 33 -20 46 0
55 4 -6 31 0
-39 57 26 12 0
63 24 -31 58 0
-14 9 64 -39 0
52 38 70 29 0
-50 -45 -59 -28 0
-64 2 -59 11 0
56 -12 70 -37 0
56 57 38 2 0
-13 -70 1 -63 0
69 10 58 42 0
11 44 60 -23 0
3 24 32 56 0
11 21 -35 57 0
-8 -25 60 48 0
39 14 -42 24 0
49 -30 -38 -53 0
61 58 -7 -67 0
-24 -39 17 67 0
27 51 -62 39 0
-64 -26 57 45 0
-12 -34 38 5 0
-51 70 -6 39 0
6 66 36 -20 0
-67 50 53 45 0
6 -64 -15 -70 0
27 18 -45 9 0
-60 -39 -22 -15 0
67 22 -66 -3 0
-61 -33 -10 -19 0
-22 27 53 -65 0
54 6 -20 -26 0
-48 49 -52 -69 0
-51 65 -44 38 0
35 -9 42 48 0
46 -54 -29 -37 0
38 40 25 -7 0
48 65 29 27 0
-26 -43 60 21 0
7 20 -47 -24 0
-34 -8 -14 53 0
-9 69 -35 52 0
67 -8 56 -48 0
-45 -38 19 -48 0
-16 60 -47 -56 0
39 40 -31 66 0
-11 27 -61 42 0
-38 22 -32 12 0
61 -70 -56 -62 0
24 -67 -66 14 0
-37 6 -23 -46 0
31 -49 -58 -60 0
6 33 32 61 0
-31 17 -18 50 0
-45 -57 -37 4 0
37 3 50 -49 0
29 -21 15 60 0
-50 14 -30 -31 0
54 57 27 61 0
-45 -66 22 50 0
68 7 -69 -30 0
52 -15 -34 70 0
16 -28 -44 -66 0
-63 -44 39 -1 0
-36 -6 -10 66 0
-17 12 -50 7 0
-70 1 57 10 0
-34 10 16 -56 0
66 42 16 -8 0
-10 13 -24 4 0
-39 -30 33 -23 0
-14 63 -43 -58 0
-66 -61 -68 -56 0
23 -45 26 30 0
7 18 -6 33 0
-10 9 -35 58 0
12 -42 68 -43 0
-57 -5 -12 48 0
-12 -33 -68 -29 0
-12 -53 -22 38 0
-23 -7 58 -56 0
12 36 5 -11 0
17 -57 -38 -18 0
44 17 -58 -5 0
-38 25 -15 39 0
53 -36 68 -70 0
-61 -26 62 54 0
-22 -56 -64 -30 0
-67 5 27 57 0
-43 30 17 -49 0
-64 42 -48 -67 0
-23 21 45 -66 0
-3 15 -50 -59 0
-4 -26 -57 40 0
18 -31 55 64 0
25 15 -37 53 0
32 -68 -26 -22 0
-9 8 4 35 0
68 -38 -13 44 0
-30 -56 -66 26 0
20 57 62 29 0
27 61 -42 45 0
-12 -21 -45 -14 0
5 -61 35 55 0
-61 52 5 48 0
12 -69 46 53 0
23 69 -9 -49 0
-35 16 -43 -2 0
-39 -43 -37 27 0
-53 60 45 59 0
-49 -47 19 -41 0
-65 -64 -44 -10 0
5 -38 21 -55 0
-12 8 -60 -52 0
-22 50 21 -35 0
-57 -6 -67 -49 0
29 58 -55 -11 0
22 -17 -48 -3 0
47 -6 54 64 0
46 30 -17 41 0
22 -53 -16 -52 0
-29 15 2 -4 0
-8 -43 14 -31 0
-51 30 -65 9 0
-18 12 -45 -11 0
-54 48 -2 46 0
-29 -36 21 42 0
-28 -68 36 -39 0
62 -8 -55 54 0
-47 -40 -6 -39 0
-18 7 -67 8 0
61 7 55 -41 0
-10 -19 -55 2 0
53 -66 -63 -28 0
-43 -26 62 59 0
-12 13 -2 6 0
-6 70 48 -11 0
49 64 -57 -9 0
54 -40 -15 48 0
-8 69 -25 45 0
26 -65 38 39 0
-67 52 -5 -13 0
29 -5 36 -67 0
17 -8 -51 -21 0
-23 11 25 -27 0
62 58 -40 -26 0
-34 -9 -25 -63 0
27 29 -35 -57 0
39 8 -1 -66 0
-25 -18 -1 7 0
14 38 -24 27 0
-14 60 -13 -58 0
69 -30 47 45 0
7 39 -67 28 0
60 -30 -69 4 0
41 49 -67 -7 0
-7 -5 62 -2 0
12 10 66 -67 0
26 23 17 41 0
-56 -25 17 57 0
12 41 -61 -29 0
-40 3 50 -4 0
40 -15 -6 54 0
-17 -64 16 -51 0
47 -37 58 -46 0
31 -4 -33 21 0
15 -55 57 -2 0
-6 -25 -14 17 0
44 52 -36 33 0
46 -41 39 -48 0
64 50 66 -40 0
-39 17 -70 61 0
-29 36 53 -52 0
20 -35 14 -56 0
54 -17 -24 -59 0
42 61 30 34 0
-7 34 -64 -37 0
9 -43 -35 62 0
41 3 -34 -63 0
30 -51 66 23 0
13 -10 -36 21 0
-65 -62 -2 -37 0
-15 -33 -60 -18 0
-31 -26 -25 -20 0
59 61 -14 20 0
3 28 -21 66 0
36 12 14 48 0
21 58 -60 -36 0
34 24 -23 46 0
-50 45 11 7 0
20 1 53 42 0
-11 -12 -51 55 0
-22 42 -38 -63 0
-22 69 57 64 0
40 33 39 13 0
-69 33 -30 -16 0
29 51 35 14 0
32 -57 9 -25 0
3 -53 1 52 0
-66 54 16 -62 0
12 10 -33 22 0
12 -8 43 -54 0
38 -14 50 39 0
-62 -29 -3 -15 0
16 -37 13 31 0
-69 49 -33 56 0
22 35 -23 -25 0
52 21 -42 -26 0
64 48 23 -41 0
47 25 50 6 0
14 -56 59 -64 0
43 48 -51 -18 0
-52 15 -47 3 0
68 65 53 -32 0
59 -52 -34 -49 0
3 -46 -17 -37 0
14 -5 -4 44 0
66 -12 18 -7 0
10 29 -44 61 0
67 43 -58 -47 0
63 -28 -51 -67 0
-3 -34 40 46 0
-62 -52 -30 -58 0
-42 -36 -19 -53 0
-18 -9 69 -14 0
-68 2 -36 40 0
37 -58 -38 -14 0
-19 53 51 31 0
-53 -13 42 8 0
-12 -2 61 20 0
-16 -30 48 -29 0
-16 -55 13 59 0
53 13 40 11 0
6 -13 -31 60 0
-36 -17 -24 -5 0
-18 29 10 59 0
-50 -49 -45 66 0
-56 15 36 14 0
-1 -63 -10 61 0
66 -54 59 -2 0
67 -68 -16 60 0
13 -49 58 -12 0
-9 64 27 -37 0
47 38 -67 13 0
-7 54 -62 -32 0
66 -34 -53 7 0
60 -24 -46 19 0
-10 66 35 19 0
37 -32 68 49 0
10 45 5 40 0
-54 62 -52 -65 0
64 30 66 46 0
32 16 63 58 0
-41 -50 -34 44 0
-16 41 -70 -49 0
63 -29 54 -42 0
-61 -17 19 -41 0
67 -28 -33 4 0
-15 42 39 14 0
5 -34 18 -33 0
-6 -52 50 -62 0
46 42 -32 26 0
27 -2 26 -43 0
-12 -61 40 -5 0
7 50 68 24 0
13 15 9 64 0
-2 59 39 52 0
-54 -25 67 7 0
68 -38 -49 47 0
-68 -20 -27 -46 0
-64 22 30 70 0
37 17 41 8 0
23 -55 -48 44 0
-62 -5 70 12 0
21 -66 -68 59 0
-50 14 62 -12 0
-6 54 21 -52 0
34 -23 32 -8 0
-68 -14 8 34 0
-61 1 -43 22 0
32 -26 52 51 0
35 -69 -31 -52 0
3 18 63 -47 0
70 -50 51 -38 0
-43 -21 70 -64 0
53 33 28 12 0
7 36 57 49 0
54 -30 -43 -50 0
-23 -2 -36 10 0
4 53 51 -25 0
13 -24 -25 -32 0
-67 19 -23 -48 0
46 35 -19 -43 0
59 -64 -12 30 0
25 -18 -64 -44 0
24 66 10 -56 0
-12 -20 -21 -15 0
-31 8 42 -33 0
-55 -35 60 53 0
29 30 60 -57 0
-28 19 32 21 0
-17 42 5 66 0
-36 41 28 -7 0
6 -35 -37 -30 0
19 63 -66 54 0
-15 -54 -5 -10 0
-57 8 6 -22 0
44 -47 46 -16 0
-59 29 -45 23 0
-20 -56 2 28 0
-28 67 -17 40 0
50 -41 -60 -33 0
-51 -19 41 -18 0
-57 -69 -67 -46 0
37 69 -2 -68 0
21 -62 68 26 0
23 31 26 -1 0
-39 33 -1 32 0
46 -17 61 54 0
35 -34 3 -52 0
25 -65 38 66 0
4 37 -61 -63 0
-30 -54 -33 -40 0
26 -35 -33 -21 0
-30 -66 -6 -53 0
35 -43 -4 -37 0
63 -59 -33 -15 0
-32 -20 67 -62 0
69 37 68 61 0
24 -21 49 70 0
-38 11 35 -29 0
19 -68 -8 63 0
-57 -36 29 -68 0
-49 -15 64 55 0
11 36 25 -52 0
-70 35 -54 19 0
60 -15 61 -55 0
-11 21 55 -62 0
-50 -30 -36 4 0
-8 63 -21 -70 0
-34 -13 -24 -68 0
51 -6 -26 36 0
-70 -52 6 68 0
48 36 2 -46 0
-40 -36 38 50 0
8 -18 64 -47 0
-51 -31 3 -28 0
28 -52 -18 -12 0
29 -55 21 -58 0
18 -29 -22 23 0
-1 -35 6 20 0
-35 -7 -19 -63 0
-41 16 54 -36 0
-32 19 -16 -33 0
-15 16 -25 -24 0
-42 -70 24 29 0
20 -69 -67 31 0
61 -16 -55 62 0
-40 57 58 70 0
-9 7 53 -64 0
-39 -58 51 -35 0
-34 -48 -63 -4 0
-39 7 18 -35 0
-22 29 9 28 0
-24 43 15 -48 0
-40 39 -68 -48 0
-18 13 27 -9 0
-37 55 -17 -30 0
3 -46 14 42 0
70 -50 -49 -45 0
10 69 -50 49 0
-61 40 57 60 0
19 -67 11 38 0
-22 21 64 -43 0
-41 -51 10 -38 0
22 -20 14 -12 0
14 -31 67 -21 0
-16 -64 60 66 0
-3 -8 68 69 0
26 55 9 65 0
-34 1 -61 -20 0
-61 -37 -30 7 0
-57 43 47 31 0
-22 50 46 -47 0
57 -20 -63 -25 0
-20 -2 8 23 0
33 -40 -18 -24 0
-34 24 41 -67 0
53 -66 60 32 0
15 -69 -54 36 0
32 -16 -65 39 0
-61 -38 -56 26 0
-42 34 3 -18 0
8 22 12 59 0
25 24 -21 -23 0
5 -25 21 46 0
-52 -28 24 61 0
-59 -19 34 58 0
-37 67 36 46 0
10 -48 -38 62 0
28 36 15 -58 0
35 25 69 -57 0
61 -2 -18 -58 0
-20 47 27 46 0
51 4 47 -58 0
67 -35 50 -22 0
53 26 29 -52 0
56 -38 -44 -53 0
50 69 46 -6 0
-16 8 67 39 0
-60 -18 -2 36 0
28 -22 -7 -2 0
-26 -29 -54 -18 0
29 64 -19 -51 0
-58 -48 -25 6 0
-45 62 58 53 0
26 -5 -2 -31 0
56 66 -24 51 0
-11 -70 -9 30 0
-23 29 57 54 0
-66 63 43 56 0
7 -53 21 -37 0
42 -54 14 49 0
59 -35 -11 63 0
-4 41 55 47 0
34 66 -20 10 0
-30 -22 -7 -3 0
-16 -65 48 57 0
-70 -47 -56 -45 0
-50 68 -65 21 0
-56 -8 37 35 0
13 25 46 4 0
26 -55 -5 43 0
53 -67 64 58 0
58 20 -53 -65 0
3 -66 -4 57 0
-47 -70 10 41 0
42 -51 47 -30 0
-52 24 -3 -22 0
-4 42 -13 49 0
25 58 26 -11 0
-63 14 32 59 0
60 -67 -34 12 0
-48 11 -16 43 0
50 -15 17 30 0
-28 -58 -62 -47 0
-18 -43 55 -3 0
-29 62 19 69 0
-20 70 9 -46 0
62 -26 -10 37 0
-67 16 34 27 0
-52 9 41 40 0
-20 -1 -55 -19 0
-46 51 -41 29 0
23 -36 -48 -53 0
-51 -13 -50 41 0
36 -44 -17 -38 0
-54 -45 4 7 0
44 -3 -31 4 0
32 -2 48 -18 0
-29 18 42 48 0
17 -32 37 -47 0
64 -67 14 29 0
-33 50 -58 6 0
-10 -43 -42 -69 0
27 -1 -6 28 0
2 17 11 -8 0
62 3 -6 41 0
-48 11 -64 -70 0
44 -66 46 3 0
-8 -31 20 27 0
-18 -43 -48 -23 0
58 -29 -57 38 0
-7 14 -69 -18 0
-22 -16 70 11 0
-5 50 18 6 0
1 -69 -13 -52 0
6 55 12 -58 0
22 16 -6 -55 0
-65 -67 -22 10 0
-49 59 41 21 0
-42 51 29 62 0
-9 36 18 -67 0
48 46 -66 13 0
41 70 -7 63 0
65 -49 52 -30 0
63 42 9 -39 0
6 28 41 53 0
-18 43 -9 -60 0
-23 18 -16 -14 0
-12 21 -34 63 0
-45 62 -57 10 0
-33 -1 70 28 0
41 60 56 26 0
46 -8 40 -57 0
-12 -19 -70 8 0
32 -52 -19 -34 0
50 -2 -43 -1 0
48 53 49 -26 0
-2 58 -26 40 0
13 -60 11 55 0
4 49 46 32 0
33 19 -48 63 0
35 38 12 60 0
-9 37 50 39 0
-58 24 31 52 0
36 67 26 1 0
56 69 65 -39 0
-29 10 -26 18 0
-42 -22 -15 -46 0
48 -8 -66 -23 0
-10 43 34 45 0
21 -8 -26 -2 0
60 19 -49 17 0
-24 43 -35 -46 0
10 -5 -52 -28 0
42 -58 -68 -61 0
-70 16 -15 36 0
-13 65 64 8 0
59 62 21 -55 0
-58 -56 -15 -20 0
70 41 -56 -3 0
-46 9 6 -58 0
11 -62 24 -32 0
65 -28 -69 42 0
-10 -12 67 -25 0
-29 -33 58 -47 0
-25 -56 20 -26 0
-35 -19 64 -33 0
-35 -22 -12 -25 0
-44 -47 21 -36 0
-29 -28 51 -57 0
-11 -32 1 50 0
52 -25 -46 -34 0
24 11 54 8 0
29 -62 56 -6 0
66 20 -33 21 0
-49 -30 -68 -17 0
-26 27 -57 28 0
-23 -53 -66 -6 0
-61 -59 13 -36 0
29 32 46 54 0
-28 -41 -35 39 0
-51 -6 -15 38 0
-40 -36 -6 -18 0
-48 65 -29 -57 0
-22 -21 -31 -60 0
51 1 58 -55 0
-10 3 5 18 0
-13 25 12 6 0
11 5 42 -47 0
39 48 -31 -11 0
-45 -50 59 -39 0
55 32 -63 47 0
48 -67 42 15 0
-26 -23 -22 -36 0
49 8 27 -20 0
-48 -12 -30 -35 0
22 17 -59 35 0
66 -38 -63 -42 0
54 -51 -5 44 0
32 50 -42 -17 0
52 47 -53 31 0
-55 -57 -35 -20 0
-37 19 27 11 0
-55 -23 54 32 0
57 49 38 23 0
-70 -64 -19 57 0
15 8 -1 65 0
-6 -8 -39 38 0
13 -54 59 -64 0
-65 -42 -2 -36 0
-42 -63 -61 -29 0
-34 38 61 -20 0
-13 -47 -68 70 0
32 48 45 -43 0
6 -63 -4 -52 0
16 31 -53 -13 0
-26 21 17 16 0
-50 60 -54 -7 0
27 -59 15 -56 0
41 -35 -21 -29 0
28 38 -1 -12 0
-68 17 -49 50 0
-38 23 -63 16 0
63 40 21 -57 0
-67 -64 -45 55 0
-12 -14 46 -13 0
15 51 70 9 0
4 -61 17 58 0
52 15 -35 -39 0
42 35 -36 39 0
31 -25 1 -29 0
-4 -46 -17 7 0
-11 62 -40 -63 0
20 -6 61 -35 0
2 46 62 30 0
44 57 15 -3 0
69 -55 16 -33 0
3 8 -58 60 0
10 37 -45 28 0
65 47 -3 42 0
66 17 -18 45 0
-11 -30 13 -6 0
43 48 54 -27 0
18 9 45 48 0
4 -40 62 12 0
54 -56 36 16 0
-53 40 42 -5 0
-51 69 -3 40 0
22 -1 19 32 0
19 29 -6 -59 0
47 64 -57 -48 0
52 25 58 -28 0
13 21 -49 -12 0
-8 40 -13 1 0
44 24 -20 -58 0
62 -55 -33 -43 0
-48 11 -67 43 0
-40 -37 20 19 0
-66 -56 48 -41 0
-8 9 40 -24 0
-61 -29 62 -42 0
12 -59 -54 -48 0
-44 46 13 -25 0
28 -48 -30 5 0
-26 -33 35 4 0
-42 -29 58 3 0
-13 39 -51 40 0
-68 -30 67 -42 0
-46 49 42 34 0
69 62 43 61 0
