c E6 resource-count instance family=3-SAT n=20 (Random(9) stream)
c order 19 16 10 3 18 20 1 7 9 15 13 4 11 12 6 14 17 5 8 2
p cnf 20 84
15 -12 9 0
17 -15 -3 0
-13 6 15 0
-2 -4 -5 0
13 4 -10 0
3 9 7 0
-1 -14 2 0
-8 14 -4 0
7 20 -11 0
-1 -17 3 0
-3 13 -7 0
6 -2 -19 0
9 -19 -2 0
8 6 -17 0
-19 20 -3 0
12 -15 -7 0
1 13 11 0
9 11 -3 0
-2 -1 13 0
8 19 -3 0
-13 -17 12 0
10 -6 -9 0
-9 6 4 0
-7 -13 10 0
5 -16 -18 0
10 4 -3 0
-13 19 -6 0
20 16 -12 0
-6 3 20 0
-6 -16 15 0
-18 -16 9 0
19 -14 -18 0
-3 19 18 0
-5 4 19 0
2 1 12 0
19 -16 -8 0
14 20 -3 0
3 20 -1 0
1 3 11 0
-15 -19 -5 0
4 12 -8 0
4 -20 -2 0
12 -4 1 0
3 -8 1 0
-15 -9 1 0
-9 16 11 0
9 5 10 0
-13 1 10 0
8 14 -11 0
13 14 7 0
19 15 20 0
-3 6 -11 0
-5 -3 -11 0
-13 7 -18 0
-14 16 -8 0
17 20 -4 0
7 -3 8 0
-5 -11 -6 0
-13 -20 19 0
12 -20 -9 0
20 -6 19 0
-16 -17 14 0
5 -17 15 0
-5 -12 2 0
6 18 -4 0
-5 -14 -7 0
-1 -18 2 0
-2 12 -13 0
-7 -18 4 0
-12 -9 8 0
17 1 -18 0
-1 2 -7 0
11 10 -13 0
15 -20 -2 0
-7 -17 -13 0
-5 13 2 0
-16 6 4 0
12 20 18 0
-17 15 -10 0
7 15 4 0
-14 9 -12 0
6 -18 1 0
-7 -1 9 0
-18 -3 -4 0
