c E6 resource-count instance family=3-SAT n=30 (Random(9) stream)
c order 2 19 29 28 30 1 9 27 24 7 3 5 6 23 10 8 22 13 25 18 20 17 11 14 12 15 16 4 26 21
p cnf 30 126
-10 14 -26 0
-2 -29 12 0
9 -12 -15 0
17 24 -6 0
11 14 16 0
7 19 16 0
-1 17 4 0
4 -13 17 0
-29 3 -17 0
14 29 -6 0
-16 -26 -25 0
17 -25 -28 0
16 -27 -3 0
11 -3 -26 0
-5 -21 -16 0
-19 17 -1 0
28 -19 23 0
-28 -11 -17 0
12 -11 25 0
23 -11 -16 0
-10 30 -4 0
20 13 26 0
10 27 13 0
27 22 29 0
22 -28 -10 0
15 24 -6 0
-4 25 28 0
-8 -7 23 0
19 -18 7 0
8 13 23 0
24 -6 25 0
16 -4 20 0
29 27 -11 0
-12 18 30 0
-19 -15 -12 0
21 -1 15 0
3 -10 26 0
27 4 -1 0
-22 -23 6 0
-14 23 9 0
-9 4 -21 0
-1 -12 -30 0
21 4 -1 0
-6 -17 22 0
-6 -22 -11 0
7 1 25 0
28 -23 22 0
26 28 -21 0
-26 7 22 0
7 -11 -2 0
22 -9 -19 0
9 25 24 0
-3 -28 -5 0
30 26 19 0
1 23 21 0
-5 21 24 0
-24 20 15 0
9 15 2 0
16 4 14 0
4 -22 2 0
9 -17 27 0
7 -26 -13 0
17 29 -11 0
-28 -2 11 0
30 15 -27 0
22 -1 -24 0
9 2 25 0
30 13 2 0
-13 -4 14 0
8 1 23 0
25 12 -14 0
-1 -21 23 0
16 1 11 0
-12 23 13 0
-22 30 7 0
-19 27 12 0
14 -19 10 0
7 -17 -22 0
6 25 2 0
28 -7 -29 0
30 -12 -22 0
12 30 2 0
-1 -28 -7 0
21 28 -13 0
-13 -2 -24 0
26 15 -8 0
2 -1 -11 0
1 -4 -6 0
-25 -27 15 0
4 -28 -13 0
22 -1 -18 0
-27 17 -1 0
3 -11 -2 0
30 -22 18 0
-20 -9 -24 0
24 1 8 0
-25 -18 1 0
14 3 1 0
-27 9 11 0
-3 29 1 0
-6 -4 24 0
8 -20 -26 0
-3 -7 16 0
-12 10 -11 0
12 23 -3 0
-28 -6 10 0
16 15 -17 0
3 -9 16 0
26 13 -25 0
-27 -7 -17 0
15 -14 2 0
19 -21 -22 0
-3 16 -23 0
-12 -30 22 0
-10 -25 -24 0
-16 25 -15 0
-14 -2 3 0
-25 -5 -1 0
-5 -9 18 0
-23 5 -27 0
-21 19 -7 0
28 26 23 0
-2 23 29 0
20 -27 -4 0
1 -22 -3 0
26 13 -7 0
