c E6 resource-count instance family=3-SAT n=40 (Random(9) stream)
c order 6 39 28 1 5 37 7 32 26 10 21 35 9 12 38 24 22 20 15 8 23 13 19 11 36 16 40 14 3 34 18 30 33 2 4 25 31 27 17 29
p cnf 40 168
37 -22 23 0
34 1 28 0
33 30 -15 0
39 38 29 0
-11 39 -22 0
-39 26 40 0
-39 -6 36 0
-3 -5 32 0
-35 24 2 0
16 -20 -40 0
-7 29 35 0
-37 -14 -23 0
29 5 8 0
14 -15 -27 0
-33 -13 -17 0
-39 4 -32 0
6 -28 -10 0
8 21 37 0
5 -26 33 0
16 -26 -37 0
-20 -28 -7 0
28 -33 25 0
16 -7 20 0
-38 3 39 0
-37 33 34 0
-27 31 15 0
18 -20 -16 0
1 20 -3 0
12 -26 -17 0
-8 36 -10 0
39 -29 18 0
8 -24 -29 0
-3 8 -9 0
-21 -13 6 0
30 7 -16 0
-25 17 12 0
-9 -31 4 0
-29 -18 31 0
-26 -16 18 0
-16 31 -20 0
16 24 -37 0
38 10 30 0
20 -18 34 0
-25 -23 15 0
26 28 -24 0
-18 11 10 0
4 25 6 0
13 -33 37 0
25 6 -21 0
34 7 -15 0
21 -38 4 0
-39 -37 -9 0
-27 2 -10 0
35 -37 38 0
-18 -3 34 0
10 -15 -3 0
-5 15 14 0
-24 8 7 0
31 -24 8 0
23 -39 -24 0
-32 8 -18 0
18 25 -31 0
-22 38 28 0
-20 -1 32 0
-21 -18 -5 0
-1 31 33 0
-13 15 -5 0
-33 -5 12 0
-33 -20 30 0
-13 31 30 0
-33 3 -13 0
25 18 -22 0
-2 7 6 0
-7 4 -2 0
-17 -9 13 0
-29 -22 -18 0
26 3 -25 0
24 14 23 0
14 -30 -11 0
30 27 -3 0
-2 33 15 0
24 -20 -38 0
30 -4 -26 0
30 -39 14 0
-27 -21 -18 0
-12 -26 31 0
-1 -9 15 0
-20 11 -27 0
10 11 -36 0
-3 34 -19 0
-27 -34 11 0
25 11 -40 0
-30 -31 -2 0
22 8 -20 0
-39 25 9 0
24 -19 -40 0
-25 -19 -30 0
-3 21 9 0
-23 26 9 0
37 -32 36 0
-21 -23 -24 0
29 1 27 0
4 -13 -3 0
40 -29 -5 0
-4 -37 -27 0
-33 -12 -9 0
-2 -25 -17 0
-29 27 -36 0
-16 31 22 0
-13 -6 5 0
33 -27 15 0
37 23 -18 0
-30 29 -26 0
-8 -36 -21 0
26 -4 -17 0
-22 -20 27 0
24 33 -16 0
-15 -4 -9 0
12 27 17 0
-34 21 32 0
37 38 36 0
33 40 8 0
7 3 19 0
16 6 -18 0
-4 16 -23 0
-19 -16 -24 0
12 14 33 0
37 10 -25 0
-31 25 3 0
4 24 -34 0
31 -30 -19 0
-17 -6 -1 0
23 35 13 0
2 -26 -34 0
-37 -10 16 0
27 9 35 0
40 7 -32 0
-34 -29 -17 0
-37 17 -34 0
26 -12 -1 0
37 -29 -34 0
-19 -34 -25 0
-39 -38 32 0
-26 -21 -7 0
35 -31 -3 0
34 -36 -19 0
29 -16 -7 0
20 -17 1 0
-9 -2 20 0
-11 1 -19 0
-13 12 31 0
-40 -38 -22 0
38 -19 -26 0
21 -22 28 0
40 34 33 0
-24 14 40 0
-5 14 -12 0
-6 28 25 0
18 8 -3 0
33 -16 -3 0
-18 -26 -32 0
-17 -40 28 0
37 -7 39 0
-19 11 -17 0
16 -18 -39 0
36 11 7 0
13 7 28 0
40 38 21 0
