c E6 resource-count instance family=3-SAT n=50 (Random(9) stream)
c order 28 26 17 47 21 13 36 32 50 3 37 20 4 22 41 35 18 7 24 48 29 10 1 27 11 40 15 2 31 38 34 9 16 19 23 25 12 46 14 39 45 42 43 33 6 8 30 44 49 5
p cnf 50 210
45 -32 16 0
5 -31 30 0
-30 -11 -33 0
47 -48 6 0
-34 -5 -41 0
-25 -24 11 0
-25 -2 -49 0
3 32 2 0
35 3 42 0
27 20 -34 0
5 -23 25 0
-36 21 -47 0
46 11 -25 0
-6 -46 23 0
2 -25 12 0
-20 2 44 0
-38 -37 -25 0
-11 48 8 0
-23 49 25 0
-13 49 40 0
24 38 2 0
41 -29 45 0
-39 -50 1 0
39 -20 -15 0
-31 38 -18 0
-8 32 21 0
-12 -45 -32 0
41 -46 -33 0
-24 35 -37 0
31 -45 -20 0
18 34 36 0
-17 6 -48 0
-38 36 -40 0
12 3 16 0
-8 -4 38 0
19 37 -46 0
48 17 -35 0
30 21 -35 0
8 -12 6 0
-21 -39 33 0
36 31 34 0
-15 -6 20 0
11 -4 -18 0
12 -27 4 0
38 12 -17 0
5 47 44 0
46 -41 7 0
5 47 -20 0
-10 44 -39 0
-39 -27 10 0
-36 17 -15 0
2 45 -5 0
-14 2 -31 0
-43 -31 -20 0
20 31 -28 0
-33 47 -24 0
18 -2 -11 0
-20 39 2 0
-32 -34 -33 0
43 -19 7 0
-21 -1 -39 0
11 -50 35 0
18 36 -30 0
25 20 50 0
28 13 -6 0
-47 11 -43 0
-33 -21 41 0
37 20 -24 0
20 -21 -48 0
24 -10 37 0
29 -45 14 0
42 37 -4 0
-28 -8 43 0
-9 -20 18 0
-12 26 37 0
18 33 49 0
46 37 48 0
-12 -24 -29 0
21 29 8 0
-13 3 -26 0
49 1 23 0
30 14 -6 0
-9 -21 -11 0
19 -15 32 0
-2 48 33 0
-46 -20 2 0
3 -47 20 0
-27 25 35 0
-1 -12 -9 0
14 16 10 0
-17 -3 -34 0
-41 18 30 0
40 25 -27 0
-2 30 37 0
29 27 -26 0
46 9 41 0
-26 10 -44 0
-49 -36 32 0
-23 -29 -44 0
-9 17 -22 0
-38 6 -2 0
4 16 -15 0
-20 35 -13 0
-49 27 12 0
49 -7 -16 0
-35 -8 -14 0
13 -25 24 0
-33 39 14 0
-34 49 39 0
-26 -22 30 0
-2 31 -29 0
-37 -33 11 0
-4 -15 49 0
-17 -29 -48 0
-23 -11 12 0
-4 -47 25 0
-21 -10 25 0
41 -37 -19 0
-39 16 -40 0
-3 30 -41 0
-17 5 43 0
13 -11 6 0
17 -35 -48 0
26 -37 46 0
30 21 5 0
21 28 3 0
8 3 47 0
11 -15 -41 0
14 -19 24 0
18 32 11 0
-47 36 45 0
-35 3 41 0
-46 9 -41 0
50 -45 -1 0
-46 39 -8 0
-38 -17 25 0
2 4 -31 0
43 2 15 0
29 8 34 0
17 -32 -15 0
-30 -43 27 0
-31 -18 41 0
47 18 -23 0
18 40 27 0
-40 -48 7 0
-41 36 -35 0
10 -43 32 0
-32 -43 45 0
31 33 10 0
-32 -21 -49 0
41 25 -15 0
-9 28 -47 0
23 -21 -31 0
23 42 37 0
-42 -4 37 0
6 -18 -44 0
-4 -29 46 0
-36 46 30 0
-25 18 21 0
-18 48 -5 0
-37 30 -29 0
49 -27 -46 0
-27 24 -49 0
-20 -49 -38 0
-25 50 -14 0
50 5 -4 0
-9 -31 46 0
45 -3 -47 0
41 -17 46 0
-28 16 -21 0
37 -20 15 0
31 -10 8 0
3 -15 13 0
31 -40 25 0
8 3 -20 0
17 -21 3 0
-23 16 9 0
-31 -1 35 0
18 -49 -35 0
19 49 14 0
25 -30 12 0
38 7 10 0
13 5 17 0
28 -4 -1 0
34 17 12 0
41 -4 21 0
-38 23 22 0
-47 42 16 0
-39 26 36 0
37 31 13 0
16 -47 -22 0
19 -41 25 0
-33 48 32 0
28 -8 15 0
-37 -11 32 0
-38 -25 -18 0
33 34 -20 0
29 -33 -13 0
44 -34 -5 0
-6 -3 31 0
39 -33 1 0
46 31 11 0
-11 -23 -25 0
30 1 -6 0
42 -33 -16 0
-37 -26 48 0
22 -45 47 0
18 -19 -23 0
-22 -3 -44 0
38 -26 -16 0
