c E6 resource-count instance family=3-SAT n=60 (Random(9) stream)
c order 27 3 60 14 39 51 56 17 20 19 40 48 37 41 26 54 45 57 6 46 53 24 50 9 13 16 5 18 47 29 42 30 43 21 1 52 58 31 59 22 15 55 35 4 25 23 49 8 38 32 10 11 34 36 44 12 2 7 28 33
p cnf 60 252
17 10 -46 0
35 -46 29 0
38 -15 -52 0
-17 -22 -30 0
19 -18 34 0
-59 -15 6 0
11 -16 -2 0
-20 23 6 0
-1 23 -43 0
12 -43 -53 0
58 16 -29 0
8 -7 -58 0
30 21 37 0
23 -15 31 0
52 -27 18 0
-28 45 -26 0
-59 -20 -8 0
-26 -45 -36 0
-49 31 17 0
48 -42 -37 0
16 -10 30 0
4 -35 -39 0
-5 -45 -24 0
-34 -2 -23 0
-44 4 34 0
-53 -49 -3 0
-7 -50 37 0
30 -31 -18 0
48 -55 39 0
47 60 48 0
-46 -28 44 0
-21 45 -56 0
-39 51 42 0
-59 -18 54 0
-54 -13 16 0
-22 -43 -59 0
40 30 13 0
-31 -48 -36 0
-47 -8 -48 0
14 40 -22 0
-20 -2 35 0
-38 51 -19 0
-33 60 39 0
58 39 13 0
28 -56 19 0
31 24 -56 0
56 -32 18 0
-35 18 13 0
-32 41 -55 0
-57 -10 34 0
17 27 24 0
41 49 -24 0
-46 37 -32 0
-39 52 51 0
34 -31 52 0
-50 37 12 0
8 36 -16 0
-53 -31 -36 0
3 -24 44 0
21 7 -36 0
-43 40 -18 0
24 32 56 0
5 14 -16 0
-3 -43 50 0
60 -54 56 0
51 -28 -56 0
-48 33 18 0
52 2 14 0
43 -57 53 0
-37 18 -34 0
-33 -60 53 0
-23 -15 58 0
-25 -38 49 0
-5 -34 28 0
-27 59 21 0
-57 28 53 0
-27 46 -59 0
29 42 2 0
31 5 23 0
-15 14 -13 0
21 -42 11 0
-52 -39 9 0
11 38 52 0
30 23 -2 0
-11 -39 -14 0
16 47 9 0
-21 39 8 0
47 36 58 0
-36 24 58 0
-26 -16 -43 0
13 16 -4 0
19 16 -2 0
-50 29 26 0
11 22 4 0
10 46 27 0
31 53 -14 0
-24 54 -57 0
25 -60 38 0
-6 10 13 0
22 -33 6 0
2 33 27 0
10 -29 1 0
-39 48 -34 0
-59 15 3 0
41 -38 -10 0
-52 46 8 0
42 -55 -29 0
-7 17 -51 0
28 -30 48 0
-43 -18 -30 0
-8 18 -42 0
-55 48 13 0
6 -2 23 0
-24 21 29 0
43 18 24 0
-31 -26 3 0
33 11 -31 0
57 15 1 0
-15 12 -29 0
-52 6 -32 0
-27 40 -13 0
38 15 -19 0
-45 40 -5 0
5 -49 -6 0
28 40 -48 0
57 58 33 0
3 -53 -40 0
46 27 58 0
60 45 -3 0
-49 27 2 0
23 49 28 0
4 39 -59 0
27 -9 -1 0
-4 -32 -31 0
2 33 -43 0
-37 -23 43 0
43 -55 7 0
23 27 -25 0
26 54 -19 0
45 13 26 0
-58 -11 -21 0
8 40 2 0
-17 12 -5 0
-42 -31 -59 0
-31 -21 50 0
46 -25 3 0
-42 -23 1 0
37 -33 5 0
-41 33 -36 0
57 3 -2 0
28 -20 38 0
23 -6 5 0
20 -46 40 0
24 44 23 0
48 40 9 0
-2 19 -26 0
1 13 12 0
34 -30 44 0
-11 -15 59 0
13 18 29 0
59 41 9 0
-36 60 13 0
-59 57 -14 0
37 -12 -38 0
26 20 -55 0
17 27 55 0
-45 -21 -1 0
-16 56 11 0
27 41 -58 0
16 53 3 0
-59 48 -45 0
47 -11 -33 0
6 -27 -3 0
9 -15 22 0
-1 -13 20 0
29 18 -10 0
16 46 2 0
37 44 42 0
-58 -2 -39 0
-52 29 50 0
-6 -17 -32 0
9 21 35 0
50 12 -49 0
26 -36 -3 0
-56 58 -48 0
3 9 37 0
5 47 1 0
-26 -15 29 0
33 15 -59 0
43 18 -29 0
-50 6 -8 0
-57 -19 15 0
-31 -53 13 0
14 -45 1 0
10 19 -22 0
-55 29 21 0
-21 -60 -6 0
-58 -40 -32 0
49 41 18 0
14 -26 54 0
-40 -46 10 0
43 1 6 0
54 30 -59 0
-26 -27 57 0
44 -37 54 0
9 -3 -24 0
37 -28 33 0
-50 -2 24 0
56 -26 13 0
60 -44 -28 0
58 -30 -22 0
-50 -38 -11 0
32 27 15 0
38 -14 48 0
38 -7 -45 0
5 -54 18 0
-3 21 -60 0
39 45 -17 0
41 15 -54 0
-49 15 42 0
26 -11 -16 0
-27 -45 -42 0
-12 -27 28 0
1 -22 -7 0
7 -5 -32 0
-31 -39 -32 0
44 2 -49 0
-58 -47 44 0
-36 -13 -35 0
-28 23 51 0
-49 21 -8 0
-5 -51 -43 0
-29 -39 -26 0
55 11 -22 0
-36 -6 24 0
-25 6 42 0
20 -30 -54 0
46 -11 6 0
50 38 -49 0
21 -9 -25 0
-26 -31 43 0
-50 -1 43 0
36 -55 58 0
38 10 -37 0
37 49 53 0
-37 -8 -35 0
-32 -25 40 0
6 24 -23 0
-1 -23 38 0
24 27 52 0
-60 11 28 0
-60 59 9 0
