c E6 resource-count instance family=3-SAT n=70 (Random(9) stream)
c order 65 9 34 18 63 35 57 69 41 16 37 64 47 61 60 42 36 58 27 20 19 54 38 62 49 66 32 33 29 59 48 14 67 43 70 3 15 46 12 53 2 23 6 11 68 8 30 45 52 39 7 28 10 26 24 44 55 5 51 17 56 40 22 1 50 31 4 13 25 21
p cnf 70 294
-23 19 56 0
-25 26 -40 0
-12 -48 -3 0
60 5 7 0
25 -10 -52 0
67 -24 -4 0
57 -2 -61 0
18 63 60 0
6 -23 57 0
69 39 -62 0
35 -3 -31 0
-55 18 -40 0
21 70 24 0
20 25 11 0
-4 -2 -40 0
-19 -50 12 0
35 33 25 0
21 24 -60 0
-27 59 -49 0
40 29 18 0
-3 42 54 0
47 38 -37 0
-52 -40 6 0
-69 12 -7 0
3 9 39 0
63 -12 -2 0
-59 -10 21 0
42 62 24 0
34 -55 -8 0
-27 11 -8 0
19 -29 -43 0
-4 9 -7 0
52 -50 27 0
43 4 22 0
5 -23 -43 0
68 55 -40 0
-18 16 26 0
-39 -43 -1 0
54 -68 -64 0
-60 41 -31 0
-53 -1 -59 0
-26 24 57 0
-54 -41 -43 0
7 65 67 0
-15 41 -37 0
65 -17 -33 0
-66 -34 52 0
67 66 -41 0
63 44 38 0
16 14 35 0
27 31 44 0
-42 14 -35 0
-11 -52 34 0
-9 30 17 0
12 33 24 0
-56 -15 -1 0
46 -15 -55 0
11 8 5 0
63 -21 -42 0
11 7 21 0
-8 38 14 0
-20 -56 16 0
-41 46 54 0
44 65 -33 0
10 3 22 0
-54 -51 -53 0
-11 -59 -23 0
-44 -52 64 0
-9 52 -43 0
18 -61 -45 0
-9 -25 19 0
63 -70 13 0
22 -49 10 0
-60 -65 59 0
-45 -16 54 0
70 -48 -61 0
-7 69 -44 0
-34 -26 69 0
-5 63 39 0
49 56 9 0
-64 70 45 0
-35 -33 -63 0
28 51 67 0
33 -10 -35 0
15 -44 46 0
-53 -39 -17 0
-2 50 14 0
-34 -50 41 0
46 -36 -54 0
7 -31 -68 0
-46 -42 26 0
23 -13 -48 0
-36 -17 42 0
56 -58 18 0
38 -34 -56 0
28 -20 -18 0
25 48 -47 0
53 -9 -32 0
-33 -40 63 0
-3 -52 -54 0
65 70 -61 0
40 -70 -15 0
65 -48 4 0
-3 21 -45 0
7 -49 -20 0
63 70 -25 0
51 -47 -1 0
-21 -12 -22 0
18 -4 6 0
13 67 60 0
-6 -18 7 0
-65 -23 -21 0
69 -25 52 0
-28 32 34 0
-50 5 53 0
24 -12 16 0
6 -34 -61 0
13 48 -34 0
46 30 -68 0
-7 -37 38 0
-42 -18 38 0
-9 -26 -43 0
15 20 10 0
4 -65 57 0
-30 -35 37 0
41 68 -35 0
-65 2 12 0
-33 46 57 0
-50 -59 -45 0
58 -66 38 0
25 35 -40 0
14 -31 18 0
34 -37 -15 0
19 50 -59 0
-11 53 42 0
-53 5 3 0
38 -8 26 0
-43 58 -50 0
-16 -59 -4 0
-6 18 -34 0
34 -69 -53 0
23 -62 8 0
-33 -26 60 0
-53 -45 -13 0
-64 -59 -12 0
55 -25 68 0
-57 53 14 0
24 -17 11 0
-47 33 37 0
21 -41 37 0
-19 -21 -2 0
40 32 -31 0
-22 -38 32 0
-7 40 13 0
-48 69 -1 0
6 -53 -50 0
-36 43 26 0
-8 -67 52 0
-38 25 -15 0
-14 32 -18 0
6 -25 48 0
30 55 14 0
26 -51 -69 0
42 -19 38 0
-1 25 -5 0
60 20 34 0
38 31 -11 0
11 67 5 0
42 26 -45 0
18 -48 40 0
12 27 -11 0
27 -41 69 0
-13 9 -19 0
-55 -35 37 0
-23 -45 70 0
35 -38 -33 0
30 -49 -6 0
64 14 48 0
24 -41 -46 0
12 6 27 0
-55 61 -36 0
-69 -32 37 0
14 -29 7 0
-51 -11 -8 0
7 61 29 0
-21 -47 -43 0
-12 19 -4 0
10 -44 35 0
12 53 15 0
9 -11 -27 0
-42 -53 -12 0
-32 -22 -68 0
19 -70 -63 0
25 -33 9 0
45 -18 -46 0
47 -69 64 0
9 -66 -64 0
-31 -28 -40 0
43 -63 47 0
7 10 -54 0
6 -19 -64 0
2 -15 -34 0
-34 -54 -7 0
8 -6 64 0
-26 68 30 0
8 4 7 0
22 37 36 0
43 -64 50 0
-57 12 -29 0
4 18 32 0
-63 49 -13 0
-61 28 -14 0
11 -63 -29 0
20 -8 -24 0
-61 -15 -66 0
-1 59 -43 0
16 -35 6 0
-22 -52 63 0
28 -20 -30 0
-39 21 -29 0
64 -17 -26 0
-22 -16 -27 0
21 -13 -52 0
1 -42 -41 0
20 -10 64 0
-4 -63 8 0
-8 4 50 0
17 -60 -70 0
-29 27 69 0
-7 1 -66 0
66 -49 21 0
-43 -63 23 0
45 -29 33 0
64 39 -49 0
-50 22 8 0
-47 62 49 0
21 -55 -26 0
-60 -43 -35 0
-48 -19 -8 0
13 -51 59 0
45 -23 -5 0
11 24 27 0
70 -57 51 0
-15 -20 61 0
26 -34 -41 0
24 53 -6 0
43 63 31 0
12 48 -55 0
30 24 -38 0
-33 44 17 0
-67 -55 6 0
-20 67 16 0
-54 -23 -14 0
37 -64 29 0
-6 -55 -62 0
59 38 40 0
-7 -59 -65 0
24 -8 21 0
13 14 30 0
-56 -57 -36 0
-18 61 -51 0
-2 5 46 0
69 61 -3 0
11 -42 -2 0
19 -40 21 0
-52 61 -62 0
49 -65 10 0
20 40 51 0
18 17 48 0
12 33 24 0
10 21 45 0
-36 -49 -51 0
36 -26 17 0
-23 31 -27 0
-68 -60 -7 0
8 12 7 0
32 -22 66 0
48 -63 27 0
53 -4 -9 0
-45 -24 68 0
10 46 -28 0
-20 -28 -5 0
40 31 -22 0
38 11 59 0
41 3 20 0
11 51 20 0
-55 30 -19 0
-63 51 70 0
57 55 11 0
-5 -13 -63 0
13 9 -15 0
34 31 -54 0
40 8 -49 0
10 -45 -11 0
