c E6 resource-count instance family=3-SAT n=80 (Random(9) stream)
c order 73 2 54 28 79 19 31 6 58 49 64 70 35 23 41 1 25 52 47 27 33 26 62 66 3 43 15 57 60 59 63 34 56 17 51 8 76 14 80 78 40 55 36 29 37 4 5 44 20 69 39 11 67 12 24 42 30 9 13 71 18 48 46 65 68 53 72 77 10 32 7 75 61 74 50 16 22 21 45 38
p cnf 80 336
32 -28 74 0
25 -72 29 0
-70 77 -4 0
51 67 -75 0
-9 -74 -32 0
-2 -39 29 0
73 -6 -19 0
42 2 -13 0
-30 76 63 0
51 63 -44 0
-27 77 66 0
-75 -62 45 0
-59 32 66 0
71 -61 -28 0
35 66 43 0
46 37 -62 0
-35 63 53 0
-52 -75 -64 0
73 20 21 0
75 62 2 0
-36 -54 2 0
-3 47 17 0
-6 -50 -56 0
-14 -47 69 0
-55 -31 67 0
14 80 -17 0
69 46 -6 0
-1 -42 -22 0
46 -51 80 0
-37 44 -74 0
17 37 -67 0
-25 -12 -71 0
-25 -37 3 0
-65 -52 22 0
35 57 -33 0
72 69 -25 0
50 57 77 0
12 77 71 0
-14 -40 -56 0
4 71 66 0
-23 -79 -77 0
31 -32 63 0
11 -15 -8 0
-9 20 -77 0
-46 74 -38 0
46 -30 -24 0
12 -57 -74 0
44 -79 2 0
25 74 39 0
-32 5 43 0
14 76 -31 0
-6 9 -25 0
73 6 31 0
31 1 5 0
21 -20 -59 0
-73 -66 -42 0
-32 47 5 0
46 49 7 0
-67 -21 30 0
-22 14 -40 0
33 -55 26 0
42 -50 -30 0
-21 -51 -45 0
67 21 -66 0
55 -17 34 0
68 -61 -2 0
44 63 -5 0
-8 50 36 0
-58 78 -65 0
-34 -69 22 0
-4 58 -46 0
78 -28 -43 0
9 54 -53 0
5 -46 48 0
-31 76 65 0
-61 -66 29 0
3 -27 37 0
-25 -21 -15 0
-9 43 -35 0
11 -29 -46 0
32 59 75 0
-21 -28 68 0
-57 -11 71 0
-34 7 -50 0
-40 -11 38 0
-74 34 8 0
-46 11 68 0
1 -72 65 0
77 -12 -80 0
49 33 -8 0
13 34 44 0
46 48 -27 0
-64 -24 70 0
-70 -38 -56 0
64 -77 60 0
-43 24 20 0
-40 70 65 0
-4 2 -78 0
-38 2 -33 0
-24 -44 -7 0
-55 -46 49 0
37 -29 61 0
35 65 49 0
58 78 -34 0
56 39 36 0
61 13 -28 0
-58 5 -77 0
45 -41 -47 0
11 -14 -79 0
73 41 48 0
-58 -6 71 0
61 -35 4 0
5 65 -26 0
56 -12 -29 0
59 -23 18 0
-76 -52 -54 0
-61 24 -62 0
-56 14 -44 0
24 4 -66 0
-15 -8 -67 0
3 22 72 0
-38 57 -24 0
-61 16 -36 0
-38 -56 -27 0
28 15 35 0
28 -2 73 0
1 -24 -80 0
-17 19 73 0
68 7 -58 0
70 -33 39 0
1 23 54 0
-11 49 -65 0
-69 62 -58 0
-16 -49 -23 0
46 11 31 0
-65 73 -69 0
-64 54 -9 0
-35 2 6 0
-11 62 36 0
-32 76 61 0
-14 -63 23 0
39 -42 27 0
55 40 -25 0
-38 -63 20 0
-76 -22 16 0
-61 -36 -45 0
74 8 56 0
22 4 -24 0
-51 2 -66 0
-9 -71 42 0
60 -5 -64 0
-76 -37 -2 0
27 71 57 0
-74 -19 23 0
-11 -35 78 0
52 -13 61 0
1 -58 -69 0
-77 -71 -7 0
40 61 47 0
-77 -71 -11 0
-65 10 11 0
-68 -57 -61 0
-30 -17 -37 0
17 -68 7 0
-12 32 -66 0
43 -12 9 0
38 42 45 0
38 72 29 0
72 32 -34 0
-65 9 7 0
19 31 72 0
30 39 67 0
3 -18 76 0
-35 43 -59 0
-79 -15 -4 0
41 -10 -24 0
69 1 77 0
-64 66 -78 0
-8 74 42 0
16 59 -18 0
-70 -10 -38 0
-61 58 -24 0
-53 -79 -59 0
62 -70 -74 0
75 24 -42 0
62 52 58 0
-6 26 -12 0
57 -32 50 0
72 -55 75 0
68 8 -53 0
3 42 67 0
67 -57 50 0
-26 37 -74 0
-24 -73 -52 0
44 -11 17 0
68 -77 6 0
23 52 40 0
-59 -67 -17 0
-4 -44 -37 0
1 -34 64 0
-21 -9 61 0
38 -25 28 0
66 -31 23 0
-22 71 -1 0
-31 -13 7 0
-76 53 -7 0
-26 43 -31 0
-35 51 76 0
72 48 61 0
-56 9 49 0
29 -54 -6 0
-36 -77 -35 0
9 -8 42 0
4 -31 -71 0
12 5 57 0
57 36 -75 0
53 -13 -6 0
-72 43 -8 0
58 -14 65 0
-32 -24 -68 0
61 27 -31 0
-1 -55 -53 0
-40 -17 -7 0
-49 74 -34 0
15 69 46 0
35 53 -56 0
-68 44 -67 0
21 -53 -46 0
-39 23 -41 0
79 -43 -14 0
65 63 -42 0
75 -34 -10 0
76 11 14 0
-34 77 -43 0
-10 64 -63 0
-50 46 12 0
-50 -4 58 0
55 50 65 0
15 12 66 0
-13 -55 56 0
-58 3 -77 0
64 -17 8 0
12 -61 -13 0
44 -46 -25 0
-60 33 -65 0
68 38 -52 0
-1 47 -48 0
-6 31 -74 0
-8 -32 -77 0
26 4 -16 0
76 -19 59 0
6 2 4 0
74 -44 9 0
-33 26 -52 0
78 -76 -49 0
7 71 22 0
63 -13 67 0
-22 21 11 0
-32 -65 34 0
-45 23 -58 0
-55 26 -22 0
65 -5 -4 0
-19 51 -9 0
21 -20 -37 0
-47 -35 67 0
-23 -42 52 0
-31 10 -37 0
-66 53 22 0
56 -38 -65 0
56 39 -4 0
-21 -17 42 0
-38 -50 72 0
-69 -52 -4 0
6 33 71 0
-51 -9 64 0
-12 4 -20 0
25 38 59 0
-16 37 1 0
13 -77 61 0
52 49 -74 0
28 35 -50 0
11 -64 -77 0
-12 17 -48 0
75 70 4 0
-17 61 -50 0
58 -44 55 0
59 62 56 0
-52 -57 23 0
8 74 -2 0
-12 -49 44 0
39 72 -59 0
-54 53 38 0
-9 -41 40 0
75 8 -3 0
-66 53 49 0
-48 -16 -57 0
10 -41 -8 0
37 57 -45 0
-53 -75 -45 0
-14 -75 42 0
77 78 12 0
14 -62 -33 0
46 5 -45 0
73 -77 -37 0
44 -51 46 0
-7 13 76 0
-41 47 42 0
-64 67 19 0
-67 -76 -44 0
-75 51 34 0
75 62 47 0
66 3 -8 0
24 67 48 0
25 -67 63 0
-15 69 -10 0
36 -18 -44 0
11 26 10 0
-33 8 -7 0
1 21 2 0
-31 15 -56 0
15 24 -64 0
-28 67 46 0
60 45 -11 0
36 18 -35 0
4 47 62 0
-80 79 1 0
-29 1 75 0
57 23 -34 0
77 -59 8 0
-77 40 -7 0
-76 -77 26 0
53 9 61 0
-5 -24 15 0
-51 68 25 0
-56 6 28 0
16 -41 35 0
