c family=1-in-3-SAT n=10 instance=5 seed=3881676977 models=10
c order 7 8 9 10 5 4 2 1 3 6
c order 1 9 4 6 8 10 2 5 3 7
c order 8 7 3 10 1 9 2 4 5 6
c order 2 5 3 1 6 7 4 8 10 9
c order 2 5 8 7 3 1 4 9 10 6
c order 7 2 5 3 1 10 8 6 9 4
c order 10 2 5 7 8 6 3 9 1 4
c order 8 6 3 1 7 2 4 10 5 9
c order 1 7 10 6 9 3 2 5 8 4
c order 8 1 4 9 3 5 6 2 10 7
p cnf 10 24
2 10 7 0
-2 -10 0
-2 -7 0
-10 -7 0
2 5 6 0
-2 -5 0
-2 -6 0
-5 -6 0
4 5 9 0
-4 -5 0
-4 -9 0
-5 -9 0
5 2 7 0
-5 -2 0
-5 -7 0
-2 -7 0
9 10 6 0
-9 -10 0
-9 -6 0
-10 -6 0
3 7 8 0
-3 -7 0
-3 -8 0
-7 -8 0
