c family=1-in-3-SAT n=10 instance=1 seed=3881676977 models=8
c order 10 2 9 3 1 8 6 4 7 5
c order 8 1 10 7 9 4 3 6 5 2
c order 5 7 1 8 9 3 10 4 6 2
c order 10 4 9 5 2 8 7 6 3 1
c order 4 1 6 2 10 5 9 8 7 3
c order 6 1 3 2 4 5 8 7 10 9
c order 2 6 4 7 3 9 10 5 1 8
c order 10 4 1 9 2 8 7 6 5 3
c order 5 7 1 3 10 2 8 6 9 4
c order 10 4 9 8 7 5 2 6 1 3
p cnf 10 24
2 10 3 0
-2 -10 0
-2 -3 0
-10 -3 0
10 8 1 0
-10 -8 0
-10 -1 0
-8 -1 0
7 10 3 0
-7 -10 0
-7 -3 0
-10 -3 0
6 9 2 0
-6 -9 0
-6 -2 0
-9 -2 0
4 9 1 0
-4 -9 0
-4 -1 0
-9 -1 0
9 6 4 0
-9 -6 0
-9 -4 0
-6 -4 0
