c family=1-in-3-SAT n=10 instance=0 seed=3881676977 models=2
c order 1 9 3 2 7 10 8 6 5 4
c order 10 2 8 9 3 6 4 1 7 5
c order 6 9 5 1 2 3 4 7 8 10
c order 1 9 4 6 3 8 2 5 7 10
c order 1 4 5 6 8 7 2 9 10 3
c order 3 1 7 5 4 2 6 8 10 9
c order 6 4 5 2 1 7 3 9 10 8
c order 8 10 9 2 5 1 7 4 3 6
c order 4 2 1 8 10 7 9 3 6 5
c order 10 7 1 2 9 5 4 3 6 8
p cnf 10 24
10 1 4 0
-10 -1 0
-10 -4 0
-1 -4 0
4 7 5 0
-4 -7 0
-4 -5 0
-7 -5 0
8 7 3 0
-8 -7 0
-8 -3 0
-7 -3 0
2 6 4 0
-2 -6 0
-2 -4 0
-6 -4 0
3 4 7 0
-3 -4 0
-3 -7 0
-4 -7 0
4 3 5 0
-4 -3 0
-4 -5 0
-3 -5 0
