c family=1-in-3-SAT n=10 instance=9 seed=3881676977 models=6
c order 5 1 9 4 3 8 10 7 2 6
c order 8 4 2 7 9 10 6 5 1 3
c order 9 4 2 7 3 10 5 1 6 8
c order 1 9 4 6 8 10 3 5 2 7
c order 6 1 9 8 7 4 3 2 5 10
c order 2 1 10 4 3 5 6 7 8 9
c order 10 4 7 6 5 2 9 3 1 8
c order 10 2 4 8 1 3 9 7 6 5
c order 10 1 3 2 8 9 6 7 4 5
c order 7 8 3 6 2 4 10 9 1 5
p cnf 10 24
2 4 7 0
-2 -4 0
-2 -7 0
-4 -7 0
3 4 8 0
-3 -4 0
-3 -8 0
-4 -8 0
3 4 1 0
-3 -4 0
-3 -1 0
-4 -1 0
10 7 6 0
-10 -7 0
-10 -6 0
-7 -6 0
8 7 5 0
-8 -7 0
-8 -5 0
-7 -5 0
10 3 2 0
-10 -3 0
-10 -2 0
-3 -2 0
