c family=1-in-3-SAT n=10 instance=4 seed=3881676977 models=20
c order 6 10 7 8 2 1 9 5 3 4
c order 10 3 7 4 5 6 8 2 9 1
c order 5 3 7 9 10 2 8 1 4 6
c order 4 1 3 8 6 5 2 9 7 10
c order 4 9 6 10 8 3 2 1 7 5
c order 10 5 2 9 8 1 7 6 4 3
c order 3 7 10 9 6 2 4 1 5 8
c order 7 10 3 5 6 1 2 9 8 4
c order 1 8 5 6 3 10 2 9 7 4
c order 3 5 8 6 4 10 9 1 2 7
p cnf 10 24
8 6 2 0
-8 -6 0
-8 -2 0
-6 -2 0
7 8 2 0
-7 -8 0
-7 -2 0
-8 -2 0
5 3 4 0
-5 -3 0
-5 -4 0
-3 -4 0
2 8 7 0
-2 -8 0
-2 -7 0
-8 -7 0
7 9 2 0
-7 -9 0
-7 -2 0
-9 -2 0
4 5 7 0
-4 -5 0
-4 -7 0
-5 -7 0
