c family=1-in-3-SAT n=10 instance=3 seed=3881676977 models=6
c order 8 7 6 10 9 5 3 4 2 1
c order 10 9 8 1 6 3 7 4 2 5
c order 9 6 1 3 8 7 2 10 5 4
c order 4 10 6 5 8 3 1 2 9 7
c order 8 10 1 9 7 6 5 3 4 2
c order 1 9 2 7 5 3 8 4 6 10
c order 2 5 4 9 10 3 8 6 1 7
c order 2 9 6 5 1 7 3 4 8 10
c order 4 9 10 6 8 7 3 5 1 2
c order 4 6 9 10 7 2 3 5 8 1
p cnf 10 24
9 8 7 0
-9 -8 0
-9 -7 0
-8 -7 0
1 7 10 0
-1 -7 0
-1 -10 0
-7 -10 0
5 8 4 0
-5 -8 0
-5 -4 0
-8 -4 0
10 2 3 0
-10 -2 0
-10 -3 0
-2 -3 0
4 2 10 0
-4 -2 0
-4 -10 0
-2 -10 0
8 10 6 0
-8 -10 0
-8 -6 0
-10 -6 0
