c family=1-in-3-SAT n=10 instance=8 seed=3881676977 models=16
c order 1 3 10 8 9 4 5 6 7 2
c order 4 3 9 5 1 7 6 2 8 10
c order 2 1 10 3 9 7 4 6 8 5
c order 10 1 5 9 3 8 2 4 7 6
c order 7 5 6 3 10 2 8 4 1 9
c order 10 1 2 9 7 3 5 8 4 6
c order 10 6 4 8 3 5 2 7 9 1
c order 10 2 5 4 7 6 9 1 3 8
c order 7 1 9 2 10 6 5 4 8 3
c order 6 3 1 5 4 8 2 10 9 7
p cnf 10 24
2 8 6 0
-2 -8 0
-2 -6 0
-8 -6 0
7 3 10 0
-7 -3 0
-7 -10 0
-3 -10 0
8 3 4 0
-8 -3 0
-8 -4 0
-3 -4 0
6 10 9 0
-6 -10 0
-6 -9 0
-10 -9 0
10 6 8 0
-10 -6 0
-10 -8 0
-6 -8 0
2 8 6 0
-2 -8 0
-2 -6 0
-8 -6 0
