c family=1-in-3-SAT n=10 instance=7 seed=3881676977 models=4
c order 8 3 9 4 1 6 5 7 2 10
c order 1 6 3 7 4 8 2 10 9 5
c order 5 9 4 10 7 2 1 3 6 8
c order 6 7 2 8 10 1 3 4 5 9
c order 6 3 5 4 1 9 8 7 10 2
c order 3 8 7 9 10 6 1 2 5 4
c order 9 10 8 7 2 3 5 4 6 1
c order 5 9 2 4 1 10 7 6 3 8
c order 4 9 3 8 6 10 7 2 1 5
c order 7 3 8 1 9 2 5 6 10 4
p cnf 10 24
2 4 5 0
-2 -4 0
-2 -5 0
-4 -5 0
4 3 10 0
-4 -3 0
-4 -10 0
-3 -10 0
7 6 10 0
-7 -6 0
-7 -10 0
-6 -10 0
10 7 8 0
-10 -7 0
-10 -8 0
-7 -8 0
6 8 1 0
-6 -8 0
-6 -1 0
-8 -1 0
3 7 2 0
-3 -7 0
-3 -2 0
-7 -2 0
