c family=1-in-3-SAT n=10 instance=2 seed=3881676977 models=10
c order 9 8 1 2 6 4 3 10 5 7
c order 9 1 4 3 2 10 5 6 7 8
c order 4 8 7 2 5 9 3 1 10 6
c order 4 6 10 8 2 3 5 7 9 1
c order 10 4 6 8 1 7 9 2 3 5
c order 6 2 10 4 8 5 1 3 7 9
c order 10 2 4 7 5 6 1 3 8 9
c order 1 6 4 9 5 8 2 7 10 3
c order 4 10 3 6 7 2 9 8 5 1
c order 7 3 10 8 4 6 9 1 5 2
p cnf 10 24
8 6 1 0
-8 -6 0
-8 -1 0
-6 -1 0
7 6 10 0
-7 -6 0
-7 -10 0
-6 -10 0
10 2 3 0
-10 -2 0
-10 -3 0
-2 -3 0
9 3 2 0
-9 -3 0
-9 -2 0
-3 -2 0
5 10 3 0
-5 -10 0
-5 -3 0
-10 -3 0
8 3 1 0
-8 -3 0
-8 -1 0
-3 -1 0
