c family=1-in-3-SAT n=15 instance=7 seed=3881676977 models=16
c order 7 11 9 4 14 5 3 1 8 2 10 13 15 6 12
c order 13 6 1 9 10 5 3 7 14 4 12 2 15 8 11
c order 8 4 15 10 6 11 2 5 1 7 9 3 12 13 14
c order 10 6 3 13 11 12 1 7 2 15 8 9 4 14 5
c order 13 12 6 4 8 10 7 14 5 2 3 1 11 15 9
c order 2 13 14 6 8 9 4 10 7 1 11 5 12 3 15
c order 11 9 6 4 1 10 2 5 3 15 12 13 8 14 7
c order 1 7 3 2 8 4 5 9 14 12 11 6 13 10 15
c order 4 14 15 3 5 7 9 11 1 13 6 12 8 10 2
c order 2 10 11 1 7 3 14 13 15 9 4 6 5 8 12
p cnf 15 36
1 15 4 0
-1 -15 0
-1 -4 0
-15 -4 0
14 11 3 0
-14 -11 0
-14 -3 0
-11 -3 0
8 1 9 0
-8 -1 0
-8 -9 0
-1 -9 0
11 6 4 0
-11 -6 0
-11 -4 0
-6 -4 0
14 5 3 0
-14 -5 0
-14 -3 0
-5 -3 0
15 14 8 0
-15 -14 0
-15 -8 0
-14 -8 0
4 6 12 0
-4 -6 0
-4 -12 0
-6 -12 0
9 2 15 0
-9 -2 0
-9 -15 0
-2 -15 0
9 11 8 0
-9 -11 0
-9 -8 0
-11 -8 0
