c family=1-in-3-SAT n=15 instance=5 seed=3881676977 models=16
c order 3 8 14 2 1 13 9 12 11 15 10 5 6 7 4
c order 11 3 1 13 12 10 15 7 6 8 9 2 4 14 5
c order 13 12 11 7 5 4 9 3 1 10 15 8 2 14 6
c order 8 9 12 11 14 4 5 6 10 15 2 7 1 3 13
c order 14 10 7 2 3 9 13 6 12 4 1 15 11 5 8
c order 14 15 3 4 9 7 13 12 6 10 1 11 5 8 2
c order 13 4 6 11 14 1 3 12 15 7 8 2 9 10 5
c order 14 5 1 4 7 9 6 2 13 11 12 3 15 8 10
c order 14 8 3 2 5 7 10 1 6 9 4 12 13 15 11
c order 1 10 4 8 7 11 6 3 12 14 2 5 13 15 9
p cnf 15 36
2 14 6 0
-2 -14 0
-2 -6 0
-14 -6 0
12 6 9 0
-12 -6 0
-12 -9 0
-6 -9 0
8 14 3 0
-8 -14 0
-8 -3 0
-14 -3 0
11 5 8 0
-11 -5 0
-11 -8 0
-5 -8 0
15 2 9 0
-15 -2 0
-15 -9 0
-2 -9 0
10 3 4 0
-10 -3 0
-10 -4 0
-3 -4 0
8 4 3 0
-8 -4 0
-8 -3 0
-4 -3 0
11 3 15 0
-11 -3 0
-11 -15 0
-3 -15 0
13 3 15 0
-13 -3 0
-13 -15 0
-3 -15 0
