c family=1-in-3-SAT n=15 instance=2 seed=3881676977 models=16
c order 3 6 4 15 10 1 7 11 14 9 5 13 12 8 2
c order 9 2 11 15 8 12 3 5 4 14 6 13 10 7 1
c order 1 7 3 6 11 4 2 9 12 15 13 8 10 14 5
c order 13 10 1 4 9 14 8 6 3 2 15 7 12 11 5
c order 1 4 9 3 12 7 2 6 5 13 14 10 8 15 11
c order 3 12 13 14 7 5 11 1 8 9 2 6 4 10 15
c order 13 12 7 11 3 9 4 5 2 8 15 1 6 10 14
c order 7 8 2 4 5 6 10 9 12 3 1 11 14 15 13
c order 10 4 1 12 11 6 9 8 7 13 14 15 2 3 5
c order 1 2 5 8 9 7 11 4 6 13 15 10 12 14 3
p cnf 15 36
9 15 5 0
-9 -15 0
-9 -5 0
-15 -5 0
10 1 14 0
-10 -1 0
-10 -14 0
-1 -14 0
10 12 3 0
-10 -12 0
-10 -3 0
-12 -3 0
13 6 14 0
-13 -6 0
-13 -14 0
-6 -14 0
3 14 9 0
-3 -14 0
-3 -9 0
-14 -9 0
7 4 8 0
-7 -4 0
-7 -8 0
-4 -8 0
2 10 8 0
-2 -10 0
-2 -8 0
-10 -8 0
5 9 1 0
-5 -9 0
-5 -1 0
-9 -1 0
3 5 7 0
-3 -5 0
-3 -7 0
-5 -7 0
