c family=1-in-3-SAT n=15 instance=4 seed=3881676977 models=80
c order 1 10 5 9 13 7 6 11 2 4 12 3 8 14 15
c order 15 8 11 5 7 6 1 2 14 4 13 10 12 3 9
c order 14 1 13 2 9 11 5 7 12 3 10 15 8 6 4
c order 9 2 15 10 4 6 13 8 7 3 1 14 12 5 11
c order 5 15 6 4 10 3 1 12 7 8 14 9 11 2 13
c order 11 9 13 12 2 5 7 3 1 15 8 10 4 14 6
c order 13 14 9 10 8 6 7 12 4 2 1 15 3 11 5
c order 9 8 4 1 2 10 11 13 12 15 6 7 5 14 3
c order 12 5 9 4 7 2 3 11 6 10 13 14 1 15 8
c order 5 7 1 6 3 13 4 9 15 11 2 14 8 12 10
p cnf 15 36
13 11 6 0
-13 -11 0
-13 -6 0
-11 -6 0
13 4 3 0
-13 -4 0
-13 -3 0
-4 -3 0
13 7 10 0
-13 -7 0
-13 -10 0
-7 -10 0
4 5 12 0
-4 -5 0
-4 -12 0
-5 -12 0
4 13 12 0
-4 -13 0
-4 -12 0
-13 -12 0
13 11 6 0
-13 -11 0
-13 -6 0
-11 -6 0
3 13 15 0
-3 -13 0
-3 -15 0
-13 -15 0
11 12 13 0
-11 -12 0
-11 -13 0
-12 -13 0
7 14 5 0
-7 -14 0
-7 -5 0
-14 -5 0
