c family=1-in-3-SAT n=15 instance=0 seed=3881676977 models=20
c order 9 15 13 4 11 10 14 6 1 2 3 7 5 8 12
c order 14 10 11 15 4 1 9 7 12 2 3 6 5 13 8
c order 10 11 5 12 7 4 13 1 6 14 9 15 2 8 3
c order 10 9 13 1 7 12 3 8 15 14 5 11 6 2 4
c order 11 1 7 14 13 8 3 12 4 5 15 9 10 2 6
c order 14 7 13 4 3 11 2 1 8 5 9 12 10 6 15
c order 5 2 1 3 8 11 14 13 7 10 6 12 15 9 4
c order 9 12 6 11 5 15 13 4 14 7 1 8 2 10 3
c order 3 10 11 13 6 15 12 8 9 1 7 5 4 14 2
c order 11 12 13 15 5 4 3 7 14 2 1 8 6 9 10
p cnf 15 36
4 1 5 0
-4 -1 0
-4 -5 0
-1 -5 0
15 14 1 0
-15 -14 0
-15 -1 0
-14 -1 0
7 8 3 0
-7 -8 0
-7 -3 0
-8 -3 0
11 5 4 0
-11 -5 0
-11 -4 0
-5 -4 0
1 6 7 0
-1 -6 0
-1 -7 0
-6 -7 0
15 5 10 0
-15 -5 0
-15 -10 0
-5 -10 0
2 14 15 0
-2 -14 0
-2 -15 0
-14 -15 0
10 14 13 0
-10 -14 0
-10 -13 0
-14 -13 0
7 13 1 0
-7 -13 0
-7 -1 0
-13 -1 0
