c family=1-in-3-SAT n=15 instance=8 seed=3881676977 models=16
c order 12 5 7 4 2 1 10 15 3 6 11 8 13 14 9
c order 5 4 9 11 10 2 3 14 12 6 13 15 8 1 7
c order 2 13 5 6 3 8 4 7 10 9 1 14 11 12 15
c order 14 12 13 11 10 9 15 6 4 3 8 7 2 1 5
c order 5 2 3 6 1 13 12 11 8 9 14 15 7 4 10
c order 9 11 5 13 7 1 12 15 8 2 4 10 14 6 3
c order 4 11 15 3 2 10 14 8 5 7 6 12 13 1 9
c order 12 6 7 3 11 8 15 4 14 10 1 5 2 13 9
c order 11 3 13 7 8 12 2 14 15 9 1 6 10 5 4
c order 3 11 2 6 7 14 5 9 4 1 13 15 8 10 12
p cnf 15 36
11 15 5 0
-11 -15 0
-11 -5 0
-15 -5 0
11 4 1 0
-11 -4 0
-11 -1 0
-4 -1 0
13 6 1 0
-13 -6 0
-13 -1 0
-6 -1 0
6 1 9 0
-6 -1 0
-6 -9 0
-1 -9 0
6 3 5 0
-6 -3 0
-6 -5 0
-3 -5 0
2 3 6 0
-2 -3 0
-2 -6 0
-3 -6 0
11 15 14 0
-11 -15 0
-11 -14 0
-15 -14 0
9 13 11 0
-9 -13 0
-9 -11 0
-13 -11 0
1 6 9 0
-1 -6 0
-1 -9 0
-6 -9 0
