c family=1-in-3-SAT n=15 instance=6 seed=3881676977 models=12
c order 4 3 2 1 8 11 15 14 12 9 13 10 5 6 7
c order 7 8 3 15 10 5 2 9 12 1 14 6 11 4 13
c order 2 10 11 6 15 13 1 14 3 9 12 5 4 7 8
c order 14 5 10 4 8 3 9 1 12 7 15 13 11 2 6
c order 7 13 10 6 5 12 2 3 9 8 11 15 1 14 4
c order 9 1 3 5 13 11 14 8 12 15 10 4 7 6 2
c order 10 13 3 1 6 14 9 7 15 5 2 12 4 8 11
c order 9 13 8 4 3 7 10 1 6 14 5 15 2 12 11
c order 9 15 13 7 12 3 1 10 11 6 2 5 14 8 4
c order 15 6 9 10 12 13 5 7 11 14 1 8 2 3 4
p cnf 15 36
11 6 2 0
-11 -6 0
-11 -2 0
-6 -2 0
5 2 1 0
-5 -2 0
-5 -1 0
-2 -1 0
9 14 13 0
-9 -14 0
-9 -13 0
-14 -13 0
13 8 15 0
-13 -8 0
-13 -15 0
-8 -15 0
13 11 15 0
-13 -11 0
-13 -15 0
-11 -15 0
1 7 11 0
-1 -7 0
-1 -11 0
-7 -11 0
2 7 3 0
-2 -7 0
-2 -3 0
-7 -3 0
2 13 4 0
-2 -13 0
-2 -4 0
-13 -4 0
4 9 2 0
-4 -9 0
-4 -2 0
-9 -2 0
