c family=1-in-3-SAT n=15 instance=3 seed=3881676977 models=12
c order 4 13 5 9 1 15 8 2 14 12 7 3 10 6 11
c order 3 4 5 6 1 15 7 10 13 2 14 11 8 12 9
c order 8 15 9 5 13 10 3 2 12 1 14 6 4 7 11
c order 10 11 12 4 7 8 6 9 13 2 3 15 14 1 5
c order 2 9 10 11 3 8 6 5 13 15 14 4 1 12 7
c order 13 15 4 3 9 10 12 2 8 6 14 11 1 5 7
c order 7 11 15 3 8 10 14 2 6 9 4 5 13 1 12
c order 14 3 15 10 5 13 1 6 2 11 9 7 8 4 12
c order 14 8 6 11 4 12 5 7 3 2 13 1 15 10 9
c order 1 13 4 9 14 6 15 2 12 10 7 5 8 11 3
p cnf 15 36
15 3 8 0
-15 -3 0
-15 -8 0
-3 -8 0
3 10 2 0
-3 -10 0
-3 -2 0
-10 -2 0
6 10 11 0
-6 -10 0
-6 -11 0
-10 -11 0
4 12 10 0
-4 -12 0
-4 -10 0
-12 -10 0
1 7 9 0
-1 -7 0
-1 -9 0
-7 -9 0
4 5 10 0
-4 -5 0
-4 -10 0
-5 -10 0
2 5 6 0
-2 -5 0
-2 -6 0
-5 -6 0
9 7 5 0
-9 -7 0
-9 -5 0
-7 -5 0
3 7 13 0
-3 -7 0
-3 -13 0
-7 -13 0
