c family=1-in-3-SAT n=15 instance=1 seed=3881676977 models=18
c order 13 2 1 4 15 11 12 7 8 3 5 6 9 10 14
c order 10 9 1 2 12 8 15 6 13 4 3 11 14 5 7
c order 15 4 10 8 5 1 3 2 6 13 9 12 14 11 7
c order 6 8 5 4 15 2 10 3 11 12 1 13 7 9 14
c order 14 9 5 11 1 6 10 12 3 7 13 4 8 2 15
c order 15 4 6 9 10 8 12 11 13 14 3 7 2 5 1
c order 4 7 12 3 11 14 13 2 5 6 8 1 15 10 9
c order 2 8 14 7 11 6 5 1 4 13 15 10 3 9 12
c order 4 11 14 1 6 7 5 3 2 15 13 12 9 8 10
c order 7 14 10 2 5 8 12 4 9 3 6 13 15 11 1
p cnf 15 36
1 15 7 0
-1 -15 0
-1 -7 0
-15 -7 0
10 12 2 0
-10 -12 0
-10 -2 0
-12 -2 0
14 12 3 0
-14 -12 0
-14 -3 0
-12 -3 0
13 7 2 0
-13 -7 0
-13 -2 0
-7 -2 0
8 9 7 0
-8 -9 0
-8 -7 0
-9 -7 0
14 15 1 0
-14 -15 0
-14 -1 0
-15 -1 0
14 9 11 0
-14 -9 0
-14 -11 0
-9 -11 0
4 5 2 0
-4 -5 0
-4 -2 0
-5 -2 0
10 11 6 0
-10 -11 0
-10 -6 0
-11 -6 0
