c family=1-in-3-SAT n=15 instance=9 seed=3881676977 models=16
c order 2 14 1 12 15 8 10 6 9 4 13 3 7 5 11
c order 6 10 14 12 8 5 7 9 4 15 3 11 13 1 2
c order 13 2 15 5 8 10 1 14 3 7 12 6 9 4 11
c order 1 8 15 11 13 4 14 9 2 5 6 3 10 7 12
c order 10 5 8 15 13 2 12 4 6 11 1 7 14 9 3
c order 1 13 3 7 11 10 5 14 9 12 6 15 4 8 2
c order 14 11 1 3 15 13 10 4 2 9 8 5 6 7 12
c order 2 5 9 3 7 14 10 13 15 4 12 11 6 1 8
c order 14 7 10 3 9 8 5 6 15 13 11 2 1 12 4
c order 9 5 2 11 7 6 3 8 13 10 12 1 14 4 15
p cnf 15 36
13 5 10 0
-13 -5 0
-13 -10 0
-5 -10 0
7 1 6 0
-7 -1 0
-7 -6 0
-1 -6 0
3 4 13 0
-3 -4 0
-3 -13 0
-4 -13 0
8 1 4 0
-8 -1 0
-8 -4 0
-1 -4 0
13 15 11 0
-13 -15 0
-13 -11 0
-15 -11 0
6 9 8 0
-6 -9 0
-6 -8 0
-9 -8 0
14 6 15 0
-14 -6 0
-14 -15 0
-6 -15 0
9 10 8 0
-9 -10 0
-9 -8 0
-10 -8 0
9 13 4 0
-9 -13 0
-9 -4 0
-13 -4 0
