c family=1-in-3-SAT n=20 instance=9 seed=3881676977 models=96
c order 5 10 15 4 12 17 7 1 19 13 18 14 3 6 2 8 20 11 16 9
c order 12 14 16 17 19 10 6 2 4 18 7 20 15 9 5 13 11 3 8 1
c order 8 10 19 4 5 3 16 1 12 13 20 15 11 2 6 14 7 18 9 17
c order 10 20 11 13 12 7 15 1 6 19 8 16 4 3 18 17 14 2 5 9
c order 9 14 1 6 17 5 11 19 4 8 20 18 12 16 10 7 13 3 15 2
c order 12 2 18 6 8 7 3 17 13 20 19 4 1 5 16 10 9 15 14 11
c order 20 15 2 16 1 17 5 3 18 19 7 4 14 11 12 13 9 6 10 8
c order 13 11 20 15 2 4 19 18 17 1 9 6 8 5 14 7 10 16 3 12
c order 18 9 3 6 7 8 2 13 12 19 1 20 5 17 10 16 15 4 11 14
c order 18 12 4 6 17 1 13 19 3 16 7 11 2 14 10 8 15 9 20 5
p cnf 20 48
6 17 11 0
-6 -17 0
-6 -11 0
-17 -11 0
7 6 19 0
-7 -6 0
-7 -19 0
-6 -19 0
6 9 8 0
-6 -9 0
-6 -8 0
-9 -8 0
9 4 6 0
-9 -4 0
-9 -6 0
-4 -6 0
20 7 15 0
-20 -7 0
-20 -15 0
-7 -15 0
16 3 9 0
-16 -3 0
-16 -9 0
-3 -9 0
3 4 12 0
-3 -4 0
-3 -12 0
-4 -12 0
8 6 11 0
-8 -6 0
-8 -11 0
-6 -11 0
11 6 18 0
-11 -6 0
-11 -18 0
-6 -18 0
5 8 18 0
-5 -8 0
-5 -18 0
-8 -18 0
18 7 5 0
-18 -7 0
-18 -5 0
-7 -5 0
8 13 20 0
-8 -13 0
-8 -20 0
-13 -20 0
