c family=1-in-3-SAT n=20 instance=2 seed=3881676977 models=24
c order 18 14 10 8 3 4 11 9 16 1 2 6 20 19 13 15 5 17 7 12
c order 6 2 16 12 9 19 4 17 5 8 10 20 15 18 11 14 3 13 1 7
c order 13 16 6 7 15 11 4 9 2 3 19 17 10 20 14 12 18 1 8 5
c order 11 4 16 8 20 6 2 13 1 19 17 15 3 7 9 12 14 18 10 5
c order 16 1 17 19 11 10 7 12 9 13 4 3 18 15 14 8 2 5 6 20
c order 11 15 20 5 10 9 12 4 19 18 8 17 7 16 14 6 13 1 3 2
c order 8 13 20 5 11 1 2 14 3 15 16 18 19 12 17 9 4 7 6 10
c order 15 13 7 9 10 5 11 16 6 4 12 20 1 14 17 3 8 19 18 2
c order 12 2 10 8 1 4 20 13 16 3 7 5 11 14 9 15 6 19 17 18
c order 14 13 16 18 20 19 7 3 1 6 12 9 8 5 11 2 10 4 17 15
p cnf 20 48
4 7 3 0
-4 -7 0
-4 -3 0
-7 -3 0
13 18 11 0
-13 -18 0
-13 -11 0
-18 -11 0
3 5 13 0
-3 -5 0
-3 -13 0
-5 -13 0
15 6 20 0
-15 -6 0
-15 -20 0
-6 -20 0
9 17 18 0
-9 -17 0
-9 -18 0
-17 -18 0
2 11 15 0
-2 -11 0
-2 -15 0
-11 -15 0
1 19 17 0
-1 -19 0
-1 -17 0
-19 -17 0
2 13 9 0
-2 -13 0
-2 -9 0
-13 -9 0
15 13 11 0
-15 -13 0
-15 -11 0
-13 -11 0
6 11 8 0
-6 -11 0
-6 -8 0
-11 -8 0
19 5 2 0
-19 -5 0
-19 -2 0
-5 -2 0
14 19 8 0
-14 -19 0
-14 -8 0
-19 -8 0
