c family=1-in-3-SAT n=20 instance=8 seed=3881676977 models=16
c order 9 14 5 20 6 19 1 2 10 18 8 17 15 11 12 16 7 3 4 13
c order 7 8 20 18 9 11 2 19 4 3 17 10 15 6 12 14 5 16 1 13
c order 18 5 16 9 1 20 10 4 19 15 12 11 17 2 7 3 6 8 14 13
c order 9 4 10 1 13 20 7 19 15 16 6 8 17 11 2 14 12 18 3 5
c order 5 1 19 11 17 18 9 20 13 10 15 6 2 7 16 12 4 14 8 3
c order 16 9 8 7 5 11 12 17 1 18 6 13 20 19 10 2 4 15 3 14
c order 15 13 12 3 1 6 2 18 14 5 17 16 7 20 10 4 19 9 8 11
c order 9 3 5 10 19 1 15 17 6 16 20 11 12 14 18 13 7 2 4 8
c order 5 16 15 10 19 17 1 18 13 9 6 11 4 2 20 3 7 12 8 14
c order 4 1 2 12 7 18 13 3 17 9 20 10 8 11 6 14 15 16 5 19
p cnf 20 48
5 6 11 0
-5 -6 0
-5 -11 0
-6 -11 0
17 12 2 0
-17 -12 0
-17 -2 0
-12 -2 0
3 9 2 0
-3 -9 0
-3 -2 0
-9 -2 0
4 19 17 0
-4 -19 0
-4 -17 0
-19 -17 0
2 15 7 0
-2 -15 0
-2 -7 0
-15 -7 0
6 9 7 0
-6 -9 0
-6 -7 0
-9 -7 0
6 2 8 0
-6 -2 0
-6 -8 0
-2 -8 0
17 2 20 0
-17 -2 0
-17 -20 0
-2 -20 0
4 14 20 0
-4 -14 0
-4 -20 0
-14 -20 0
15 9 14 0
-15 -9 0
-15 -14 0
-9 -14 0
12 2 7 0
-12 -2 0
-12 -7 0
-2 -7 0
7 18 14 0
-7 -18 0
-7 -14 0
-18 -14 0
