c family=1-in-3-SAT n=20 instance=4 seed=3881676977 models=18
c order 11 3 6 2 5 1 7 18 8 13 20 19 10 14 16 17 15 4 12 9
c order 15 13 17 12 18 16 6 3 20 11 14 10 9 4 5 19 1 8 7 2
c order 12 8 3 17 13 14 15 10 18 7 19 11 6 2 5 20 9 16 1 4
c order 15 9 2 12 16 14 10 1 20 3 17 19 7 18 5 6 11 4 8 13
c order 13 3 5 8 12 9 16 15 1 10 6 7 14 19 4 2 11 18 17 20
c order 4 12 1 2 18 10 6 13 9 20 19 15 8 14 17 11 5 16 3 7
c order 4 18 14 6 8 19 2 11 1 13 12 9 10 15 20 5 17 3 7 16
c order 20 11 17 2 6 3 16 1 15 4 7 13 18 9 19 10 5 14 12 8
c order 17 3 18 10 8 15 9 12 20 19 5 4 1 16 13 7 6 2 14 11
c order 13 15 14 16 10 5 11 20 8 7 9 17 6 2 18 1 19 12 4 3
p cnf 20 48
2 5 4 0
-2 -5 0
-2 -4 0
-5 -4 0
11 12 15 0
-11 -12 0
-11 -15 0
-12 -15 0
4 13 20 0
-4 -13 0
-4 -20 0
-13 -20 0
19 17 8 0
-19 -17 0
-19 -8 0
-17 -8 0
20 13 3 0
-20 -13 0
-20 -3 0
-13 -3 0
14 3 19 0
-14 -3 0
-14 -19 0
-3 -19 0
13 7 17 0
-13 -7 0
-13 -17 0
-7 -17 0
17 13 5 0
-17 -13 0
-17 -5 0
-13 -5 0
6 18 14 0
-6 -18 0
-6 -14 0
-18 -14 0
7 16 4 0
-7 -16 0
-7 -4 0
-16 -4 0
9 7 1 0
-9 -7 0
-9 -1 0
-7 -1 0
3 20 17 0
-3 -20 0
-3 -17 0
-20 -17 0
