c family=1-in-3-SAT n=20 instance=3 seed=3881676977 models=48
c order 2 15 13 4 1 18 6 14 16 3 17 9 12 20 5 10 11 8 7 19
c order 16 13 20 8 14 6 5 9 11 2 4 17 7 1 19 10 3 18 15 12
c order 2 10 6 16 5 1 15 3 13 17 19 18 8 4 12 14 20 11 7 9
c order 12 9 10 5 13 16 2 14 15 8 19 3 4 11 6 1 7 18 17 20
c order 15 19 7 18 2 4 14 11 16 12 9 8 20 13 3 17 5 10 6 1
c order 3 13 18 1 15 10 20 9 14 8 19 7 2 16 4 17 5 12 6 11
c order 16 1 10 20 8 13 17 5 18 2 6 12 19 15 14 3 9 7 4 11
c order 6 7 8 13 18 9 2 3 10 12 14 20 17 15 11 5 1 19 16 4
c order 2 15 19 12 13 17 16 5 11 3 18 10 8 4 9 6 14 7 1 20
c order 10 16 20 7 17 13 14 11 5 15 12 8 6 9 4 3 2 18 19 1
p cnf 20 48
8 18 9 0
-8 -18 0
-8 -9 0
-18 -9 0
2 1 6 0
-2 -1 0
-2 -6 0
-1 -6 0
2 17 20 0
-2 -17 0
-2 -20 0
-17 -20 0
6 2 8 0
-6 -2 0
-6 -8 0
-2 -8 0
18 6 11 0
-18 -6 0
-18 -11 0
-6 -11 0
10 17 6 0
-10 -17 0
-10 -6 0
-17 -6 0
5 13 19 0
-5 -13 0
-5 -19 0
-13 -19 0
13 17 7 0
-13 -17 0
-13 -7 0
-17 -7 0
3 20 4 0
-3 -20 0
-3 -4 0
-20 -4 0
11 6 1 0
-11 -6 0
-11 -1 0
-6 -1 0
16 8 9 0
-16 -8 0
-16 -9 0
-8 -9 0
8 20 4 0
-8 -20 0
-8 -4 0
-20 -4 0
