c family=1-in-3-SAT n=20 instance=0 seed=3881676977 models=24
c order 16 1 9 12 14 15 18 6 5 2 17 13 19 10 3 20 8 4 11 7
c order 20 16 4 8 19 1 7 14 15 17 10 12 13 11 6 9 18 3 2 5
c order 20 6 19 9 5 3 17 15 2 12 1 10 11 18 7 14 8 13 4 16
c order 2 3 20 18 7 11 17 8 15 13 5 10 9 12 6 16 4 1 19 14
c order 1 6 18 19 5 4 10 20 2 12 14 11 13 7 8 9 3 16 15 17
c order 13 3 16 11 1 8 20 2 9 19 6 7 17 18 15 12 4 10 5 14
c order 9 7 6 10 19 4 2 3 5 13 8 1 17 16 12 20 18 11 15 14
c order 14 4 13 6 19 15 1 3 12 20 5 8 18 16 10 9 17 7 11 2
c order 12 20 11 15 3 14 16 5 19 1 10 7 2 13 17 8 6 18 9 4
c order 7 4 1 3 11 18 5 17 9 12 10 16 8 2 13 14 19 15 6 20
p cnf 20 48
4 8 18 0
-4 -8 0
-4 -18 0
-8 -18 0
11 20 19 0
-11 -20 0
-11 -19 0
-20 -19 0
20 11 8 0
-20 -11 0
-20 -8 0
-11 -8 0
9 5 20 0
-9 -5 0
-9 -20 0
-5 -20 0
13 9 10 0
-13 -9 0
-13 -10 0
-9 -10 0
3 12 14 0
-3 -12 0
-3 -14 0
-12 -14 0
20 2 7 0
-20 -2 0
-20 -7 0
-2 -7 0
6 10 9 0
-6 -10 0
-6 -9 0
-10 -9 0
12 17 4 0
-12 -17 0
-12 -4 0
-17 -4 0
18 17 20 0
-18 -17 0
-18 -20 0
-17 -20 0
3 2 9 0
-3 -2 0
-3 -9 0
-2 -9 0
18 6 12 0
-18 -6 0
-18 -12 0
-6 -12 0
