c family=1-in-3-SAT n=20 instance=5 seed=3881676977 models=8
c order 19 9 5 1 10 8 18 13 3 2 6 4 14 11 17 20 12 15 7 16
c order 3 2 4 19 17 7 9 18 5 15 16 11 12 1 14 6 8 20 13 10
c order 13 10 15 2 8 11 4 1 14 19 17 9 12 16 6 18 20 3 7 5
c order 10 14 5 7 4 2 20 18 11 1 9 17 6 16 19 12 13 3 8 15
c order 1 5 14 15 20 12 6 19 3 9 11 7 18 13 10 8 17 4 2 16
c order 15 5 3 19 10 18 7 12 16 20 17 14 1 4 11 8 2 13 9 6
c order 4 14 18 20 16 6 19 15 3 11 17 10 7 2 12 5 1 8 13 9
c order 8 6 19 16 4 13 17 1 20 14 10 15 2 11 12 5 3 7 18 9
c order 18 5 4 2 10 20 1 8 9 3 15 16 12 11 17 7 13 19 14 6
c order 19 1 15 8 18 2 14 13 3 20 6 4 10 5 12 7 16 9 17 11
p cnf 20 48
18 9 7 0
-18 -9 0
-18 -7 0
-9 -7 0
16 15 9 0
-16 -15 0
-16 -9 0
-15 -9 0
10 16 18 0
-10 -16 0
-10 -18 0
-16 -18 0
15 5 7 0
-15 -5 0
-15 -7 0
-5 -7 0
5 13 6 0
-5 -13 0
-5 -6 0
-13 -6 0
2 5 18 0
-2 -5 0
-2 -18 0
-5 -18 0
15 20 4 0
-15 -20 0
-15 -4 0
-20 -4 0
3 5 6 0
-3 -5 0
-3 -6 0
-5 -6 0
19 1 18 0
-19 -1 0
-19 -18 0
-1 -18 0
11 9 2 0
-11 -9 0
-11 -2 0
-9 -2 0
14 16 7 0
-14 -16 0
-14 -7 0
-16 -7 0
5 1 4 0
-5 -1 0
-5 -4 0
-1 -4 0
