c family=1-in-3-SAT n=20 instance=1 seed=3881676977 models=32
c order 18 14 10 13 1 8 19 7 11 20 9 15 6 12 4 3 5 16 17 2
c order 9 2 1 8 13 16 10 20 7 3 5 19 6 12 11 4 15 18 14 17
c order 16 4 15 13 6 14 17 18 2 9 20 7 1 3 10 8 11 19 12 5
c order 13 18 3 8 1 4 2 7 20 10 19 11 17 16 12 9 6 5 14 15
c order 11 16 1 6 20 17 14 19 2 5 4 9 10 18 12 7 15 13 3 8
c order 17 2 12 18 9 15 14 4 10 7 5 8 11 1 13 16 20 6 19 3
c order 13 1 15 8 17 14 7 4 2 3 20 6 5 12 16 18 11 19 10 9
c order 7 12 14 18 19 5 9 17 2 8 13 20 6 15 11 10 1 3 16 4
c order 4 15 18 14 10 9 13 2 11 5 17 19 1 12 16 6 7 20 8 3
c order 4 17 13 9 19 3 18 6 1 2 20 7 11 12 14 5 10 16 8 15
p cnf 20 48
6 13 7 0
-6 -13 0
-6 -7 0
-13 -7 0
13 11 17 0
-13 -11 0
-13 -17 0
-11 -17 0
7 19 6 0
-7 -19 0
-7 -6 0
-19 -6 0
8 12 3 0
-8 -12 0
-8 -3 0
-12 -3 0
18 17 15 0
-18 -17 0
-18 -15 0
-17 -15 0
10 18 7 0
-10 -18 0
-10 -7 0
-18 -7 0
5 8 19 0
-5 -8 0
-5 -19 0
-8 -19 0
20 4 5 0
-20 -4 0
-20 -5 0
-4 -5 0
13 6 1 0
-13 -6 0
-13 -1 0
-6 -1 0
19 4 1 0
-19 -4 0
-19 -1 0
-4 -1 0
12 5 11 0
-12 -5 0
-12 -11 0
-5 -11 0
2 4 8 0
-2 -4 0
-2 -8 0
-4 -8 0
