c family=1-in-3-SAT n=20 instance=7 seed=3881676977 models=32
c order 13 19 8 1 2 16 12 15 20 5 4 18 6 14 7 3 9 17 10 11
c order 7 14 20 6 1 13 2 10 8 17 12 15 3 5 16 18 11 4 19 9
c order 18 9 15 17 10 5 6 8 7 2 14 1 12 20 19 16 4 13 3 11
c order 11 1 9 19 13 8 2 17 18 3 14 7 10 12 16 15 6 4 20 5
c order 14 17 11 13 2 4 10 15 9 1 7 20 5 8 16 3 6 18 12 19
c order 7 16 11 17 13 18 4 1 15 14 8 12 3 9 10 2 5 6 19 20
c order 6 20 7 3 15 5 18 8 12 4 11 9 1 17 14 10 16 19 13 2
c order 2 15 19 16 10 7 14 13 6 20 17 4 12 8 11 5 18 3 1 9
c order 3 11 19 13 18 12 15 20 5 16 17 2 9 10 7 4 1 6 14 8
c order 18 5 3 10 19 17 20 16 14 6 2 1 4 7 13 12 11 15 8 9
p cnf 20 48
16 5 10 0
-16 -5 0
-16 -10 0
-5 -10 0
19 14 1 0
-19 -14 0
-19 -1 0
-14 -1 0
13 18 8 0
-13 -18 0
-13 -8 0
-18 -8 0
11 14 8 0
-11 -14 0
-11 -8 0
-14 -8 0
11 1 17 0
-11 -1 0
-11 -17 0
-1 -17 0
3 16 6 0
-3 -16 0
-3 -6 0
-16 -6 0
5 12 19 0
-5 -12 0
-5 -19 0
-12 -19 0
13 8 7 0
-13 -8 0
-13 -7 0
-8 -7 0
10 13 14 0
-10 -13 0
-10 -14 0
-13 -14 0
17 15 18 0
-17 -15 0
-17 -18 0
-15 -18 0
8 16 6 0
-8 -16 0
-8 -6 0
-16 -6 0
13 14 19 0
-13 -14 0
-13 -19 0
-14 -19 0
