c family=1-in-3-SAT n=20 instance=6 seed=3881676977 models=56
c order 9 18 3 4 11 20 5 2 14 8 12 13 16 15 1 10 19 6 7 17
c order 14 1 17 9 11 19 3 6 8 20 4 16 12 10 2 7 13 18 5 15
c order 10 6 2 5 4 13 1 18 16 15 8 3 20 17 19 9 14 7 11 12
c order 6 18 12 5 11 16 8 3 19 4 2 9 13 7 17 1 10 15 14 20
c order 6 4 9 11 1 16 18 17 14 15 20 7 2 12 3 13 8 5 10 19
c order 1 2 9 17 4 8 20 13 15 5 6 19 7 11 10 12 18 3 14 16
c order 12 6 20 8 19 10 18 4 14 11 7 15 2 13 3 16 9 5 17 1
c order 1 13 15 16 7 4 5 8 12 20 6 3 2 18 9 14 10 19 17 11
c order 4 14 12 6 8 13 2 18 20 15 19 1 9 5 11 17 3 16 10 7
c order 14 2 20 1 5 3 6 9 10 12 16 4 13 19 18 15 8 11 17 7
p cnf 20 48
4 18 3 0
-4 -18 0
-4 -3 0
-18 -3 0
9 3 5 0
-9 -3 0
-9 -5 0
-3 -5 0
5 9 14 0
-5 -9 0
-5 -14 0
-9 -14 0
18 20 4 0
-18 -20 0
-18 -4 0
-20 -4 0
11 2 16 0
-11 -2 0
-11 -16 0
-2 -16 0
9 17 15 0
-9 -17 0
-9 -15 0
-17 -15 0
10 4 16 0
-10 -4 0
-10 -16 0
-4 -16 0
6 2 13 0
-6 -2 0
-6 -13 0
-2 -13 0
11 17 14 0
-11 -17 0
-11 -14 0
-17 -14 0
11 19 2 0
-11 -19 0
-11 -2 0
-19 -2 0
10 5 13 0
-10 -5 0
-10 -13 0
-5 -13 0
8 3 4 0
-8 -3 0
-8 -4 0
-3 -4 0
