c family=1-in-3-SAT n=25 instance=4 seed=3881676977 models=192
c order 14 5 23 22 21 7 25 11 4 6 24 17 12 8 15 3 19 20 9 1 2 10 18 13 16
c order 4 2 11 8 3 19 18 24 7 14 16 25 12 9 6 21 17 10 1 13 23 5 15 22 20
c order 17 25 24 4 2 14 7 8 18 13 1 15 22 12 6 23 20 3 5 9 11 10 19 16 21
c order 15 17 19 12 14 13 24 18 16 2 8 6 1 7 21 20 22 4 10 3 25 11 5 9 23
c order 20 1 4 9 24 17 7 13 25 5 23 14 8 12 21 2 3 11 22 16 10 18 15 19 6
c order 13 3 10 17 9 8 1 5 25 4 22 7 15 23 12 21 24 11 18 16 2 14 6 19 20
c order 14 2 17 8 6 22 11 12 25 7 20 4 10 1 19 15 23 9 21 24 18 3 16 13 5
c order 16 2 1 8 12 13 17 3 21 11 22 5 23 14 9 15 24 18 10 6 4 19 7 25 20
c order 23 20 4 11 21 17 9 18 12 19 1 16 2 5 13 3 7 14 22 8 25 24 10 6 15
c order 12 11 19 16 24 22 9 6 2 5 20 17 8 23 10 4 1 7 21 18 13 3 14 15 25
p cnf 25 60
4 22 19 0
-4 -22 0
-4 -19 0
-22 -19 0
7 12 15 0
-7 -12 0
-7 -15 0
-12 -15 0
10 17 8 0
-10 -17 0
-10 -8 0
-17 -8 0
1 8 24 0
-1 -8 0
-1 -24 0
-8 -24 0
21 18 9 0
-21 -18 0
-21 -9 0
-18 -9 0
11 16 13 0
-11 -16 0
-11 -13 0
-16 -13 0
16 20 13 0
-16 -20 0
-16 -13 0
-20 -13 0
19 24 25 0
-19 -24 0
-19 -25 0
-24 -25 0
4 19 11 0
-4 -19 0
-4 -11 0
-19 -11 0
11 21 9 0
-11 -21 0
-11 -9 0
-21 -9 0
14 23 7 0
-14 -23 0
-14 -7 0
-23 -7 0
16 15 13 0
-16 -15 0
-16 -13 0
-15 -13 0
11 2 12 0
-11 -2 0
-11 -12 0
-2 -12 0
14 19 12 0
-14 -19 0
-14 -12 0
-19 -12 0
8 12 18 0
-8 -12 0
-8 -18 0
-12 -18 0
