c family=1-in-3-SAT n=25 instance=3 seed=3881676977 models=24
c order 18 23 20 21 2 17 7 8 24 12 11 9 4 16 1 3 19 15 14 5 13 22 6 25 10
c order 2 16 14 15 5 17 25 3 10 13 23 18 7 6 4 21 12 1 24 19 20 9 8 22 11
c order 14 22 15 21 11 4 5 2 16 7 12 6 3 8 18 9 10 17 19 13 25 24 20 1 23
c order 8 1 23 24 16 14 12 6 4 17 15 7 2 22 25 3 21 13 19 20 9 18 11 10 5
c order 16 21 12 23 20 1 5 13 19 4 17 2 9 15 6 25 22 24 11 10 3 14 18 8 7
c order 1 16 25 22 12 20 19 13 24 10 5 17 23 8 18 15 21 7 6 14 9 3 4 11 2
c order 13 22 12 21 20 17 23 14 5 19 10 7 16 24 2 1 15 6 3 8 4 11 25 18 9
c order 23 13 20 2 22 15 8 14 10 4 11 25 21 3 16 5 6 12 17 1 9 18 7 24 19
c order 13 8 7 14 11 17 12 4 23 19 24 5 20 16 6 15 2 25 3 9 21 10 1 18 22
c order 6 10 21 17 11 7 3 20 15 19 14 9 25 18 23 22 5 12 8 2 4 13 1 24 16
p cnf 25 60
9 6 10 0
-9 -6 0
-9 -10 0
-6 -10 0
21 14 24 0
-21 -14 0
-21 -24 0
-14 -24 0
8 12 1 0
-8 -12 0
-8 -1 0
-12 -1 0
12 23 11 0
-12 -23 0
-12 -11 0
-23 -11 0
2 8 11 0
-2 -8 0
-2 -11 0
-8 -11 0
13 17 7 0
-13 -17 0
-13 -7 0
-17 -7 0
22 4 15 0
-22 -4 0
-22 -15 0
-4 -15 0
23 13 5 0
-23 -13 0
-23 -5 0
-13 -5 0
1 18 12 0
-1 -18 0
-1 -12 0
-18 -12 0
2 9 3 0
-2 -9 0
-2 -3 0
-9 -3 0
5 11 17 0
-5 -11 0
-5 -17 0
-11 -17 0
24 7 25 0
-24 -7 0
-24 -25 0
-7 -25 0
5 4 2 0
-5 -4 0
-5 -2 0
-4 -2 0
13 12 24 0
-13 -12 0
-13 -24 0
-12 -24 0
13 25 6 0
-13 -25 0
-13 -6 0
-25 -6 0
