c family=1-in-3-SAT n=25 instance=2 seed=3881676977 models=130
c order 16 15 3 5 2 7 9 13 4 14 11 10 17 21 1 24 22 25 20 23 19 18 8 6 12
c order 25 5 7 3 17 16 20 9 13 8 14 19 12 18 22 2 24 21 1 4 10 23 11 6 15
c order 23 5 2 15 4 1 24 18 19 13 6 25 17 8 20 21 14 7 11 3 10 12 9 16 22
c order 1 17 3 7 21 19 24 9 13 4 18 23 11 6 22 20 25 10 2 5 14 15 8 16 12
c order 4 23 14 3 17 5 10 24 21 7 15 16 6 20 11 22 2 1 19 25 8 9 18 13 12
c order 24 20 9 5 10 15 1 7 17 14 18 8 6 11 13 16 2 25 23 21 22 3 4 12 19
c order 20 16 9 14 4 18 2 23 13 17 22 25 5 8 21 7 6 3 10 19 11 15 24 1 12
c order 16 19 22 7 18 1 2 17 11 13 9 12 10 20 15 6 23 5 4 25 14 21 24 8 3
c order 17 14 4 18 20 7 24 6 5 19 8 25 3 16 13 21 2 1 22 10 9 12 15 11 23
c order 1 22 14 23 11 7 13 15 21 6 8 2 18 12 19 10 5 3 9 17 4 25 24 20 16
p cnf 25 60
8 17 7 0
-8 -17 0
-8 -7 0
-17 -7 0
2 7 16 0
-2 -7 0
-2 -16 0
-7 -16 0
8 3 10 0
-8 -3 0
-8 -10 0
-3 -10 0
4 19 12 0
-4 -19 0
-4 -12 0
-19 -12 0
5 14 23 0
-5 -14 0
-5 -23 0
-14 -23 0
23 20 9 0
-23 -20 0
-23 -9 0
-20 -9 0
11 8 17 0
-11 -8 0
-11 -17 0
-8 -17 0
19 6 14 0
-19 -6 0
-19 -14 0
-6 -14 0
2 25 11 0
-2 -25 0
-2 -11 0
-25 -11 0
24 10 25 0
-24 -10 0
-24 -25 0
-10 -25 0
12 2 13 0
-12 -2 0
-12 -13 0
-2 -13 0
21 18 15 0
-21 -18 0
-21 -15 0
-18 -15 0
1 14 18 0
-1 -14 0
-1 -18 0
-14 -18 0
15 9 21 0
-15 -9 0
-15 -21 0
-9 -21 0
1 21 18 0
-1 -21 0
-1 -18 0
-21 -18 0
