c family=1-in-3-SAT n=25 instance=6 seed=3881676977 models=32
c order 6 22 1 21 16 10 13 25 11 20 2 7 9 3 23 18 12 5 15 17 19 8 14 4 24
c order 11 2 13 24 22 20 5 17 21 1 7 4 14 10 18 6 16 3 8 9 19 25 12 23 15
c order 3 4 19 24 11 17 10 16 12 22 8 21 14 23 15 20 25 18 13 5 6 7 2 9 1
c order 2 14 1 17 8 21 18 20 19 13 11 4 10 9 6 23 5 24 7 25 15 3 12 16 22
c order 16 13 22 12 1 9 17 15 7 18 6 8 20 10 11 25 2 3 21 4 24 14 19 23 5
c order 24 23 7 22 17 18 11 6 9 15 4 25 14 12 16 13 20 1 5 21 2 10 8 3 19
c order 23 22 19 6 4 18 7 1 11 13 9 21 20 10 25 14 8 16 17 5 2 24 12 3 15
c order 14 8 17 6 13 9 15 10 12 25 19 5 16 2 24 23 4 1 22 7 21 18 3 20 11
c order 12 21 10 24 18 19 17 2 20 7 8 11 23 14 16 5 22 4 3 6 9 1 15 25 13
c order 1 10 25 3 14 12 19 21 16 15 5 20 22 2 11 23 24 8 4 17 18 6 9 7 13
p cnf 25 60
3 20 6 0
-3 -20 0
-3 -6 0
-20 -6 0
4 1 21 0
-4 -1 0
-4 -21 0
-1 -21 0
16 4 23 0
-16 -4 0
-16 -23 0
-4 -23 0
14 23 25 0
-14 -23 0
-14 -25 0
-23 -25 0
24 3 5 0
-24 -3 0
-24 -5 0
-3 -5 0
1 13 19 0
-1 -13 0
-1 -19 0
-13 -19 0
24 17 9 0
-24 -17 0
-24 -9 0
-17 -9 0
5 15 19 0
-5 -15 0
-5 -19 0
-15 -19 0
12 10 4 0
-12 -10 0
-12 -4 0
-10 -4 0
7 21 12 0
-7 -21 0
-7 -12 0
-21 -12 0
9 3 14 0
-9 -3 0
-9 -14 0
-3 -14 0
13 18 14 0
-13 -18 0
-13 -14 0
-18 -14 0
23 3 5 0
-23 -3 0
-23 -5 0
-3 -5 0
7 4 23 0
-7 -4 0
-7 -23 0
-4 -23 0
25 3 15 0
-25 -3 0
-25 -15 0
-3 -15 0
