c family=1-in-3-SAT n=25 instance=5 seed=3881676977 models=32
c order 6 21 13 16 5 17 12 19 24 23 9 8 3 22 11 4 20 18 25 10 7 15 2 1 14
c order 16 3 17 23 25 14 21 12 6 1 22 15 5 18 7 2 11 24 20 8 10 4 13 19 9
c order 15 10 18 17 22 2 20 25 24 13 11 9 16 1 3 21 5 23 8 12 14 19 4 7 6
c order 24 18 17 12 7 25 22 15 3 14 10 5 23 13 1 8 19 21 6 16 9 2 11 4 20
c order 21 10 12 5 8 22 9 7 19 23 4 3 6 20 25 24 2 16 11 13 14 17 18 1 15
c order 12 21 9 18 5 20 16 23 4 1 3 22 17 25 6 8 2 13 15 11 14 24 19 10 7
c order 22 15 3 4 9 16 12 19 21 6 20 14 11 18 1 17 23 5 25 24 7 8 13 2 10
c order 22 21 5 13 8 7 14 25 10 12 15 19 4 2 24 6 23 3 17 16 11 20 1 9 18
c order 10 1 11 4 18 25 6 7 8 14 17 21 2 5 15 9 13 12 24 20 19 22 3 16 23
c order 10 14 19 20 18 13 17 4 8 6 23 9 1 15 25 2 12 11 21 7 3 16 5 24 22
p cnf 25 60
17 23 11 0
-17 -23 0
-17 -11 0
-23 -11 0
10 5 13 0
-10 -5 0
-10 -13 0
-5 -13 0
12 14 10 0
-12 -14 0
-12 -10 0
-14 -10 0
24 8 5 0
-24 -8 0
-24 -5 0
-8 -5 0
22 3 9 0
-22 -3 0
-22 -9 0
-3 -9 0
6 18 7 0
-6 -18 0
-6 -7 0
-18 -7 0
3 18 23 0
-3 -18 0
-3 -23 0
-18 -23 0
22 14 18 0
-22 -14 0
-22 -18 0
-14 -18 0
14 20 10 0
-14 -20 0
-14 -10 0
-20 -10 0
24 13 3 0
-24 -13 0
-24 -3 0
-13 -3 0
6 5 20 0
-6 -5 0
-6 -20 0
-5 -20 0
18 21 14 0
-18 -21 0
-18 -14 0
-21 -14 0
11 16 1 0
-11 -16 0
-11 -1 0
-16 -1 0
25 6 10 0
-25 -6 0
-25 -10 0
-6 -10 0
10 7 5 0
-10 -7 0
-10 -5 0
-7 -5 0
