c family=1-in-3-SAT n=25 instance=8 seed=3881676977 models=88
c order 7 24 23 14 11 5 6 9 25 1 3 20 4 17 15 10 21 2 8 18 13 12 16 22 19
c order 15 18 5 1 3 22 10 13 12 20 9 23 17 4 24 19 7 21 16 14 8 2 6 11 25
c order 24 5 25 21 8 23 14 9 12 16 19 11 17 18 6 4 10 3 15 2 22 1 7 13 20
c order 20 24 13 11 23 2 15 18 6 19 7 4 12 5 1 8 21 10 25 9 3 22 14 17 16
c order 3 15 2 11 16 18 6 8 19 14 21 22 7 24 5 25 1 17 23 9 4 10 13 12 20
c order 10 3 12 8 11 9 13 17 1 23 16 20 5 6 21 14 7 2 19 25 15 4 24 22 18
c order 23 8 6 14 3 20 25 4 9 12 2 15 7 18 1 17 21 11 16 13 5 19 24 22 10
c order 16 17 24 7 21 19 6 12 11 9 3 14 23 5 4 22 8 13 25 15 10 1 18 20 2
c order 7 21 3 8 22 16 4 13 25 23 10 14 1 9 2 17 6 11 18 20 24 12 5 15 19
c order 12 16 10 9 18 20 8 24 2 14 19 22 6 25 23 17 11 7 4 1 21 15 13 5 3
p cnf 25 60
10 8 5 0
-10 -8 0
-10 -5 0
-8 -5 0
17 11 6 0
-17 -11 0
-17 -6 0
-11 -6 0
19 7 11 0
-19 -7 0
-19 -11 0
-7 -11 0
22 21 3 0
-22 -21 0
-22 -3 0
-21 -3 0
4 19 8 0
-4 -19 0
-4 -8 0
-19 -8 0
14 19 7 0
-14 -19 0
-14 -7 0
-19 -7 0
16 1 23 0
-16 -1 0
-16 -23 0
-1 -23 0
25 22 2 0
-25 -22 0
-25 -2 0
-22 -2 0
25 5 24 0
-25 -5 0
-25 -24 0
-5 -24 0
3 20 25 0
-3 -20 0
-3 -25 0
-20 -25 0
17 19 12 0
-17 -19 0
-17 -12 0
-19 -12 0
6 3 25 0
-6 -3 0
-6 -25 0
-3 -25 0
11 22 23 0
-11 -22 0
-11 -23 0
-22 -23 0
1 13 3 0
-1 -13 0
-1 -3 0
-13 -3 0
2 7 5 0
-2 -7 0
-2 -5 0
-7 -5 0
