c family=1-in-3-SAT n=25 instance=9 seed=3881676977 models=104
c order 20 6 2 22 3 12 18 19 11 9 8 7 13 10 25 1 21 4 23 24 17 16 14 15 5
c order 15 2 1 23 5 25 20 10 11 22 7 6 8 17 21 3 18 24 19 9 14 12 16 4 13
c order 6 19 9 5 20 14 23 21 2 3 4 17 10 16 24 8 25 13 15 22 18 1 11 7 12
c order 6 23 22 12 14 16 15 2 11 20 8 18 13 19 9 17 10 7 25 24 21 4 3 1 5
c order 9 25 18 4 16 10 1 17 19 3 24 5 8 21 11 6 2 22 13 23 12 7 20 14 15
c order 1 19 13 3 25 12 15 2 18 11 10 6 14 24 4 17 7 8 9 21 16 20 22 5 23
c order 4 6 14 21 11 5 3 23 22 19 8 10 12 7 13 9 16 20 24 15 17 18 2 1 25
c order 14 21 17 6 10 2 3 19 4 22 15 20 9 8 25 11 24 5 12 7 18 16 13 23 1
c order 11 3 5 2 10 18 13 1 19 24 4 22 16 23 15 14 20 9 25 8 12 7 21 17 6
c order 21 8 12 2 13 6 5 20 7 11 19 18 23 10 4 24 16 3 1 25 22 17 9 14 15
p cnf 25 60
21 10 24 0
-21 -10 0
-21 -24 0
-10 -24 0
19 2 13 0
-19 -2 0
-19 -13 0
-2 -13 0
23 6 3 0
-23 -6 0
-23 -3 0
-6 -3 0
3 20 11 0
-3 -20 0
-3 -11 0
-20 -11 0
17 16 8 0
-17 -16 0
-17 -8 0
-16 -8 0
16 20 8 0
-16 -20 0
-16 -8 0
-20 -8 0
22 18 7 0
-22 -18 0
-22 -7 0
-18 -7 0
13 15 23 0
-13 -15 0
-13 -23 0
-15 -23 0
16 11 18 0
-16 -11 0
-16 -18 0
-11 -18 0
22 11 15 0
-22 -11 0
-22 -15 0
-11 -15 0
19 12 24 0
-19 -12 0
-19 -24 0
-12 -24 0
6 5 3 0
-6 -5 0
-6 -3 0
-5 -3 0
24 7 9 0
-24 -7 0
-24 -9 0
-7 -9 0
10 23 24 0
-10 -23 0
-10 -24 0
-23 -24 0
14 20 11 0
-14 -20 0
-14 -11 0
-20 -11 0
