c family=1-in-3-SAT n=25 instance=0 seed=3881676977 models=96
c order 20 15 3 24 1 6 4 7 21 25 5 12 23 11 16 9 17 18 10 14 8 13 22 2 19
c order 21 11 4 2 23 19 15 3 17 9 20 25 10 7 5 13 14 12 22 24 6 1 8 18 16
c order 4 24 12 5 6 18 9 10 17 23 22 8 13 2 20 15 1 21 19 7 16 3 14 25 11
c order 10 7 5 13 17 22 15 20 14 3 8 24 16 9 6 19 11 23 4 1 18 25 12 21 2
c order 21 20 5 23 4 7 22 8 14 12 25 11 2 18 19 3 15 13 6 17 16 10 24 1 9
c order 24 12 19 5 10 25 13 1 15 3 22 23 20 21 8 6 14 4 18 11 2 17 9 16 7
c order 8 25 1 12 17 2 3 15 19 16 4 21 10 18 5 6 9 22 7 23 14 13 11 24 20
c order 6 17 5 11 2 10 16 20 18 3 4 8 24 22 13 19 1 14 15 23 7 25 21 12 9
c order 8 23 18 22 25 17 19 4 2 1 15 6 12 14 13 5 11 16 21 9 24 20 7 10 3
c order 16 9 11 10 2 13 6 14 19 12 24 20 21 23 18 7 15 5 4 8 1 25 17 3 22
p cnf 25 60
16 17 11 0
-16 -17 0
-16 -11 0
-17 -11 0
24 6 8 0
-24 -6 0
-24 -8 0
-6 -8 0
9 13 1 0
-9 -13 0
-9 -1 0
-13 -1 0
21 14 2 0
-21 -14 0
-21 -2 0
-14 -2 0
6 1 2 0
-6 -1 0
-6 -2 0
-1 -2 0
11 8 14 0
-11 -8 0
-11 -14 0
-8 -14 0
20 7 14 0
-20 -7 0
-20 -14 0
-7 -14 0
1 11 9 0
-1 -11 0
-1 -9 0
-11 -9 0
4 6 8 0
-4 -6 0
-4 -8 0
-6 -8 0
16 22 23 0
-16 -22 0
-16 -23 0
-22 -23 0
1 6 19 0
-1 -6 0
-1 -19 0
-6 -19 0
18 2 3 0
-18 -2 0
-18 -3 0
-2 -3 0
12 17 8 0
-12 -17 0
-12 -8 0
-17 -8 0
13 2 14 0
-13 -2 0
-13 -14 0
-2 -14 0
18 11 13 0
-18 -11 0
-18 -13 0
-11 -13 0
