c family=1-in-3-SAT n=25 instance=7 seed=3881676977 models=24
c order 20 14 1 8 12 13 18 4 7 2 16 17 6 3 9 15 21 5 22 11 10 24 19 23 25
c order 15 5 20 3 23 12 11 16 7 14 4 9 8 21 6 24 13 19 18 10 2 1 17 22 25
c order 3 18 19 6 7 5 17 2 13 11 9 16 10 24 22 15 23 12 21 20 14 25 8 1 4
c order 1 22 25 6 15 3 17 14 21 2 8 13 12 7 24 4 23 19 9 20 18 5 11 16 10
c order 21 2 14 22 11 18 15 10 9 23 4 12 8 7 17 6 3 1 24 13 5 16 20 25 19
c order 13 7 20 17 23 5 25 2 1 18 19 11 8 16 24 6 15 3 10 9 21 12 4 14 22
c order 19 24 10 20 25 6 13 7 15 21 5 17 1 14 12 2 4 23 18 3 11 16 9 8 22
c order 5 18 8 20 3 14 11 21 2 16 15 13 12 10 25 1 9 23 19 6 4 7 24 17 22
c order 1 7 18 11 12 16 3 9 14 25 4 20 13 5 6 10 2 19 24 23 15 21 22 8 17
c order 15 17 14 16 13 25 21 19 1 24 3 12 23 11 8 9 2 22 6 5 4 20 7 18 10
p cnf 25 60
7 8 22 0
-7 -8 0
-7 -22 0
-8 -22 0
16 3 2 0
-16 -3 0
-16 -2 0
-3 -2 0
16 19 8 0
-16 -19 0
-16 -8 0
-19 -8 0
24 20 21 0
-24 -20 0
-24 -21 0
-20 -21 0
18 8 17 0
-18 -8 0
-18 -17 0
-8 -17 0
23 2 25 0
-23 -2 0
-23 -25 0
-2 -25 0
14 13 8 0
-14 -13 0
-14 -8 0
-13 -8 0
13 12 21 0
-13 -12 0
-13 -21 0
-12 -21 0
9 18 22 0
-9 -18 0
-9 -22 0
-18 -22 0
16 19 5 0
-16 -19 0
-16 -5 0
-19 -5 0
13 9 5 0
-13 -9 0
-13 -5 0
-9 -5 0
8 2 12 0
-8 -2 0
-8 -12 0
-2 -12 0
20 22 12 0
-20 -22 0
-20 -12 0
-22 -12 0
8 5 22 0
-8 -5 0
-8 -22 0
-5 -22 0
15 4 11 0
-15 -4 0
-15 -11 0
-4 -11 0
