c family=1-in-3-SAT n=25 instance=1 seed=3881676977 models=96
c order 19 1 12 10 21 4 5 24 15 7 23 20 6 11 3 2 14 16 25 13 8 22 9 17 18
c order 3 9 21 18 17 2 14 5 13 25 8 11 10 15 4 19 16 7 6 23 1 12 24 22 20
c order 10 3 22 8 11 16 24 2 6 19 5 13 14 17 20 25 4 21 15 12 23 7 9 1 18
c order 3 13 23 5 22 15 9 14 8 21 24 16 1 25 11 19 10 20 12 18 17 6 2 7 4
c order 21 12 22 14 3 24 23 4 9 20 5 13 16 2 18 19 8 25 15 17 7 1 10 11 6
c order 21 8 6 13 20 18 4 7 10 5 15 1 22 16 19 24 12 23 3 14 25 11 2 9 17
c order 19 3 16 7 18 2 23 4 10 9 6 14 15 21 22 11 1 24 17 13 5 20 8 12 25
c order 25 19 10 5 1 11 23 4 20 9 13 7 17 12 16 21 22 3 18 14 6 2 15 24 8
c order 1 21 15 13 11 8 4 10 17 12 16 20 19 24 3 6 23 7 5 2 9 18 22 25 14
c order 13 6 1 20 10 14 21 3 23 24 7 5 18 19 4 12 15 17 8 11 2 16 9 25 22
p cnf 25 60
21 10 1 0
-21 -10 0
-21 -1 0
-10 -1 0
25 14 3 0
-25 -14 0
-25 -3 0
-14 -3 0
24 9 8 0
-24 -9 0
-24 -8 0
-9 -8 0
16 9 19 0
-16 -9 0
-16 -19 0
-9 -19 0
7 23 18 0
-7 -23 0
-7 -18 0
-23 -18 0
5 17 9 0
-5 -17 0
-5 -9 0
-17 -9 0
8 9 17 0
-8 -9 0
-8 -17 0
-9 -17 0
8 9 2 0
-8 -9 0
-8 -2 0
-9 -2 0
13 7 20 0
-13 -7 0
-13 -20 0
-7 -20 0
4 12 5 0
-4 -12 0
-4 -5 0
-12 -5 0
3 16 25 0
-3 -16 0
-3 -25 0
-16 -25 0
20 16 1 0
-20 -16 0
-20 -1 0
-16 -1 0
16 4 7 0
-16 -4 0
-16 -7 0
-4 -7 0
25 2 1 0
-25 -2 0
-25 -1 0
-2 -1 0
9 6 25 0
-9 -6 0
-9 -25 0
-6 -25 0
