c family=1-in-3-SAT n=30 instance=1 seed=3881676977 models=1408
c order 9 24 8 30 20 14 27 16 23 10 15 3 29 22 7 4 12 21 11 17 18 2 28 25 6 5 26 19 13 1
c order 2 14 12 1 23 27 28 5 26 18 8 11 30 10 29 16 3 15 7 9 13 20 22 6 17 24 19 4 25 21
c order 15 4 30 28 5 19 9 26 18 20 12 21 11 24 13 6 3 17 16 10 25 14 8 7 2 29 1 22 27 23
c order 7 29 20 23 13 5 24 17 11 27 25 8 21 1 2 26 15 18 9 19 10 30 16 4 6 3 22 12 14 28
c order 24 23 22 12 27 18 8 19 29 4 21 7 30 11 10 26 3 1 25 14 2 20 6 28 13 5 16 15 9 17
c order 24 14 28 2 11 30 5 8 4 6 10 27 23 22 7 26 1 19 3 15 25 16 20 21 18 13 12 17 9 29
c order 13 11 20 4 30 29 19 26 8 15 10 5 24 23 7 16 25 22 3 21 28 6 17 27 18 2 1 14 9 12
c order 17 20 8 1 6 29 26 27 5 24 19 7 12 10 14 16 23 21 22 18 15 4 28 9 13 2 25 11 30 3
c order 8 5 20 6 11 26 19 30 28 17 14 23 13 2 25 21 12 3 9 24 1 7 27 4 15 18 22 29 16 10
c order 4 16 15 23 26 12 11 10 9 7 2 22 25 30 27 1 29 14 5 19 3 21 20 24 17 6 13 8 18 28
p cnf 30 72
24 22 9 0
-24 -22 0
-24 -9 0
-22 -9 0
2 11 4 0
-2 -11 0
-2 -4 0
-11 -4 0
7 6 15 0
-7 -6 0
-7 -15 0
-6 -15 0
15 25 14 0
-15 -25 0
-15 -14 0
-25 -14 0
14 17 26 0
-14 -17 0
-14 -26 0
-17 -26 0
20 28 2 0
-20 -28 0
-20 -2 0
-28 -2 0
11 24 18 0
-11 -24 0
-11 -18 0
-24 -18 0
17 1 24 0
-17 -1 0
-17 -24 0
-1 -24 0
15 19 28 0
-15 -19 0
-15 -28 0
-19 -28 0
23 1 26 0
-23 -1 0
-23 -26 0
-1 -26 0
1 24 25 0
-1 -24 0
-1 -25 0
-24 -25 0
5 15 1 0
-5 -15 0
-5 -1 0
-15 -1 0
25 15 12 0
-25 -15 0
-25 -12 0
-15 -12 0
2 28 20 0
-2 -28 0
-2 -20 0
-28 -20 0
19 28 9 0
-19 -28 0
-19 -9 0
-28 -9 0
21 26 15 0
-21 -26 0
-21 -15 0
-26 -15 0
29 11 16 0
-29 -11 0
-29 -16 0
-11 -16 0
6 10 9 0
-6 -10 0
-6 -9 0
-10 -9 0
