c family=1-in-3-SAT n=30 instance=6 seed=3881676977 models=384
c order 7 23 15 13 11 30 2 5 27 28 21 22 14 25 1 17 4 3 29 20 9 24 16 8 12 18 10 19 26 6
c order 20 17 12 21 10 27 30 8 16 26 18 28 6 2 9 4 7 1 19 29 25 23 22 15 14 5 3 13 24 11
c order 30 12 16 1 11 2 18 25 29 15 24 28 10 19 26 21 6 3 4 20 9 7 23 5 22 14 17 27 8 13
c order 11 27 1 25 9 30 15 5 24 2 23 4 6 7 3 10 13 28 29 18 16 22 21 20 17 19 14 26 8 12
c order 9 7 18 28 1 4 27 13 16 15 29 11 19 21 23 14 6 2 25 22 24 3 8 20 5 26 10 17 12 30
c order 30 22 29 11 14 25 3 24 4 19 10 28 17 26 23 18 2 1 8 13 7 9 5 20 16 21 15 6 27 12
c order 18 29 24 8 3 21 28 15 26 10 22 12 13 2 6 14 27 5 11 20 4 30 16 17 9 25 7 23 1 19
c order 9 20 15 4 26 6 25 17 5 27 21 18 23 30 12 1 19 13 3 16 29 10 28 7 8 2 24 22 14 11
c order 19 16 30 8 24 15 3 28 21 22 10 29 5 12 25 18 11 4 13 26 23 17 20 2 27 6 1 14 7 9
c order 21 11 24 20 12 9 16 27 8 14 28 4 2 3 23 18 29 22 26 1 25 6 19 15 13 5 30 10 17 7
p cnf 30 72
19 25 14 0
-19 -25 0
-19 -14 0
-25 -14 0
24 18 17 0
-24 -18 0
-24 -17 0
-18 -17 0
12 26 28 0
-12 -26 0
-12 -28 0
-26 -28 0
19 22 9 0
-19 -22 0
-19 -9 0
-22 -9 0
5 17 7 0
-5 -17 0
-5 -7 0
-17 -7 0
25 8 22 0
-25 -8 0
-25 -22 0
-8 -22 0
6 28 18 0
-6 -28 0
-6 -18 0
-28 -18 0
21 6 11 0
-21 -6 0
-21 -11 0
-6 -11 0
19 14 7 0
-19 -14 0
-19 -7 0
-14 -7 0
1 29 11 0
-1 -29 0
-1 -11 0
-29 -11 0
6 23 7 0
-6 -23 0
-6 -7 0
-23 -7 0
20 26 28 0
-20 -26 0
-20 -28 0
-26 -28 0
27 23 6 0
-27 -23 0
-27 -6 0
-23 -6 0
30 18 6 0
-30 -18 0
-30 -6 0
-18 -6 0
27 3 15 0
-27 -3 0
-27 -15 0
-3 -15 0
17 30 25 0
-17 -30 0
-17 -25 0
-30 -25 0
3 24 2 0
-3 -24 0
-3 -2 0
-24 -2 0
14 28 19 0
-14 -28 0
-14 -19 0
-28 -19 0
