c family=1-in-3-SAT n=30 instance=4 seed=3881676977 models=96
c order 27 14 25 5 19 29 10 6 17 20 12 30 21 2 23 16 9 3 13 15 11 18 4 7 26 8 24 1 28 22
c order 8 13 22 23 29 30 20 7 18 28 4 14 10 19 11 26 5 12 1 16 21 17 25 3 15 27 24 2 9 6
c order 2 13 15 9 19 3 21 8 6 29 25 20 26 18 22 16 11 5 30 27 4 12 23 7 24 28 17 14 10 1
c order 27 5 16 17 21 26 28 8 15 12 7 20 25 23 30 24 9 1 22 6 18 11 13 2 14 19 29 10 4 3
c order 24 16 10 27 23 19 1 14 13 26 5 11 28 3 2 7 12 20 4 9 30 29 6 17 25 8 18 15 22 21
c order 29 8 7 27 2 28 14 24 10 19 4 16 22 3 6 23 15 21 25 18 12 26 20 11 9 1 30 13 17 5
c order 2 15 4 16 28 17 11 8 26 25 10 6 14 27 19 21 23 24 29 12 7 30 9 3 18 13 22 20 1 5
c order 20 14 11 12 2 29 30 3 27 18 25 22 4 1 17 13 7 26 23 5 19 6 10 15 16 24 8 21 28 9
c order 11 25 29 20 17 24 16 28 3 21 26 8 5 12 22 10 1 9 15 2 6 19 14 18 4 27 23 7 13 30
c order 10 25 14 15 12 19 27 16 17 9 21 18 7 29 2 3 28 5 8 11 22 6 13 30 4 1 26 20 24 23
p cnf 30 72
3 22 1 0
-3 -22 0
-3 -1 0
-22 -1 0
24 16 21 0
-24 -16 0
-24 -21 0
-16 -21 0
20 7 14 0
-20 -7 0
-20 -14 0
-7 -14 0
29 15 28 0
-29 -15 0
-29 -28 0
-15 -28 0
9 23 7 0
-9 -23 0
-9 -7 0
-23 -7 0
26 23 3 0
-26 -23 0
-26 -3 0
-23 -3 0
17 2 22 0
-17 -2 0
-17 -22 0
-2 -22 0
15 12 19 0
-15 -12 0
-15 -19 0
-12 -19 0
17 9 2 0
-17 -9 0
-17 -2 0
-9 -2 0
22 28 7 0
-22 -28 0
-22 -7 0
-28 -7 0
14 6 22 0
-14 -6 0
-14 -22 0
-6 -22 0
28 2 9 0
-28 -2 0
-28 -9 0
-2 -9 0
23 6 25 0
-23 -6 0
-23 -25 0
-6 -25 0
11 13 29 0
-11 -13 0
-11 -29 0
-13 -29 0
13 2 21 0
-13 -2 0
-13 -21 0
-2 -21 0
4 17 24 0
-4 -17 0
-4 -24 0
-17 -24 0
24 13 2 0
-24 -13 0
-24 -2 0
-13 -2 0
2 30 16 0
-2 -30 0
-2 -16 0
-30 -16 0
