c family=1-in-3-SAT n=30 instance=3 seed=3881676977 models=212
c order 22 26 16 7 15 13 24 9 8 20 12 3 28 21 29 2 18 27 19 14 1 23 25 4 10 17 6 5 11 30
c order 3 14 17 22 13 9 7 1 25 6 16 11 18 12 15 20 2 27 29 4 10 8 23 5 19 28 24 21 30 26
c order 26 23 3 21 25 8 11 5 4 10 30 16 2 29 19 24 27 22 15 20 14 18 9 17 13 12 7 6 28 1
c order 22 6 13 25 17 18 11 23 19 26 7 2 3 12 14 4 16 30 27 5 8 1 9 21 20 15 29 24 10 28
c order 16 13 15 4 12 25 9 8 26 6 19 27 7 29 11 18 17 5 22 21 30 1 2 20 14 28 24 23 3 10
c order 11 2 13 24 25 19 22 17 27 16 10 6 15 20 14 5 9 8 28 4 29 21 3 18 7 26 30 23 12 1
c order 8 2 6 21 29 7 11 9 15 27 24 17 1 14 18 26 20 30 10 23 19 16 5 3 12 4 13 28 22 25
c order 18 28 20 3 16 13 4 10 5 9 15 29 19 30 8 25 11 7 17 2 21 12 24 27 22 23 1 26 6 14
c order 30 27 12 24 9 28 26 10 19 2 22 25 16 20 7 13 11 5 29 6 15 21 23 17 1 18 8 3 4 14
c order 28 9 30 25 29 13 7 27 14 17 23 6 22 21 3 15 4 16 2 5 26 20 11 8 18 24 1 19 12 10
p cnf 30 72
12 22 20 0
-12 -22 0
-12 -20 0
-22 -20 0
10 1 3 0
-10 -1 0
-10 -3 0
-1 -3 0
10 18 27 0
-10 -18 0
-10 -27 0
-18 -27 0
4 5 24 0
-4 -5 0
-4 -24 0
-5 -24 0
18 24 9 0
-18 -24 0
-18 -9 0
-24 -9 0
13 5 16 0
-13 -5 0
-13 -16 0
-5 -16 0
15 11 23 0
-15 -11 0
-15 -23 0
-11 -23 0
20 22 29 0
-20 -22 0
-20 -29 0
-22 -29 0
26 23 25 0
-26 -23 0
-26 -25 0
-23 -25 0
12 10 24 0
-12 -10 0
-12 -24 0
-10 -24 0
7 23 17 0
-7 -23 0
-7 -17 0
-23 -17 0
2 22 7 0
-2 -22 0
-2 -7 0
-22 -7 0
1 22 4 0
-1 -22 0
-1 -4 0
-22 -4 0
14 4 17 0
-14 -4 0
-14 -17 0
-4 -17 0
30 21 17 0
-30 -21 0
-30 -17 0
-21 -17 0
10 20 30 0
-10 -20 0
-10 -30 0
-20 -30 0
6 18 27 0
-6 -18 0
-6 -27 0
-18 -27 0
10 28 26 0
-10 -28 0
-10 -26 0
-28 -26 0
