c family=1-in-3-SAT n=30 instance=2 seed=3881676977 models=384
c order 5 14 16 3 22 12 15 21 11 24 4 19 17 18 20 30 27 26 23 6 9 29 8 7 25 2 1 10 13 28
c order 26 29 8 27 4 12 19 7 1 25 11 30 13 2 22 15 23 5 28 9 3 20 16 17 10 21 14 18 6 24
c order 17 3 20 23 19 6 8 21 28 27 13 14 1 11 22 4 7 9 16 2 5 26 10 29 18 25 30 12 15 24
c order 6 9 30 15 10 24 8 1 21 16 5 22 14 7 27 20 3 17 19 23 29 26 4 28 13 18 25 11 2 12
c order 10 17 29 4 12 15 6 18 2 23 5 22 1 9 20 19 26 13 28 27 7 30 14 8 24 3 25 21 16 11
c order 1 26 3 30 17 8 21 7 25 9 20 10 27 29 6 2 24 19 4 28 13 15 18 22 16 23 11 5 14 12
c order 30 22 9 24 12 28 26 25 5 14 18 6 3 4 29 2 16 7 10 19 20 17 23 8 15 13 11 1 21 27
c order 6 28 10 27 24 17 26 14 13 7 19 9 21 2 12 16 1 8 18 22 5 23 11 4 20 29 3 25 30 15
c order 30 16 5 13 27 19 9 23 4 26 12 6 18 10 25 15 1 8 22 7 11 24 14 2 17 20 21 28 3 29
c order 14 11 17 1 26 8 3 13 10 30 23 25 27 7 15 16 12 19 24 9 29 28 2 22 4 18 20 5 21 6
p cnf 30 72
5 25 22 0
-5 -25 0
-5 -22 0
-25 -22 0
25 10 12 0
-25 -10 0
-25 -12 0
-10 -12 0
9 24 30 0
-9 -24 0
-9 -30 0
-24 -30 0
20 4 26 0
-20 -4 0
-20 -26 0
-4 -26 0
17 29 14 0
-17 -29 0
-17 -14 0
-29 -14 0
21 4 8 0
-21 -4 0
-21 -8 0
-4 -8 0
28 27 9 0
-28 -27 0
-28 -9 0
-27 -9 0
4 1 16 0
-4 -1 0
-4 -16 0
-1 -16 0
5 25 21 0
-5 -25 0
-5 -21 0
-25 -21 0
3 21 19 0
-3 -21 0
-3 -19 0
-21 -19 0
4 25 26 0
-4 -25 0
-4 -26 0
-25 -26 0
23 8 28 0
-23 -8 0
-23 -28 0
-8 -28 0
19 9 28 0
-19 -9 0
-19 -28 0
-9 -28 0
20 4 1 0
-20 -4 0
-20 -1 0
-4 -1 0
25 1 21 0
-25 -1 0
-25 -21 0
-1 -21 0
18 27 10 0
-18 -27 0
-18 -10 0
-27 -10 0
9 27 12 0
-9 -27 0
-9 -12 0
-27 -12 0
7 4 6 0
-7 -4 0
-7 -6 0
-4 -6 0
