c family=1-in-3-SAT n=30 instance=5 seed=3881676977 models=128
c order 2 1 30 29 16 7 24 6 23 18 3 11 26 14 4 28 9 25 22 12 15 10 5 19 21 17 27 8 20 13
c order 28 8 12 21 1 30 3 19 6 4 24 17 22 14 5 18 15 10 25 11 16 27 23 13 7 20 26 2 9 29
c order 27 16 4 17 18 20 25 12 1 9 28 6 3 14 30 24 26 11 29 8 22 19 7 2 21 13 10 5 23 15
c order 21 26 5 8 11 10 18 4 19 24 22 14 28 16 13 30 9 1 6 12 3 20 2 27 25 23 7 15 17 29
c order 15 3 26 1 25 28 11 5 2 8 29 18 17 24 20 10 21 6 13 12 4 27 9 7 30 22 19 16 23 14
c order 21 29 9 11 30 15 13 12 22 2 4 26 3 25 19 8 7 20 24 1 23 18 17 14 5 27 10 28 16 6
c order 30 16 24 29 13 14 22 23 5 1 9 19 7 17 21 27 25 3 20 2 6 8 11 12 28 4 26 10 15 18
c order 7 12 25 16 28 29 2 26 8 1 13 10 21 22 19 14 27 24 18 3 11 6 9 20 23 30 4 5 15 17
c order 17 28 21 7 12 11 20 22 5 16 4 29 1 30 19 27 25 3 9 13 14 26 15 18 2 6 24 23 8 10
c order 18 17 23 13 8 25 11 14 6 1 24 7 16 27 28 26 30 15 20 21 29 19 10 12 3 4 9 2 5 22
p cnf 30 72
22 24 19 0
-22 -24 0
-22 -19 0
-24 -19 0
25 23 4 0
-25 -23 0
-25 -4 0
-23 -4 0
24 1 18 0
-24 -1 0
-24 -18 0
-1 -18 0
20 24 16 0
-20 -24 0
-20 -16 0
-24 -16 0
23 25 1 0
-23 -25 0
-23 -1 0
-25 -1 0
22 25 26 0
-22 -25 0
-22 -26 0
-25 -26 0
28 23 4 0
-28 -23 0
-28 -4 0
-23 -4 0
29 3 21 0
-29 -3 0
-29 -21 0
-3 -21 0
25 1 9 0
-25 -1 0
-25 -9 0
-1 -9 0
15 16 25 0
-15 -16 0
-15 -25 0
-16 -25 0
15 6 24 0
-15 -6 0
-15 -24 0
-6 -24 0
8 13 24 0
-8 -13 0
-8 -24 0
-13 -24 0
30 24 23 0
-30 -24 0
-30 -23 0
-24 -23 0
30 24 5 0
-30 -24 0
-30 -5 0
-24 -5 0
30 6 13 0
-30 -6 0
-30 -13 0
-6 -13 0
18 6 12 0
-18 -6 0
-18 -12 0
-6 -12 0
4 1 10 0
-4 -1 0
-4 -10 0
-1 -10 0
20 29 17 0
-20 -29 0
-20 -17 0
-29 -17 0
