c family=1-in-3-SAT n=30 instance=8 seed=3881676977 models=256
c order 4 11 6 3 12 20 18 22 10 1 28 9 26 7 29 5 16 19 15 27 25 30 8 23 24 17 14 2 13 21
c order 9 13 1 26 3 14 17 16 12 30 15 18 28 27 20 11 22 10 25 6 4 21 2 7 8 5 19 29 24 23
c order 19 12 21 16 27 23 30 5 1 29 6 15 7 4 24 28 13 3 22 8 10 20 26 2 9 25 18 14 11 17
c order 6 30 26 8 29 13 10 15 7 27 5 23 17 19 16 1 14 22 28 2 18 9 12 3 4 20 25 24 21 11
c order 6 13 2 3 14 10 7 19 4 21 23 1 5 12 17 26 8 27 15 28 9 18 30 16 11 25 29 20 24 22
c order 20 16 19 10 23 21 17 27 30 6 14 1 15 25 2 13 11 7 22 29 3 8 4 5 28 12 26 18 24 9
c order 29 26 10 4 25 27 30 17 13 24 1 2 14 22 21 6 9 12 15 23 28 18 3 11 19 16 8 20 5 7
c order 17 5 26 8 28 4 10 3 18 1 7 25 23 12 27 19 21 30 15 14 6 22 20 29 24 11 13 16 2 9
c order 16 13 24 23 12 27 4 28 18 15 1 11 9 8 25 17 14 5 19 2 30 22 10 26 6 21 29 20 3 7
c order 20 3 15 30 18 12 9 4 2 6 16 23 24 14 17 29 13 22 21 7 27 25 1 8 5 19 28 11 10 26
p cnf 30 72
19 12 2 0
-19 -12 0
-19 -2 0
-12 -2 0
29 28 7 0
-29 -28 0
-29 -7 0
-28 -7 0
1 15 9 0
-1 -15 0
-1 -9 0
-15 -9 0
20 12 3 0
-20 -12 0
-20 -3 0
-12 -3 0
22 14 16 0
-22 -14 0
-22 -16 0
-14 -16 0
27 25 20 0
-27 -25 0
-27 -20 0
-25 -20 0
17 30 4 0
-17 -30 0
-17 -4 0
-30 -4 0
3 28 17 0
-3 -28 0
-3 -17 0
-28 -17 0
24 29 1 0
-24 -29 0
-24 -1 0
-29 -1 0
1 29 23 0
-1 -29 0
-1 -23 0
-29 -23 0
19 28 12 0
-19 -28 0
-19 -12 0
-28 -12 0
28 12 3 0
-28 -12 0
-28 -3 0
-12 -3 0
9 12 6 0
-9 -12 0
-9 -6 0
-12 -6 0
7 18 30 0
-7 -18 0
-7 -30 0
-18 -30 0
6 13 14 0
-6 -13 0
-6 -14 0
-13 -14 0
27 4 6 0
-27 -4 0
-27 -6 0
-4 -6 0
4 5 14 0
-4 -5 0
-4 -14 0
-5 -14 0
4 29 25 0
-4 -29 0
-4 -25 0
-29 -25 0
