c family=1-in-3-SAT n=30 instance=0 seed=3881676977 models=272
c order 11 28 16 8 4 29 3 9 14 25 17 19 24 2 10 23 7 21 27 15 5 30 6 1 26 22 13 20 12 18
c order 29 1 20 6 12 11 10 27 13 19 2 28 15 9 26 24 17 14 21 18 30 16 7 5 3 22 23 4 8 25
c order 1 15 6 7 29 20 21 13 2 26 14 23 8 19 9 30 5 16 27 22 11 12 17 25 28 24 18 4 3 10
c order 20 10 30 25 18 6 22 15 3 28 19 14 17 16 9 21 7 23 5 13 4 29 8 26 1 27 2 12 11 24
c order 17 4 16 23 5 20 11 8 15 14 26 12 19 7 9 10 30 2 1 18 27 24 28 21 3 13 22 25 6 29
c order 21 1 9 17 13 7 18 23 19 27 2 22 4 16 25 20 24 30 15 3 28 29 26 6 14 12 10 11 5 8
c order 27 17 3 15 25 14 9 5 11 19 28 4 8 10 24 22 26 16 6 7 12 13 20 30 18 21 2 29 1 23
c order 21 30 8 4 12 25 6 17 11 26 1 19 23 3 29 22 14 20 15 5 2 16 27 18 7 9 10 28 24 13
c order 27 24 7 4 16 22 18 30 25 12 5 1 29 26 20 23 14 13 28 21 17 9 6 11 8 2 19 15 10 3
c order 4 5 29 7 25 1 12 24 10 8 14 27 3 19 11 13 28 18 9 2 30 20 15 23 6 16 22 21 17 26
p cnf 30 72
18 17 12 0
-18 -17 0
-18 -12 0
-17 -12 0
18 4 20 0
-18 -4 0
-18 -20 0
-4 -20 0
8 26 12 0
-8 -26 0
-8 -12 0
-26 -12 0
20 12 4 0
-20 -12 0
-20 -4 0
-12 -4 0
8 6 15 0
-8 -6 0
-8 -15 0
-6 -15 0
9 30 20 0
-9 -30 0
-9 -20 0
-30 -20 0
29 3 13 0
-29 -3 0
-29 -13 0
-3 -13 0
3 10 7 0
-3 -10 0
-3 -7 0
-10 -7 0
15 22 27 0
-15 -22 0
-15 -27 0
-22 -27 0
7 18 24 0
-7 -18 0
-7 -24 0
-18 -24 0
6 28 12 0
-6 -28 0
-6 -12 0
-28 -12 0
9 18 10 0
-9 -18 0
-9 -10 0
-18 -10 0
7 12 16 0
-7 -12 0
-7 -16 0
-12 -16 0
26 25 2 0
-26 -25 0
-26 -2 0
-25 -2 0
9 16 1 0
-9 -16 0
-9 -1 0
-16 -1 0
23 2 21 0
-23 -2 0
-23 -21 0
-2 -21 0
18 29 1 0
-18 -29 0
-18 -1 0
-29 -1 0
12 9 27 0
-12 -9 0
-12 -27 0
-9 -27 0
