c family=1-in-3-SAT n=30 instance=9 seed=3881676977 models=136
c order 29 4 9 24 25 12 15 18 20 6 30 16 21 8 26 1 28 23 22 13 3 17 5 7 19 11 10 14 2 27
c order 12 20 24 3 26 1 22 7 11 5 25 30 9 8 10 23 27 28 18 16 17 14 29 13 19 21 2 15 6 4
c order 4 30 10 17 3 11 1 7 27 20 21 12 19 28 29 6 9 25 14 2 16 5 15 26 18 8 13 24 23 22
c order 19 16 27 5 17 18 23 30 7 8 3 14 26 20 22 4 12 1 29 6 13 15 28 2 11 9 21 10 25 24
c order 17 26 9 3 8 13 5 23 14 7 15 18 12 27 20 29 10 16 4 19 30 24 21 2 28 6 1 22 11 25
c order 13 4 24 21 14 3 11 29 18 5 28 6 25 9 16 17 26 15 22 10 19 1 2 23 7 12 30 20 8 27
c order 20 17 23 28 22 10 27 12 15 8 11 19 2 6 3 9 4 16 5 30 29 26 24 1 7 25 13 18 14 21
c order 25 3 14 18 30 10 16 12 11 22 29 1 15 13 5 27 20 8 6 9 17 7 4 24 26 2 19 23 28 21
c order 9 5 24 30 14 6 20 7 10 16 2 4 27 8 3 17 25 18 11 26 15 19 28 12 21 22 1 13 23 29
c order 27 1 11 21 5 4 8 6 14 7 3 28 9 12 18 20 13 23 24 19 17 10 26 29 25 15 22 16 2 30
p cnf 30 72
8 29 5 0
-8 -29 0
-8 -5 0
-29 -5 0
24 13 22 0
-24 -13 0
-24 -22 0
-13 -22 0
22 9 11 0
-22 -9 0
-22 -11 0
-9 -11 0
6 3 14 0
-6 -3 0
-6 -14 0
-3 -14 0
2 15 30 0
-2 -15 0
-2 -30 0
-15 -30 0
12 5 30 0
-12 -5 0
-12 -30 0
-5 -30 0
6 20 21 0
-6 -20 0
-6 -21 0
-20 -21 0
23 9 25 0
-23 -9 0
-23 -25 0
-9 -25 0
2 29 9 0
-2 -29 0
-2 -9 0
-29 -9 0
14 25 24 0
-14 -25 0
-14 -24 0
-25 -24 0
2 16 27 0
-2 -16 0
-2 -27 0
-16 -27 0
8 28 7 0
-8 -28 0
-8 -7 0
-28 -7 0
18 23 1 0
-18 -23 0
-18 -1 0
-23 -1 0
17 2 27 0
-17 -2 0
-17 -27 0
-2 -27 0
14 2 12 0
-14 -2 0
-14 -12 0
-2 -12 0
10 26 8 0
-10 -26 0
-10 -8 0
-26 -8 0
11 8 13 0
-11 -8 0
-11 -13 0
-8 -13 0
26 28 25 0
-26 -28 0
-26 -25 0
-28 -25 0
