c family=1-in-3-SAT n=30 instance=7 seed=3881676977 models=384
c order 21 10 19 6 24 3 5 20 12 9 25 11 23 15 17 30 16 8 13 22 7 14 18 1 4 2 29 26 27 28
c order 27 3 25 22 6 4 17 23 19 7 1 30 28 8 29 15 21 12 26 11 18 2 5 20 16 13 14 9 24 10
c order 10 30 26 5 16 20 22 12 21 27 13 7 25 11 23 3 1 14 9 24 15 18 4 19 17 29 28 6 2 8
c order 13 29 23 19 9 11 8 22 26 20 2 4 6 15 1 7 18 21 30 17 12 24 16 5 14 28 25 3 27 10
c order 13 28 8 23 15 30 18 6 7 12 10 27 19 21 16 29 24 2 11 4 26 1 22 25 9 5 3 17 14 20
c order 5 18 17 26 21 25 10 1 19 15 29 24 13 4 20 14 8 28 11 12 3 27 6 16 7 30 2 9 23 22
c order 6 3 20 16 25 26 13 14 23 11 4 24 7 10 17 12 28 1 2 8 27 18 29 5 22 19 30 15 9 21
c order 8 17 3 9 12 10 21 30 14 29 22 11 25 19 5 26 15 24 4 1 28 7 16 13 20 27 2 23 18 6
c order 28 8 29 19 20 15 24 2 22 14 25 1 4 13 18 3 10 30 7 5 9 17 6 26 27 16 11 12 21 23
c order 6 7 16 17 25 20 12 8 11 4 28 30 29 1 18 13 10 23 15 14 27 19 26 9 22 21 3 5 24 2
p cnf 30 72
12 4 8 0
-12 -4 0
-12 -8 0
-4 -8 0
19 10 22 0
-19 -10 0
-19 -22 0
-10 -22 0
15 21 25 0
-15 -21 0
-15 -25 0
-21 -25 0
10 12 11 0
-10 -12 0
-10 -11 0
-12 -11 0
1 11 27 0
-1 -11 0
-1 -27 0
-11 -27 0
18 25 27 0
-18 -25 0
-18 -27 0
-25 -27 0
23 6 1 0
-23 -6 0
-23 -1 0
-6 -1 0
7 22 14 0
-7 -22 0
-7 -14 0
-22 -14 0
9 25 6 0
-9 -25 0
-9 -6 0
-25 -6 0
22 14 15 0
-22 -14 0
-22 -15 0
-14 -15 0
21 12 25 0
-21 -12 0
-21 -25 0
-12 -25 0
16 24 3 0
-16 -24 0
-16 -3 0
-24 -3 0
16 12 14 0
-16 -12 0
-16 -14 0
-12 -14 0
26 28 8 0
-26 -28 0
-26 -8 0
-28 -8 0
14 8 15 0
-14 -8 0
-14 -15 0
-8 -15 0
23 9 3 0
-23 -9 0
-23 -3 0
-9 -3 0
26 5 15 0
-26 -5 0
-26 -15 0
-5 -15 0
23 30 8 0
-23 -30 0
-23 -8 0
-30 -8 0
