c family=1-in-3-SAT n=35 instance=0 seed=3881676977 models=512
c order 2 11 25 32 27 13 29 8 14 34 18 1 28 10 23 15 19 35 7 33 3 24 20 4 26 31 17 30 6 9 22 16 5 21 12
c order 6 10 13 27 17 3 28 15 20 5 2 29 24 35 11 19 30 14 32 4 26 25 9 16 8 34 33 7 1 12 18 22 31 21 23
c order 30 20 24 19 4 23 25 1 10 15 17 12 5 8 29 13 34 26 27 31 3 22 16 21 9 35 28 11 2 7 14 6 32 18 33
c order 3 25 28 11 26 23 22 13 29 34 27 35 33 8 14 7 1 17 20 10 21 2 30 32 15 18 19 6 31 4 24 12 16 5 9
c order 22 11 29 1 24 34 16 15 33 10 31 12 21 9 19 7 3 2 26 28 14 13 23 27 35 17 32 6 30 4 8 18 20 25 5
c order 11 32 33 29 9 2 14 10 4 13 12 7 19 35 6 26 28 8 21 18 20 30 23 27 1 3 34 25 24 31 17 22 16 5 15
c order 16 19 21 8 10 17 6 25 28 30 33 12 5 2 9 32 20 29 14 7 35 3 26 11 24 22 1 31 34 13 15 27 18 4 23
c order 30 25 13 4 21 15 31 3 22 11 12 27 8 5 34 17 28 10 1 14 16 18 33 9 6 7 23 26 29 20 35 24 19 2 32
c order 12 9 22 10 14 1 5 23 18 4 27 3 8 31 32 17 16 11 30 6 34 35 7 2 21 33 13 29 20 28 19 25 15 26 24
c order 24 26 9 2 20 7 8 3 12 31 15 16 32 5 27 11 19 29 17 6 10 18 21 28 14 23 33 30 4 25 35 13 22 1 34
p cnf 35 84
35 30 4 0
-35 -30 0
-35 -4 0
-30 -4 0
28 22 3 0
-28 -22 0
-28 -3 0
-22 -3 0
9 20 31 0
-9 -20 0
-9 -31 0
-20 -31 0
10 7 18 0
-10 -7 0
-10 -18 0
-7 -18 0
17 32 19 0
-17 -32 0
-17 -19 0
-32 -19 0
1 2 18 0
-1 -2 0
-1 -18 0
-2 -18 0
32 33 23 0
-32 -33 0
-32 -23 0
-33 -23 0
5 28 7 0
-5 -28 0
-5 -7 0
-28 -7 0
4 14 6 0
-4 -14 0
-4 -6 0
-14 -6 0
13 2 28 0
-13 -2 0
-13 -28 0
-2 -28 0
22 16 13 0
-22 -16 0
-22 -13 0
-16 -13 0
26 13 16 0
-26 -13 0
-26 -16 0
-13 -16 0
6 8 5 0
-6 -8 0
-6 -5 0
-8 -5 0
3 21 24 0
-3 -21 0
-3 -24 0
-21 -24 0
12 19 5 0
-12 -19 0
-12 -5 0
-19 -5 0
11 28 30 0
-11 -28 0
-11 -30 0
-28 -30 0
4 5 21 0
-4 -5 0
-4 -21 0
-5 -21 0
14 13 19 0
-14 -13 0
-14 -19 0
-13 -19 0
10 16 8 0
-10 -16 0
-10 -8 0
-16 -8 0
11 20 10 0
-11 -20 0
-11 -10 0
-20 -10 0
31 26 6 0
-31 -26 0
-31 -6 0
-26 -6 0
