c family=1-in-3-SAT n=35 instance=6 seed=3881676977 models=384
c order 21 1 9 13 18 14 29 26 35 28 17 16 24 19 3 33 11 23 4 6 2 34 12 10 25 20 7 8 15 32 5 22 30 31 27
c order 33 35 5 10 23 20 8 26 13 14 19 15 6 9 18 17 2 32 21 24 1 7 31 27 11 25 12 28 4 29 16 34 30 3 22
c order 26 25 23 10 29 8 31 2 33 12 20 30 15 28 5 18 21 6 35 19 22 4 14 16 3 11 1 17 27 32 24 13 34 7 9
c order 17 21 10 2 24 27 12 22 19 29 33 31 6 4 3 32 9 7 15 25 26 18 8 30 35 20 28 16 34 23 5 11 1 14 13
c order 6 12 15 11 34 23 18 4 20 5 24 22 35 1 3 10 16 7 8 17 9 25 28 2 13 30 29 19 32 33 21 14 31 27 26
c order 12 31 4 13 33 1 21 29 3 14 6 34 22 35 26 7 28 20 24 10 2 17 25 11 23 16 19 27 32 18 8 5 15 9 30
c order 19 18 35 1 9 2 13 22 8 32 30 34 27 26 14 23 12 20 33 24 25 4 29 28 5 6 16 11 15 21 3 17 7 10 31
c order 3 6 12 33 7 21 4 25 26 29 5 20 15 8 1 23 34 27 30 28 18 2 10 16 35 24 31 32 14 9 19 22 13 17 11
c order 25 32 22 17 8 31 13 20 6 15 28 21 27 26 11 16 14 9 10 12 33 2 4 35 29 34 30 23 3 7 5 24 19 18 1
c order 8 3 21 28 11 22 33 7 2 27 1 19 5 23 29 14 30 15 26 12 6 35 20 13 16 9 10 17 25 24 18 31 32 34 4
p cnf 35 84
14 7 31 0
-14 -7 0
-14 -31 0
-7 -31 0
15 35 33 0
-15 -35 0
-15 -33 0
-35 -33 0
35 18 6 0
-35 -18 0
-35 -6 0
-18 -6 0
26 12 18 0
-26 -12 0
-26 -18 0
-12 -18 0
17 9 27 0
-17 -9 0
-17 -27 0
-9 -27 0
1 17 28 0
-1 -17 0
-1 -28 0
-17 -28 0
19 12 30 0
-19 -12 0
-19 -30 0
-12 -30 0
29 21 19 0
-29 -21 0
-29 -19 0
-21 -19 0
3 15 8 0
-3 -15 0
-3 -8 0
-15 -8 0
34 9 21 0
-34 -9 0
-34 -21 0
-9 -21 0
24 29 22 0
-24 -29 0
-24 -22 0
-29 -22 0
13 6 16 0
-13 -6 0
-13 -16 0
-6 -16 0
27 34 15 0
-27 -34 0
-27 -15 0
-34 -15 0
34 3 21 0
-34 -3 0
-34 -21 0
-3 -21 0
35 23 30 0
-35 -23 0
-35 -30 0
-23 -30 0
12 22 20 0
-12 -22 0
-12 -20 0
-22 -20 0
13 25 11 0
-13 -25 0
-13 -11 0
-25 -11 0
13 24 11 0
-13 -24 0
-13 -11 0
-24 -11 0
23 33 3 0
-23 -33 0
-23 -3 0
-33 -3 0
6 35 5 0
-6 -35 0
-6 -5 0
-35 -5 0
22 6 19 0
-22 -6 0
-22 -19 0
-6 -19 0
