c family=1-in-3-SAT n=35 instance=2 seed=3881676977 models=768
c order 28 11 21 29 27 32 19 24 33 5 12 17 34 8 4 31 9 22 26 6 18 25 16 1 15 23 13 30 35 7 2 14 3 10 20
c order 3 13 6 1 14 15 22 28 20 4 25 8 5 10 2 27 21 33 19 24 7 35 34 32 30 31 12 17 26 18 29 16 9 23 11
c order 3 13 15 14 12 4 7 27 35 19 21 2 31 17 20 11 30 1 25 23 10 26 8 5 33 22 18 6 24 9 28 34 29 16 32
c order 25 21 19 12 9 23 18 32 22 34 20 4 26 13 33 29 24 15 2 31 1 30 28 35 27 6 11 14 5 17 3 8 10 7 16
c order 25 14 27 9 5 24 4 8 1 16 18 11 33 29 2 13 12 7 15 3 21 32 28 31 6 10 19 34 26 23 35 30 22 20 17
c order 17 28 9 27 26 14 2 30 23 24 8 3 34 10 13 29 15 21 25 35 32 16 33 31 12 1 20 19 18 5 22 4 11 6 7
c order 2 34 20 14 31 16 9 24 12 22 11 15 23 5 26 13 25 4 18 7 29 10 3 8 17 27 6 35 19 21 28 33 32 1 30
c order 34 14 20 31 22 7 6 5 12 9 24 8 19 32 21 35 15 13 16 30 23 2 4 29 11 17 3 25 33 28 26 18 10 1 27
c order 16 4 1 7 34 26 30 31 8 2 22 24 18 11 6 25 28 13 5 21 17 33 14 23 20 27 15 10 9 35 29 19 32 12 3
c order 21 30 2 11 24 3 25 12 32 17 23 18 31 16 6 13 8 27 26 5 7 34 4 10 9 1 22 20 19 29 14 28 35 33 15
p cnf 35 84
31 3 32 0
-31 -3 0
-31 -32 0
-3 -32 0
17 29 18 0
-17 -29 0
-17 -18 0
-29 -18 0
2 17 24 0
-2 -17 0
-2 -24 0
-17 -24 0
17 23 22 0
-17 -23 0
-17 -22 0
-23 -22 0
4 11 34 0
-4 -11 0
-4 -34 0
-11 -34 0
25 23 27 0
-25 -23 0
-25 -27 0
-23 -27 0
3 9 14 0
-3 -9 0
-3 -14 0
-9 -14 0
9 17 6 0
-9 -17 0
-9 -6 0
-17 -6 0
2 9 11 0
-2 -9 0
-2 -11 0
-9 -11 0
21 1 27 0
-21 -1 0
-21 -27 0
-1 -27 0
13 2 1 0
-13 -2 0
-13 -1 0
-2 -1 0
14 27 23 0
-14 -27 0
-14 -23 0
-27 -23 0
5 4 30 0
-5 -4 0
-5 -30 0
-4 -30 0
29 34 6 0
-29 -34 0
-29 -6 0
-34 -6 0
20 26 34 0
-20 -26 0
-20 -34 0
-26 -34 0
2 23 25 0
-2 -23 0
-2 -25 0
-23 -25 0
20 22 26 0
-20 -22 0
-20 -26 0
-22 -26 0
1 34 28 0
-1 -34 0
-1 -28 0
-34 -28 0
17 15 25 0
-17 -15 0
-17 -25 0
-15 -25 0
4 7 25 0
-4 -7 0
-4 -25 0
-7 -25 0
1 4 20 0
-1 -4 0
-1 -20 0
-4 -20 0
