c family=1-in-3-SAT n=35 instance=4 seed=3881676977 models=896
c order 10 26 32 19 27 16 18 17 25 1 6 23 30 5 13 35 15 31 34 28 3 29 8 9 21 12 2 24 14 33 20 4 22 7 11
c order 13 34 18 6 7 21 9 20 1 30 25 17 26 16 4 2 27 19 14 35 8 33 15 23 22 11 24 10 29 28 32 31 12 5 3
c order 15 27 7 14 12 13 35 3 34 11 25 18 2 5 29 20 9 22 32 31 19 16 23 26 21 28 4 1 17 6 33 10 24 30 8
c order 12 9 35 27 24 16 14 13 29 25 20 33 2 10 8 22 28 30 11 21 7 17 6 32 4 5 3 19 23 18 15 1 34 31 26
c order 8 34 24 29 18 20 32 11 30 16 6 12 35 28 10 19 33 1 27 4 22 17 7 25 2 31 14 9 3 21 5 26 23 13 15
c order 16 33 20 23 35 9 25 21 11 10 1 29 22 26 32 3 13 34 14 12 2 17 5 24 30 27 15 19 31 6 4 7 28 18 8
c order 34 13 15 10 5 32 23 9 31 22 7 25 20 2 12 8 33 21 14 18 26 24 35 3 1 16 30 28 6 4 11 17 19 29 27
c order 17 33 9 35 6 3 22 34 25 4 7 23 29 13 5 10 11 16 19 15 24 8 18 31 14 1 32 21 30 27 26 20 28 2 12
c order 23 29 31 24 9 2 18 28 20 7 30 17 11 25 33 32 26 5 16 4 22 34 8 21 6 15 1 3 27 14 13 10 19 35 12
c order 19 21 6 25 11 23 32 10 24 4 8 1 5 14 27 30 35 2 28 29 18 9 22 13 15 26 12 7 16 31 3 17 20 33 34
p cnf 35 84
30 25 15 0
-30 -25 0
-30 -15 0
-25 -15 0
21 28 10 0
-21 -28 0
-21 -10 0
-28 -10 0
25 12 35 0
-25 -12 0
-25 -35 0
-12 -35 0
18 7 35 0
-18 -7 0
-18 -35 0
-7 -35 0
33 17 35 0
-33 -17 0
-33 -35 0
-17 -35 0
30 27 34 0
-30 -27 0
-30 -34 0
-27 -34 0
23 35 1 0
-23 -35 0
-23 -1 0
-35 -1 0
18 2 27 0
-18 -2 0
-18 -27 0
-2 -27 0
33 2 17 0
-33 -2 0
-33 -17 0
-2 -17 0
4 34 8 0
-4 -34 0
-4 -8 0
-34 -8 0
14 34 25 0
-14 -34 0
-14 -25 0
-34 -25 0
4 29 1 0
-4 -29 0
-4 -1 0
-29 -1 0
7 12 20 0
-7 -12 0
-7 -20 0
-12 -20 0
15 5 11 0
-15 -5 0
-15 -11 0
-5 -11 0
7 13 33 0
-7 -13 0
-7 -33 0
-13 -33 0
30 21 17 0
-30 -21 0
-30 -17 0
-21 -17 0
5 20 15 0
-5 -20 0
-5 -15 0
-20 -15 0
1 22 20 0
-1 -22 0
-1 -20 0
-22 -20 0
2 26 14 0
-2 -26 0
-2 -14 0
-26 -14 0
30 4 1 0
-30 -4 0
-30 -1 0
-4 -1 0
8 9 27 0
-8 -9 0
-8 -27 0
-9 -27 0
