c family=1-in-3-SAT n=35 instance=8 seed=3881676977 models=1024
c order 31 2 21 28 18 1 20 27 30 24 35 22 7 8 11 23 16 33 9 26 17 12 25 34 15 19 13 5 10 29 32 3 6 4 14
c order 30 9 3 26 14 28 10 7 16 8 2 33 27 21 13 4 31 29 6 25 19 32 22 11 15 18 24 17 23 5 34 12 20 35 1
c order 23 29 12 11 17 21 19 16 18 26 28 2 6 32 7 27 34 3 20 5 25 22 33 9 13 8 30 14 4 31 24 1 35 15 10
c order 13 17 26 34 22 25 1 28 24 10 5 31 35 20 8 23 29 18 19 27 7 3 14 9 16 6 2 21 30 32 4 12 11 33 15
c order 4 15 23 20 3 29 8 31 19 16 21 28 35 26 5 9 2 1 24 27 12 11 25 17 30 14 7 32 18 10 34 6 22 33 13
c order 8 9 33 13 32 5 20 28 25 15 10 24 7 34 23 6 30 35 18 31 3 27 12 1 2 21 16 19 4 29 22 11 26 14 17
c order 7 35 19 23 25 15 17 24 18 31 9 3 21 10 22 13 20 4 34 14 2 1 28 16 11 32 26 29 5 12 6 30 27 33 8
c order 2 34 27 15 5 4 13 14 16 35 17 9 21 3 30 7 24 33 18 10 25 29 31 32 22 6 19 20 8 26 12 11 1 28 23
c order 26 21 17 5 18 20 25 29 14 15 12 19 24 13 16 23 6 33 22 7 32 31 34 35 27 2 3 4 28 10 30 9 1 11 8
c order 33 27 11 4 22 20 6 17 12 3 26 7 23 29 21 2 19 30 32 31 28 1 25 14 24 13 8 9 34 15 10 5 18 16 35
p cnf 35 84
5 26 18 0
-5 -26 0
-5 -18 0
-26 -18 0
4 6 14 0
-4 -6 0
-4 -14 0
-6 -14 0
33 4 31 0
-33 -4 0
-33 -31 0
-4 -31 0
23 11 15 0
-23 -11 0
-23 -15 0
-11 -15 0
23 25 6 0
-23 -25 0
-23 -6 0
-25 -6 0
6 4 8 0
-6 -4 0
-6 -8 0
-4 -8 0
27 23 13 0
-27 -23 0
-27 -13 0
-23 -13 0
34 27 11 0
-34 -27 0
-34 -11 0
-27 -11 0
2 12 31 0
-2 -12 0
-2 -31 0
-12 -31 0
21 7 16 0
-21 -7 0
-21 -16 0
-7 -16 0
34 31 2 0
-34 -31 0
-34 -2 0
-31 -2 0
24 4 23 0
-24 -4 0
-24 -23 0
-4 -23 0
8 6 29 0
-8 -6 0
-8 -29 0
-6 -29 0
4 20 18 0
-4 -20 0
-4 -18 0
-20 -18 0
32 12 18 0
-32 -12 0
-32 -18 0
-12 -18 0
7 8 3 0
-7 -8 0
-7 -3 0
-8 -3 0
2 26 33 0
-2 -26 0
-2 -33 0
-26 -33 0
18 14 15 0
-18 -14 0
-18 -15 0
-14 -15 0
15 25 8 0
-15 -25 0
-15 -8 0
-25 -8 0
28 14 31 0
-28 -14 0
-28 -31 0
-14 -31 0
27 16 7 0
-27 -16 0
-27 -7 0
-16 -7 0
