c family=1-in-3-SAT n=35 instance=1 seed=3881676977 models=544
c order 5 34 35 8 10 22 9 16 29 14 17 1 33 3 4 23 30 12 18 32 7 28 26 20 15 2 21 31 6 19 25 27 11 13 24
c order 11 14 29 24 5 7 20 25 18 19 23 34 33 21 30 26 6 3 10 32 15 2 17 27 8 13 28 16 22 31 9 1 4 12 35
c order 16 5 29 35 32 4 17 15 7 9 3 10 28 2 27 18 30 24 22 34 11 31 1 14 23 25 26 21 13 33 12 6 19 8 20
c order 25 9 34 12 31 13 4 14 22 28 6 11 35 3 19 21 16 7 30 20 10 8 29 2 18 23 24 33 27 26 1 17 15 5 32
c order 17 20 2 13 14 6 32 29 24 25 3 12 1 4 22 16 7 31 8 34 21 26 9 18 5 11 23 33 27 28 30 15 10 35 19
c order 13 4 34 30 35 27 17 3 14 21 24 8 20 23 9 10 31 2 33 32 19 28 29 15 26 5 22 7 12 6 11 25 1 16 18
c order 4 17 5 33 15 14 18 30 11 32 16 23 12 34 3 29 13 27 1 24 25 10 22 20 28 9 8 2 26 35 31 19 21 7 6
c order 4 14 20 11 5 22 7 18 26 21 13 17 2 9 6 12 29 10 31 1 19 15 35 8 16 23 34 30 3 28 27 32 33 24 25
c order 30 32 2 12 33 13 14 31 19 34 20 17 7 4 3 28 24 35 8 6 15 5 1 25 22 29 27 26 23 9 11 18 21 10 16
c order 22 27 4 11 14 12 24 1 16 18 30 33 32 5 2 28 23 8 15 21 13 6 35 10 19 3 29 25 20 31 9 7 17 26 34
p cnf 35 84
8 22 24 0
-8 -22 0
-8 -24 0
-22 -24 0
31 2 30 0
-31 -2 0
-31 -30 0
-2 -30 0
30 17 4 0
-30 -17 0
-30 -4 0
-17 -4 0
9 29 32 0
-9 -29 0
-9 -32 0
-29 -32 0
22 19 15 0
-22 -19 0
-22 -15 0
-19 -15 0
29 27 11 0
-29 -27 0
-29 -11 0
-27 -11 0
8 18 2 0
-8 -18 0
-8 -2 0
-18 -2 0
19 1 10 0
-19 -1 0
-19 -10 0
-1 -10 0
15 34 19 0
-15 -34 0
-15 -19 0
-34 -19 0
26 13 17 0
-26 -13 0
-26 -17 0
-13 -17 0
21 35 32 0
-21 -35 0
-21 -32 0
-35 -32 0
2 32 11 0
-2 -32 0
-2 -11 0
-32 -11 0
32 15 4 0
-32 -15 0
-32 -4 0
-15 -4 0
28 29 14 0
-28 -29 0
-28 -14 0
-29 -14 0
14 11 29 0
-14 -11 0
-14 -29 0
-11 -29 0
18 30 20 0
-18 -30 0
-18 -20 0
-30 -20 0
6 8 11 0
-6 -8 0
-6 -11 0
-8 -11 0
25 10 6 0
-25 -10 0
-25 -6 0
-10 -6 0
9 19 8 0
-9 -19 0
-9 -8 0
-19 -8 0
2 16 24 0
-2 -16 0
-2 -24 0
-16 -24 0
5 34 8 0
-5 -34 0
-5 -8 0
-34 -8 0
