c family=1-in-3-SAT n=35 instance=7 seed=3881676977 models=768
c order 15 18 14 27 16 19 35 11 24 2 34 31 29 8 32 13 17 33 21 9 26 4 5 23 25 22 30 20 7 6 10 12 28 1 3
c order 2 6 9 29 33 14 16 27 19 20 23 3 10 18 30 24 15 34 11 12 21 1 22 7 25 13 26 4 32 28 5 35 17 31 8
c order 27 17 23 25 26 20 3 30 11 1 35 7 6 14 10 4 8 33 19 12 15 32 18 28 24 34 2 9 16 13 5 29 31 21 22
c order 34 16 9 30 32 31 21 11 13 12 33 20 19 7 35 6 25 5 17 28 26 24 23 8 18 4 29 27 22 2 3 14 1 15 10
c order 7 32 6 16 9 21 13 8 12 10 20 22 29 17 4 34 11 30 31 1 3 14 15 5 33 24 23 26 19 27 2 25 18 35 28
c order 22 1 15 34 5 33 7 25 32 3 11 23 12 10 9 24 17 31 13 20 27 14 19 21 35 4 29 30 6 18 8 26 2 28 16
c order 21 12 5 26 35 16 18 6 34 23 30 29 32 1 19 8 17 3 11 4 33 15 7 22 10 28 14 13 20 27 9 25 31 24 2
c order 4 14 18 3 25 11 33 32 13 16 22 34 10 26 27 5 30 31 28 19 21 7 17 6 8 15 24 20 9 2 12 35 29 1 23
c order 8 31 22 3 17 26 20 1 24 4 23 2 25 16 6 18 10 35 15 30 13 11 21 32 28 19 12 29 33 5 14 9 27 7 34
c order 27 17 5 34 18 9 29 6 33 24 20 7 31 11 35 16 1 21 30 4 26 13 2 15 12 32 22 3 28 19 25 23 14 10 8
p cnf 35 84
22 16 12 0
-22 -16 0
-22 -12 0
-16 -12 0
18 27 31 0
-18 -27 0
-18 -31 0
-27 -31 0
35 20 1 0
-35 -20 0
-35 -1 0
-20 -1 0
29 35 19 0
-29 -35 0
-29 -19 0
-35 -19 0
6 2 14 0
-6 -2 0
-6 -14 0
-2 -14 0
10 23 28 0
-10 -23 0
-10 -28 0
-23 -28 0
7 14 16 0
-7 -14 0
-7 -16 0
-14 -16 0
12 4 3 0
-12 -4 0
-12 -3 0
-4 -3 0
16 34 1 0
-16 -34 0
-16 -1 0
-34 -1 0
18 1 4 0
-18 -1 0
-18 -4 0
-1 -4 0
9 12 23 0
-9 -12 0
-9 -23 0
-12 -23 0
29 30 27 0
-29 -30 0
-29 -27 0
-30 -27 0
9 15 10 0
-9 -15 0
-9 -10 0
-15 -10 0
31 15 23 0
-31 -15 0
-31 -23 0
-15 -23 0
1 29 9 0
-1 -29 0
-1 -9 0
-29 -9 0
27 11 22 0
-27 -11 0
-27 -22 0
-11 -22 0
7 23 31 0
-7 -23 0
-7 -31 0
-23 -31 0
7 25 2 0
-7 -25 0
-7 -2 0
-25 -2 0
33 15 23 0
-33 -15 0
-33 -23 0
-15 -23 0
6 30 11 0
-6 -30 0
-6 -11 0
-30 -11 0
31 11 7 0
-31 -11 0
-31 -7 0
-11 -7 0
