c family=1-in-3-SAT n=35 instance=5 seed=3881676977 models=256
c order 12 6 4 14 16 2 7 25 24 29 32 21 17 18 19 11 1 31 26 3 5 30 27 20 9 10 22 13 8 35 34 15 28 33 23
c order 1 18 22 4 30 20 29 25 21 7 12 13 32 17 24 6 14 27 16 8 15 33 5 34 23 19 26 10 35 11 31 2 28 9 3
c order 26 5 8 10 2 30 12 23 9 33 19 11 1 16 27 22 3 6 14 31 35 18 32 15 21 17 13 20 25 4 24 29 7 34 28
c order 2 13 23 1 33 32 31 28 22 21 4 20 8 17 15 34 14 24 30 11 6 12 3 18 27 7 35 16 25 29 26 5 9 19 10
c order 6 5 33 19 18 24 15 1 12 11 4 22 3 30 9 35 23 17 25 2 34 10 21 26 28 14 13 27 31 32 29 7 8 16 20
c order 22 31 8 13 3 23 18 11 10 21 17 2 6 27 32 16 5 20 35 28 15 24 12 7 4 34 1 26 30 19 29 9 25 14 33
c order 19 23 13 30 4 9 6 33 16 8 31 5 11 15 17 1 20 35 12 28 27 10 32 24 18 3 22 14 21 26 2 25 7 34 29
c order 21 35 11 1 26 30 25 32 18 19 34 31 17 14 28 33 13 16 23 22 12 9 15 20 24 2 27 7 4 5 8 10 29 6 3
c order 17 8 6 14 35 5 2 31 34 29 12 32 26 30 25 22 10 33 11 4 9 1 28 3 20 24 19 27 7 16 18 23 21 13 15
c order 17 20 18 25 22 8 31 19 4 24 35 23 16 34 21 32 5 6 1 28 33 14 30 29 26 27 9 7 13 2 12 3 15 11 10
p cnf 35 84
5 35 32 0
-5 -35 0
-5 -32 0
-35 -32 0
24 19 5 0
-24 -19 0
-24 -5 0
-19 -5 0
8 20 5 0
-8 -20 0
-8 -5 0
-20 -5 0
14 21 16 0
-14 -21 0
-14 -16 0
-21 -16 0
3 18 24 0
-3 -18 0
-3 -24 0
-18 -24 0
8 9 18 0
-8 -9 0
-8 -18 0
-9 -18 0
25 10 18 0
-25 -10 0
-25 -18 0
-10 -18 0
26 29 30 0
-26 -29 0
-26 -30 0
-29 -30 0
33 29 20 0
-33 -29 0
-33 -20 0
-29 -20 0
4 6 32 0
-4 -6 0
-4 -32 0
-6 -32 0
11 25 34 0
-11 -25 0
-11 -34 0
-25 -34 0
28 35 11 0
-28 -35 0
-28 -11 0
-35 -11 0
16 17 25 0
-16 -17 0
-16 -25 0
-17 -25 0
10 27 35 0
-10 -27 0
-10 -35 0
-27 -35 0
28 14 32 0
-28 -14 0
-28 -32 0
-14 -32 0
26 18 24 0
-26 -18 0
-26 -24 0
-18 -24 0
6 13 17 0
-6 -13 0
-6 -17 0
-13 -17 0
21 5 4 0
-21 -5 0
-21 -4 0
-5 -4 0
33 25 24 0
-33 -25 0
-33 -24 0
-25 -24 0
31 21 9 0
-31 -21 0
-31 -9 0
-21 -9 0
15 9 23 0
-15 -9 0
-15 -23 0
-9 -23 0
