c family=1-in-3-SAT n=35 instance=9 seed=3881676977 models=768
c order 34 27 11 15 24 26 13 4 9 8 10 22 1 5 19 3 7 30 20 35 16 23 17 18 6 14 21 29 32 12 33 25 2 28 31
c order 19 23 6 26 8 17 15 34 12 10 24 30 29 11 13 3 7 35 9 16 1 25 2 4 18 31 33 21 5 14 20 27 32 22 28
c order 25 21 22 29 27 13 4 33 5 28 2 15 31 34 17 11 26 18 14 24 23 32 35 19 9 7 20 6 10 3 12 30 16 1 8
c order 1 21 6 35 30 14 11 33 3 32 12 18 10 9 4 28 34 23 15 31 20 7 13 16 25 17 5 8 22 27 19 26 2 29 24
c order 10 19 32 12 26 13 24 16 18 3 27 23 14 5 2 35 7 29 25 33 17 8 9 6 34 4 21 31 28 15 11 20 30 1 22
c order 24 26 35 33 12 28 34 1 16 30 3 8 17 9 23 6 22 27 4 13 31 10 32 29 11 18 15 25 2 19 20 7 14 5 21
c order 11 1 34 26 12 4 32 29 8 23 25 27 10 18 19 20 31 28 2 33 17 6 16 22 5 30 21 7 35 15 14 9 13 24 3
c order 12 10 25 34 33 15 26 5 31 18 27 29 16 30 2 32 24 28 19 23 14 6 21 9 35 7 20 4 8 17 3 11 22 13 1
c order 27 23 9 19 2 33 20 34 4 14 31 11 28 3 16 10 32 12 24 8 6 13 29 7 15 35 1 22 5 30 17 25 26 21 18
c order 21 33 1 23 31 17 16 14 10 12 25 32 30 15 9 26 20 6 27 8 2 11 22 19 4 7 34 28 29 35 3 18 5 24 13
p cnf 35 84
2 1 27 0
-2 -1 0
-2 -27 0
-1 -27 0
8 24 1 0
-8 -24 0
-8 -1 0
-24 -1 0
32 28 15 0
-32 -28 0
-32 -15 0
-28 -15 0
11 16 19 0
-11 -16 0
-11 -19 0
-16 -19 0
3 27 24 0
-3 -27 0
-3 -24 0
-27 -24 0
8 9 5 0
-8 -9 0
-8 -5 0
-9 -5 0
18 9 21 0
-18 -9 0
-18 -21 0
-9 -21 0
5 9 30 0
-5 -9 0
-5 -30 0
-9 -30 0
16 4 28 0
-16 -4 0
-16 -28 0
-4 -28 0
27 33 21 0
-27 -33 0
-27 -21 0
-33 -21 0
11 13 12 0
-11 -13 0
-11 -12 0
-13 -12 0
24 9 28 0
-24 -9 0
-24 -28 0
-9 -28 0
25 27 24 0
-25 -27 0
-25 -24 0
-27 -24 0
32 15 14 0
-32 -15 0
-32 -14 0
-15 -14 0
9 15 25 0
-9 -15 0
-9 -25 0
-15 -25 0
27 21 26 0
-27 -21 0
-27 -26 0
-21 -26 0
29 33 13 0
-29 -33 0
-29 -13 0
-33 -13 0
18 21 33 0
-18 -21 0
-18 -33 0
-21 -33 0
29 22 32 0
-29 -22 0
-29 -32 0
-22 -32 0
23 16 21 0
-23 -16 0
-23 -21 0
-16 -21 0
4 10 24 0
-4 -10 0
-4 -24 0
-10 -24 0
