c family=1-in-3-SAT n=35 instance=3 seed=3881676977 models=448
c order 3 8 31 24 27 35 2 33 18 10 9 30 22 5 12 11 14 4 28 21 15 19 1 20 6 26 7 17 25 16 23 13 32 29 34
c order 25 7 27 23 18 32 17 13 26 15 34 22 19 33 12 10 1 9 28 30 24 21 2 8 16 20 29 14 5 6 35 11 4 31 3
c order 5 29 24 28 6 33 7 30 32 35 9 26 3 27 15 17 14 16 31 1 22 19 20 4 13 11 10 18 34 23 12 8 2 21 25
c order 13 6 27 15 30 3 9 26 33 12 7 8 5 17 10 2 1 18 25 14 32 11 23 19 28 29 4 31 24 16 34 35 21 20 22
c order 30 12 25 1 16 2 13 15 18 9 35 33 11 23 20 26 8 10 21 28 7 14 3 6 29 24 17 4 27 34 5 22 31 19 32
c order 24 33 1 2 11 13 8 21 14 18 17 23 31 12 4 26 25 29 3 5 9 10 34 20 6 16 27 7 22 35 32 28 30 15 19
c order 2 1 8 10 32 19 14 5 6 25 11 9 27 17 24 23 35 21 22 13 7 34 20 3 16 18 30 15 33 12 29 4 26 28 31
c order 6 27 35 15 30 16 34 7 14 25 33 12 28 11 2 26 24 4 8 29 5 1 21 22 18 20 10 23 31 17 9 19 13 3 32
c order 31 6 4 26 16 2 29 30 5 24 18 25 12 35 22 15 10 27 13 14 34 3 23 11 1 19 28 7 17 32 8 21 20 9 33
c order 12 16 1 18 31 7 28 27 6 11 30 2 17 20 24 21 26 8 22 15 9 35 34 25 5 14 13 19 23 10 4 32 33 3 29
p cnf 35 84
33 11 18 0
-33 -11 0
-33 -18 0
-11 -18 0
21 6 9 0
-21 -6 0
-21 -9 0
-6 -9 0
30 34 20 0
-30 -34 0
-30 -20 0
-34 -20 0
7 30 13 0
-7 -30 0
-7 -13 0
-30 -13 0
29 25 30 0
-29 -25 0
-29 -30 0
-25 -30 0
29 11 25 0
-29 -11 0
-29 -25 0
-11 -25 0
24 29 8 0
-24 -29 0
-24 -8 0
-29 -8 0
21 32 34 0
-21 -32 0
-21 -34 0
-32 -34 0
29 4 10 0
-29 -4 0
-29 -10 0
-4 -10 0
2 4 12 0
-2 -4 0
-2 -12 0
-4 -12 0
25 11 5 0
-25 -11 0
-25 -5 0
-11 -5 0
27 10 24 0
-27 -10 0
-27 -24 0
-10 -24 0
4 3 14 0
-4 -3 0
-4 -14 0
-3 -14 0
25 23 26 0
-25 -23 0
-25 -26 0
-23 -26 0
3 11 31 0
-3 -11 0
-3 -31 0
-11 -31 0
33 23 7 0
-33 -23 0
-33 -7 0
-23 -7 0
30 35 20 0
-30 -35 0
-30 -20 0
-35 -20 0
19 27 7 0
-19 -27 0
-19 -7 0
-27 -7 0
8 14 29 0
-8 -14 0
-8 -29 0
-14 -29 0
10 15 8 0
-10 -15 0
-10 -8 0
-15 -8 0
22 24 32 0
-22 -24 0
-22 -32 0
-24 -32 0
