c family=1-in-3-SAT n=40 instance=2 seed=3881676977 models=1128
c order 15 3 25 13 32 34 18 23 28 10 19 29 27 30 33 37 36 16 12 21 1 6 11 8 17 5 20 38 22 39 14 26 7 2 9 35 40 4 31 24
c order 23 27 31 22 29 33 18 7 15 4 12 20 24 34 9 17 36 8 40 32 21 19 6 13 10 1 30 11 14 25 16 2 3 35 28 38 26 37 5 39
c order 26 8 35 39 18 23 37 3 16 12 30 6 32 11 7 33 25 17 1 40 19 24 38 15 9 13 28 14 21 36 34 5 4 22 27 31 2 29 20 10
c order 26 14 19 23 31 30 1 2 21 29 36 25 11 8 40 35 3 10 22 28 17 16 6 15 37 18 39 24 38 20 7 9 33 27 4 13 5 32 12 34
c order 33 14 18 1 2 40 12 13 9 3 7 6 23 17 15 21 4 32 35 19 16 5 28 31 38 22 36 27 24 34 26 39 37 30 8 10 20 29 11 25
c order 17 35 10 13 19 12 4 37 3 6 27 33 22 40 29 38 15 1 30 2 11 8 26 39 23 25 14 34 18 16 21 32 5 36 28 20 7 31 24 9
c order 15 32 9 16 3 39 18 33 11 6 21 25 4 13 24 12 35 14 10 34 28 7 23 22 17 31 29 1 2 36 37 26 30 27 20 5 38 19 8 40
c order 38 18 26 13 33 40 34 20 24 29 35 31 32 8 36 19 12 11 2 39 15 7 5 10 16 27 4 30 28 21 23 22 6 9 1 37 14 17 3 25
c order 10 25 8 16 40 21 2 13 38 4 37 34 29 7 6 12 23 32 39 22 1 36 19 20 27 15 26 24 14 33 31 3 28 11 35 9 30 17 5 18
c order 12 15 33 3 28 10 29 26 6 9 16 1 27 4 5 8 25 22 18 14 23 21 19 11 36 38 40 13 32 24 17 35 31 7 30 37 34 39 2 20
p cnf 40 96
2 37 5 0
-2 -37 0
-2 -5 0
-37 -5 0
40 34 18 0
-40 -34 0
-40 -18 0
-34 -18 0
16 40 14 0
-16 -40 0
-16 -14 0
-40 -14 0
37 2 34 0
-37 -2 0
-37 -34 0
-2 -34 0
26 15 4 0
-26 -15 0
-26 -4 0
-15 -4 0
33 28 15 0
-33 -28 0
-33 -15 0
-28 -15 0
19 25 7 0
-19 -25 0
-19 -7 0
-25 -7 0
21 2 4 0
-21 -2 0
-21 -4 0
-2 -4 0
18 16 22 0
-18 -16 0
-18 -22 0
-16 -22 0
30 7 36 0
-30 -7 0
-30 -36 0
-7 -36 0
38 24 11 0
-38 -24 0
-38 -11 0
-24 -11 0
28 11 32 0
-28 -11 0
-28 -32 0
-11 -32 0
18 22 25 0
-18 -22 0
-18 -25 0
-22 -25 0
6 35 17 0
-6 -35 0
-6 -17 0
-35 -17 0
10 19 2 0
-10 -19 0
-10 -2 0
-19 -2 0
39 32 25 0
-39 -32 0
-39 -25 0
-32 -25 0
36 17 30 0
-36 -17 0
-36 -30 0
-17 -30 0
23 11 35 0
-23 -11 0
-23 -35 0
-11 -35 0
3 2 17 0
-3 -2 0
-3 -17 0
-2 -17 0
17 20 16 0
-17 -20 0
-17 -16 0
-20 -16 0
13 8 23 0
-13 -8 0
-13 -23 0
-8 -23 0
3 30 13 0
-3 -30 0
-3 -13 0
-30 -13 0
14 16 27 0
-14 -16 0
-14 -27 0
-16 -27 0
34 12 31 0
-34 -12 0
-34 -31 0
-12 -31 0
