c family=1-in-3-SAT n=40 instance=5 seed=3881676977 models=2560
c order 4 16 29 24 25 1 30 7 20 11 27 38 10 19 14 36 31 22 37 40 28 12 13 15 35 2 3 23 6 21 8 33 26 34 32 17 39 18 9 5
c order 28 3 36 23 31 21 29 39 32 7 2 1 26 19 6 11 9 25 15 35 38 18 30 13 22 34 20 37 10 24 17 12 8 33 5 4 16 14 27 40
c order 27 37 2 25 1 10 34 19 24 36 3 31 29 11 18 14 15 17 12 40 30 21 32 39 35 4 16 8 7 33 9 28 22 26 13 20 38 23 6 5
c order 35 38 7 32 14 15 13 8 11 19 30 34 9 16 12 40 20 29 3 4 24 27 5 1 28 6 2 21 36 26 17 23 18 31 39 10 37 25 22 33
c order 15 13 37 32 16 38 4 9 14 33 27 2 22 31 6 40 28 34 21 8 26 11 12 24 36 20 1 17 3 39 23 29 5 7 18 35 10 25 30 19
c order 38 22 35 17 19 28 39 10 3 13 29 15 14 1 40 11 25 30 32 7 26 33 21 20 16 12 5 34 37 27 18 8 6 9 2 4 23 24 31 36
c order 8 28 35 21 31 7 24 14 2 11 18 20 40 27 12 30 29 4 10 39 19 6 5 23 36 25 26 9 32 3 13 15 37 22 38 16 17 1 34 33
c order 30 37 23 38 16 4 22 20 40 2 1 5 11 18 34 27 29 12 8 32 26 17 33 25 39 21 24 35 6 3 10 28 19 15 14 13 7 31 9 36
c order 6 30 23 5 2 37 21 18 15 1 25 34 35 40 17 11 13 32 14 20 29 33 26 36 27 7 12 28 38 8 24 4 31 19 39 9 10 3 22 16
c order 28 6 37 12 25 33 22 30 9 14 35 27 11 18 17 10 32 20 40 8 15 13 39 34 31 16 26 23 29 1 7 4 3 38 36 5 21 19 2 24
p cnf 40 96
22 27 8 0
-22 -27 0
-22 -8 0
-27 -8 0
28 27 33 0
-28 -27 0
-28 -33 0
-27 -33 0
15 25 20 0
-15 -25 0
-15 -20 0
-25 -20 0
39 1 40 0
-39 -1 0
-39 -40 0
-1 -40 0
35 20 14 0
-35 -20 0
-35 -14 0
-20 -14 0
10 35 27 0
-10 -35 0
-10 -27 0
-35 -27 0
15 29 38 0
-15 -29 0
-15 -38 0
-29 -38 0
31 35 6 0
-31 -35 0
-31 -6 0
-35 -6 0
15 25 24 0
-15 -25 0
-15 -24 0
-25 -24 0
5 17 23 0
-5 -17 0
-5 -23 0
-17 -23 0
31 9 1 0
-31 -9 0
-31 -1 0
-9 -1 0
21 30 27 0
-21 -30 0
-21 -27 0
-30 -27 0
21 27 17 0
-21 -27 0
-21 -17 0
-27 -17 0
11 9 36 0
-11 -9 0
-11 -36 0
-9 -36 0
1 10 38 0
-1 -10 0
-1 -38 0
-10 -38 0
36 33 10 0
-36 -33 0
-36 -10 0
-33 -10 0
26 3 33 0
-26 -3 0
-26 -33 0
-3 -33 0
2 38 10 0
-2 -38 0
-2 -10 0
-38 -10 0
15 4 7 0
-15 -4 0
-15 -7 0
-4 -7 0
27 31 21 0
-27 -31 0
-27 -21 0
-31 -21 0
1 10 8 0
-1 -10 0
-1 -8 0
-10 -8 0
23 24 8 0
-23 -24 0
-23 -8 0
-24 -8 0
22 37 27 0
-22 -37 0
-22 -27 0
-37 -27 0
32 25 13 0
-32 -25 0
-32 -13 0
-25 -13 0
