c family=1-in-3-SAT n=40 instance=9 seed=3881676977 models=1104
c order 25 29 20 9 10 8 22 16 39 27 13 36 1 24 35 12 6 28 15 26 2 31 33 37 30 17 19 18 14 32 4 40 38 7 23 34 5 3 11 21
c order 23 8 11 27 9 29 24 6 1 16 25 7 33 31 10 28 18 13 22 37 5 38 4 3 35 12 30 20 26 21 34 2 36 15 39 14 32 40 19 17
c order 4 10 25 1 2 9 19 23 16 7 13 3 28 12 26 15 36 18 21 30 5 35 31 14 40 17 29 32 37 27 33 39 20 38 24 22 11 8 6 34
c order 1 39 22 21 4 34 6 28 11 30 17 35 27 10 32 33 8 15 40 14 36 20 19 18 12 25 26 2 3 29 24 23 9 31 16 13 7 37 5 38
c order 17 35 33 8 9 26 6 7 20 30 4 32 29 39 3 28 16 38 5 1 18 22 13 14 19 27 2 12 21 10 40 11 31 36 34 24 37 15 23 25
c order 15 27 38 14 11 8 3 33 19 26 35 23 12 7 10 29 39 30 28 37 25 31 21 13 36 1 9 16 5 24 4 18 22 20 40 34 6 17 2 32
c order 27 28 12 23 33 4 8 30 20 26 7 24 36 11 3 10 15 17 13 32 19 38 40 22 31 34 25 37 39 5 9 6 1 35 21 29 14 16 18 2
c order 18 30 3 22 40 20 14 6 19 31 23 4 17 25 5 36 39 21 38 2 15 7 13 16 34 27 24 32 26 10 28 35 33 1 8 11 29 9 12 37
c order 18 4 25 35 32 8 14 24 28 39 26 16 7 10 37 9 17 30 29 31 3 20 33 22 2 6 21 27 15 40 19 34 5 11 1 38 13 36 23 12
c order 26 24 6 2 11 29 23 15 38 39 35 20 40 25 21 22 19 33 14 18 4 28 36 10 3 37 9 31 13 34 5 1 27 16 7 30 12 32 8 17
p cnf 40 96
26 39 32 0
-26 -39 0
-26 -32 0
-39 -32 0
5 40 16 0
-5 -40 0
-5 -16 0
-40 -16 0
10 18 19 0
-10 -18 0
-10 -19 0
-18 -19 0
2 9 35 0
-2 -9 0
-2 -35 0
-9 -35 0
7 22 12 0
-7 -22 0
-7 -12 0
-22 -12 0
6 23 5 0
-6 -23 0
-6 -5 0
-23 -5 0
40 33 15 0
-40 -33 0
-40 -15 0
-33 -15 0
24 14 20 0
-24 -14 0
-24 -20 0
-14 -20 0
24 23 20 0
-24 -23 0
-24 -20 0
-23 -20 0
35 34 21 0
-35 -34 0
-35 -21 0
-34 -21 0
36 34 5 0
-36 -34 0
-36 -5 0
-34 -5 0
29 20 19 0
-29 -20 0
-29 -19 0
-20 -19 0
21 12 24 0
-21 -12 0
-21 -24 0
-12 -24 0
32 22 30 0
-32 -22 0
-32 -30 0
-22 -30 0
25 1 2 0
-25 -1 0
-25 -2 0
-1 -2 0
3 13 10 0
-3 -13 0
-3 -10 0
-13 -10 0
25 2 40 0
-25 -2 0
-25 -40 0
-2 -40 0
6 27 1 0
-6 -27 0
-6 -1 0
-27 -1 0
32 11 33 0
-32 -11 0
-32 -33 0
-11 -33 0
22 5 15 0
-22 -5 0
-22 -15 0
-5 -15 0
22 34 9 0
-22 -34 0
-22 -9 0
-34 -9 0
17 13 40 0
-17 -13 0
-17 -40 0
-13 -40 0
4 15 36 0
-4 -15 0
-4 -36 0
-15 -36 0
9 13 37 0
-9 -13 0
-9 -37 0
-13 -37 0
