c family=1-in-3-SAT n=40 instance=3 seed=3881676977 models=128
c order 10 7 37 6 32 27 11 34 20 14 18 1 36 9 21 28 24 22 26 13 2 16 38 31 25 30 4 33 35 12 17 39 19 23 40 8 5 15 3 29
c order 15 34 22 23 24 1 33 20 5 10 31 27 13 3 11 2 38 6 30 4 29 16 40 17 28 39 36 35 32 14 21 19 12 18 25 37 8 26 9 7
c order 15 23 36 11 16 27 40 12 3 7 39 26 32 25 35 29 13 30 4 2 1 22 21 20 28 33 38 19 5 17 8 18 6 34 37 14 10 9 24 31
c order 38 28 36 5 33 24 37 7 22 18 12 19 29 6 3 27 9 10 4 34 20 1 25 23 30 32 39 17 15 35 8 13 31 2 21 40 11 16 14 26
c order 8 1 40 16 29 28 14 4 27 34 36 26 10 37 20 38 2 30 13 33 19 25 9 31 22 18 32 6 3 12 35 39 11 5 21 24 7 15 23 17
c order 30 18 16 25 9 26 29 10 37 11 24 34 36 33 28 15 22 5 8 40 35 14 13 7 23 3 17 31 38 20 2 12 21 39 27 4 32 19 6 1
c order 23 27 29 37 5 31 20 7 1 21 8 33 24 3 12 18 39 6 11 30 2 16 26 32 9 35 10 15 40 13 22 17 34 38 36 4 19 28 14 25
c order 21 38 22 12 1 28 24 20 19 3 36 8 39 10 32 27 31 25 14 5 18 34 30 23 7 16 29 9 13 15 6 11 17 2 35 33 4 40 26 37
c order 14 10 34 37 4 21 32 15 16 9 6 18 20 36 1 13 30 39 19 35 5 2 31 3 7 25 28 33 8 17 27 26 24 38 22 40 29 11 23 12
c order 31 32 1 13 37 18 39 2 8 22 5 33 36 29 14 40 7 35 23 17 28 19 10 38 16 25 21 34 30 4 27 20 12 15 3 6 9 26 11 24
p cnf 40 96
30 31 29 0
-30 -31 0
-30 -29 0
-31 -29 0
4 10 15 0
-4 -10 0
-4 -15 0
-10 -15 0
34 7 21 0
-34 -7 0
-34 -21 0
-7 -21 0
18 20 2 0
-18 -20 0
-18 -2 0
-20 -2 0
26 3 38 0
-26 -3 0
-26 -38 0
-3 -38 0
28 33 14 0
-28 -33 0
-28 -14 0
-33 -14 0
1 17 15 0
-1 -17 0
-1 -15 0
-17 -15 0
29 30 12 0
-29 -30 0
-29 -12 0
-30 -12 0
27 28 24 0
-27 -28 0
-27 -24 0
-28 -24 0
8 2 7 0
-8 -2 0
-8 -7 0
-2 -7 0
1 27 14 0
-1 -27 0
-1 -14 0
-27 -14 0
33 12 38 0
-33 -12 0
-33 -38 0
-12 -38 0
29 35 26 0
-29 -35 0
-29 -26 0
-35 -26 0
32 22 31 0
-32 -22 0
-32 -31 0
-22 -31 0
7 11 36 0
-7 -11 0
-7 -36 0
-11 -36 0
7 15 8 0
-7 -15 0
-7 -8 0
-15 -8 0
29 20 33 0
-29 -20 0
-29 -33 0
-20 -33 0
17 8 28 0
-17 -8 0
-17 -28 0
-8 -28 0
34 13 4 0
-34 -13 0
-34 -4 0
-13 -4 0
4 34 24 0
-4 -34 0
-4 -24 0
-34 -24 0
2 15 36 0
-2 -15 0
-2 -36 0
-15 -36 0
25 5 33 0
-25 -5 0
-25 -33 0
-5 -33 0
15 17 3 0
-15 -17 0
-15 -3 0
-17 -3 0
18 39 16 0
-18 -39 0
-18 -16 0
-39 -16 0
