c family=1-in-3-SAT n=40 instance=8 seed=3881676977 models=1664
c order 21 37 4 38 15 1 19 29 8 27 12 2 26 39 25 33 6 16 32 9 17 20 7 30 23 10 34 36 28 11 14 24 3 5 40 22 31 18 35 13
c order 39 13 14 23 8 1 3 40 24 33 7 35 4 21 18 34 20 27 36 11 31 12 38 29 19 30 22 17 2 16 32 37 5 26 25 28 10 15 6 9
c order 4 14 16 21 37 27 33 6 12 31 20 24 22 2 10 9 38 1 17 32 26 19 3 30 15 35 7 23 8 13 34 28 5 36 18 11 29 40 39 25
c order 32 1 15 36 20 27 9 37 34 13 38 11 33 21 6 12 40 7 35 17 18 19 25 10 39 5 24 8 3 30 31 14 23 28 26 29 22 16 4 2
c order 4 33 10 23 12 11 3 16 24 30 28 21 36 38 19 35 17 34 20 32 18 39 31 9 2 22 8 13 15 5 1 27 37 14 26 40 6 25 29 7
c order 26 13 29 21 33 16 4 3 40 22 37 39 5 17 18 27 32 2 30 36 24 25 19 38 7 34 15 11 9 8 35 14 12 20 23 10 6 28 31 1
c order 3 19 40 21 7 10 6 29 39 12 27 35 37 20 16 2 9 22 28 17 24 8 38 11 15 31 4 23 26 34 33 36 25 32 1 5 18 14 30 13
c order 7 33 21 17 27 32 37 5 23 36 11 39 4 13 16 19 30 2 9 25 22 35 6 12 40 14 24 38 18 28 8 34 10 31 29 15 1 20 3 26
c order 7 6 36 8 2 13 1 30 21 27 33 39 25 32 15 10 24 11 18 17 9 3 26 34 5 19 23 28 35 38 37 22 20 12 16 31 4 40 29 14
c order 19 10 3 27 30 6 40 5 34 1 39 12 17 36 28 16 35 8 24 7 31 11 13 22 25 2 20 29 33 14 37 15 32 21 9 23 38 18 4 26
p cnf 40 96
12 2 40 0
-12 -2 0
-12 -40 0
-2 -40 0
37 12 14 0
-37 -12 0
-37 -14 0
-12 -14 0
25 28 6 0
-25 -28 0
-25 -6 0
-28 -6 0
22 34 21 0
-22 -34 0
-22 -21 0
-34 -21 0
2 14 12 0
-2 -14 0
-2 -12 0
-14 -12 0
34 23 3 0
-34 -23 0
-34 -3 0
-23 -3 0
22 25 40 0
-22 -25 0
-22 -40 0
-25 -40 0
12 18 2 0
-12 -18 0
-12 -2 0
-18 -2 0
18 12 26 0
-18 -12 0
-18 -26 0
-12 -26 0
19 22 10 0
-19 -22 0
-19 -10 0
-22 -10 0
32 19 31 0
-32 -19 0
-32 -31 0
-19 -31 0
27 1 31 0
-27 -1 0
-27 -31 0
-1 -31 0
22 27 6 0
-22 -27 0
-22 -6 0
-27 -6 0
23 37 21 0
-23 -37 0
-23 -21 0
-37 -21 0
29 16 27 0
-29 -16 0
-29 -27 0
-16 -27 0
1 38 30 0
-1 -38 0
-1 -30 0
-38 -30 0
9 39 6 0
-9 -39 0
-9 -6 0
-39 -6 0
3 35 38 0
-3 -35 0
-3 -38 0
-35 -38 0
36 5 8 0
-36 -5 0
-36 -8 0
-5 -8 0
14 31 39 0
-14 -31 0
-14 -39 0
-31 -39 0
24 4 6 0
-24 -4 0
-24 -6 0
-4 -6 0
19 31 8 0
-19 -31 0
-19 -8 0
-31 -8 0
34 1 11 0
-34 -1 0
-34 -11 0
-1 -11 0
24 23 36 0
-24 -23 0
-24 -36 0
-23 -36 0
