c family=1-in-3-SAT n=40 instance=7 seed=3881676977 models=2176
c order 31 30 15 12 37 26 4 11 5 22 21 2 35 32 39 19 8 6 17 1 29 23 18 20 38 16 24 34 14 10 13 9 28 27 3 7 33 25 36 40
c order 32 7 35 2 17 37 21 12 9 24 23 3 39 33 8 11 6 22 20 5 4 16 26 14 19 31 25 38 18 29 15 40 27 36 1 10 30 34 28 13
c order 34 23 36 15 21 22 29 9 18 14 37 8 25 13 40 32 39 26 35 17 27 4 12 5 19 33 30 38 6 16 11 1 24 31 10 2 28 7 20 3
c order 27 35 5 30 38 15 28 7 23 9 25 33 37 22 31 40 1 19 17 16 6 29 39 12 13 8 10 14 3 4 18 34 21 26 11 24 32 2 36 20
c order 9 4 12 14 31 28 40 18 25 39 8 22 38 5 20 17 23 33 13 27 26 10 35 29 36 21 24 6 7 19 1 2 37 30 34 32 16 15 11 3
c order 15 17 19 8 5 31 9 18 7 37 4 20 13 16 23 6 12 2 39 40 25 14 22 32 3 1 24 28 33 36 21 38 26 27 30 11 35 29 34 10
c order 15 39 36 1 37 32 6 9 17 28 19 20 14 8 22 23 30 29 10 13 21 12 25 7 27 11 3 16 26 33 24 34 38 2 40 31 18 5 4 35
c order 11 6 31 29 1 20 4 17 12 40 37 8 9 25 19 36 16 14 26 33 7 10 39 21 30 27 13 24 3 22 18 38 28 23 34 35 5 32 15 2
c order 15 24 13 17 9 36 5 4 31 26 3 12 32 14 29 8 1 27 7 33 20 10 25 6 38 22 30 23 28 18 37 35 11 16 2 34 19 21 39 40
c order 21 3 17 19 18 29 33 34 40 9 6 24 27 8 35 30 20 14 25 13 38 5 1 26 11 7 22 12 4 37 31 28 10 23 39 32 16 2 15 36
p cnf 40 96
9 7 19 0
-9 -7 0
-9 -19 0
-7 -19 0
23 24 28 0
-23 -24 0
-23 -28 0
-24 -28 0
22 18 32 0
-22 -18 0
-22 -32 0
-18 -32 0
16 17 28 0
-16 -17 0
-16 -28 0
-17 -28 0
8 40 13 0
-8 -40 0
-8 -13 0
-40 -13 0
34 35 16 0
-34 -35 0
-34 -16 0
-35 -16 0
27 29 35 0
-27 -29 0
-27 -35 0
-29 -35 0
28 27 17 0
-28 -27 0
-28 -17 0
-27 -17 0
3 8 21 0
-3 -8 0
-3 -21 0
-8 -21 0
24 16 36 0
-24 -16 0
-24 -36 0
-16 -36 0
2 23 18 0
-2 -23 0
-2 -18 0
-23 -18 0
6 23 21 0
-6 -23 0
-6 -21 0
-23 -21 0
32 9 21 0
-32 -9 0
-32 -21 0
-9 -21 0
19 9 1 0
-19 -9 0
-19 -1 0
-9 -1 0
4 7 24 0
-4 -7 0
-4 -24 0
-7 -24 0
14 3 17 0
-14 -3 0
-14 -17 0
-3 -17 0
20 5 32 0
-20 -5 0
-20 -32 0
-5 -32 0
38 15 16 0
-38 -15 0
-38 -16 0
-15 -16 0
1 10 29 0
-1 -10 0
-1 -29 0
-10 -29 0
22 31 32 0
-22 -31 0
-22 -32 0
-31 -32 0
36 15 19 0
-36 -15 0
-36 -19 0
-15 -19 0
40 22 1 0
-40 -22 0
-40 -1 0
-22 -1 0
33 16 8 0
-33 -16 0
-33 -8 0
-16 -8 0
19 37 15 0
-19 -37 0
-19 -15 0
-37 -15 0
