c family=1-in-3-SAT n=40 instance=1 seed=3881676977 models=608
c order 15 25 34 39 19 2 35 20 1 11 21 16 29 38 27 40 6 36 32 26 31 17 14 33 7 5 37 13 4 10 30 3 18 8 24 12 22 9 23 28
c order 37 30 13 6 17 33 12 38 35 23 25 19 18 40 22 21 26 2 5 16 11 28 31 1 20 9 4 34 32 10 39 8 29 3 14 24 15 7 36 27
c order 4 2 24 5 33 26 35 7 29 6 11 13 39 37 15 22 14 36 20 10 27 21 31 18 12 17 25 23 16 1 3 34 19 40 8 38 30 32 28 9
c order 16 14 25 5 18 36 19 21 32 4 2 35 37 17 9 22 8 39 7 13 15 30 12 34 10 6 29 24 3 1 23 38 28 40 33 26 20 31 27 11
c order 23 25 13 39 38 28 40 30 15 9 21 20 27 32 8 19 31 17 7 2 16 14 29 26 3 12 10 22 1 4 5 35 36 34 11 24 18 37 6 33
c order 35 28 22 30 24 17 33 13 11 31 40 38 2 34 18 7 14 32 16 29 15 8 19 26 36 1 12 25 10 23 20 39 21 4 37 5 9 6 3 27
c order 21 23 19 17 6 26 35 33 34 30 20 13 29 11 10 2 40 8 14 39 38 27 4 15 25 7 32 28 3 12 18 1 31 9 37 16 36 5 24 22
c order 10 31 29 30 32 37 11 8 33 26 16 38 2 18 20 6 40 24 25 12 17 14 36 34 19 27 9 15 35 4 13 7 22 28 21 23 1 3 39 5
c order 16 10 11 3 26 9 33 30 37 17 2 20 21 38 22 7 31 34 5 28 6 8 36 39 14 40 27 25 12 23 18 32 4 13 1 35 15 19 29 24
c order 26 16 32 25 1 31 11 38 12 8 14 4 15 23 17 19 24 9 2 3 7 37 30 21 36 20 29 34 22 10 39 33 18 40 5 6 27 13 35 28
p cnf 40 96
13 40 3 0
-13 -40 0
-13 -3 0
-40 -3 0
21 9 40 0
-21 -9 0
-21 -40 0
-9 -40 0
4 1 9 0
-4 -1 0
-4 -9 0
-1 -9 0
28 39 31 0
-28 -39 0
-28 -31 0
-39 -31 0
28 40 13 0
-28 -40 0
-28 -13 0
-40 -13 0
34 33 23 0
-34 -33 0
-34 -23 0
-33 -23 0
17 1 10 0
-17 -1 0
-17 -10 0
-1 -10 0
40 6 8 0
-40 -6 0
-40 -8 0
-6 -8 0
38 37 15 0
-38 -37 0
-38 -15 0
-37 -15 0
3 32 30 0
-3 -32 0
-3 -30 0
-32 -30 0
23 21 15 0
-23 -21 0
-23 -15 0
-21 -15 0
15 11 10 0
-15 -11 0
-15 -10 0
-11 -10 0
17 23 19 0
-17 -23 0
-17 -19 0
-23 -19 0
24 25 10 0
-24 -25 0
-24 -10 0
-25 -10 0
34 16 25 0
-34 -16 0
-34 -25 0
-16 -25 0
4 32 27 0
-4 -32 0
-4 -27 0
-32 -27 0
4 35 7 0
-4 -35 0
-4 -7 0
-35 -7 0
30 17 15 0
-30 -17 0
-30 -15 0
-17 -15 0
19 25 38 0
-19 -25 0
-19 -38 0
-25 -38 0
35 6 3 0
-35 -6 0
-35 -3 0
-6 -3 0
25 26 33 0
-25 -26 0
-25 -33 0
-26 -33 0
37 31 18 0
-37 -31 0
-37 -18 0
-31 -18 0
21 2 37 0
-21 -2 0
-21 -37 0
-2 -37 0
23 20 12 0
-23 -20 0
-23 -12 0
-20 -12 0
