c family=1-in-3-SAT n=40 instance=0 seed=3881676977 models=768
c order 25 13 36 4 40 37 35 5 19 28 23 8 9 30 12 18 26 21 6 17 32 14 10 1 31 34 3 24 29 33 39 22 16 27 11 20 15 38 7 2
c order 9 37 29 38 28 39 19 6 16 35 20 1 22 7 14 24 12 17 25 34 15 4 2 10 26 36 18 27 40 5 21 30 11 32 3 33 13 23 31 8
c order 27 12 26 37 17 28 22 11 32 19 6 4 1 40 38 7 5 24 29 2 23 33 18 35 30 8 36 31 20 10 39 16 15 3 14 25 9 21 13 34
c order 24 11 12 33 6 10 22 15 13 38 26 3 14 4 1 16 30 31 35 36 29 8 19 2 27 5 9 21 40 37 18 17 28 20 25 39 32 7 23 34
c order 37 25 5 14 30 7 8 23 2 4 13 26 29 38 15 31 12 33 3 22 36 32 40 19 10 6 34 39 27 11 21 1 24 35 17 18 28 9 20 16
c order 8 12 29 31 38 40 24 2 13 6 3 18 26 19 9 17 23 20 28 33 27 37 5 35 11 39 14 36 4 25 22 34 7 30 21 10 15 32 1 16
c order 32 3 8 35 10 1 28 25 34 36 11 13 27 37 38 4 23 29 14 24 12 15 33 17 30 5 9 31 22 39 16 18 19 7 2 6 26 40 20 21
c order 31 33 13 12 14 9 6 32 29 35 27 26 17 3 8 39 2 36 20 25 18 7 5 15 11 1 37 10 28 34 4 38 19 24 21 22 16 23 40 30
c order 39 17 28 31 16 25 33 26 35 30 21 4 10 24 34 13 8 18 19 7 23 36 2 12 40 15 9 20 14 1 32 29 37 5 11 6 22 3 27 38
c order 24 20 26 14 2 21 25 22 5 10 32 3 9 13 16 35 7 19 33 11 31 30 15 17 37 27 36 29 18 12 23 34 4 28 40 39 38 8 1 6
p cnf 40 96
4 18 10 0
-4 -18 0
-4 -10 0
-18 -10 0
13 5 19 0
-13 -5 0
-13 -19 0
-5 -19 0
36 35 2 0
-36 -35 0
-36 -2 0
-35 -2 0
20 21 32 0
-20 -21 0
-20 -32 0
-21 -32 0
4 19 40 0
-4 -19 0
-4 -40 0
-19 -40 0
32 23 35 0
-32 -23 0
-32 -35 0
-23 -35 0
2 39 10 0
-2 -39 0
-2 -10 0
-39 -10 0
10 25 23 0
-10 -25 0
-10 -23 0
-25 -23 0
27 20 36 0
-27 -20 0
-27 -36 0
-20 -36 0
33 25 17 0
-33 -25 0
-33 -17 0
-25 -17 0
12 34 4 0
-12 -34 0
-12 -4 0
-34 -4 0
30 14 7 0
-30 -14 0
-30 -7 0
-14 -7 0
30 23 33 0
-30 -23 0
-30 -33 0
-23 -33 0
33 3 4 0
-33 -3 0
-33 -4 0
-3 -4 0
9 16 18 0
-9 -16 0
-9 -18 0
-16 -18 0
38 33 9 0
-38 -33 0
-38 -9 0
-33 -9 0
22 23 1 0
-22 -23 0
-22 -1 0
-23 -1 0
26 37 33 0
-26 -37 0
-26 -33 0
-37 -33 0
31 19 35 0
-31 -19 0
-31 -35 0
-19 -35 0
33 20 34 0
-33 -20 0
-33 -34 0
-20 -34 0
30 4 17 0
-30 -4 0
-30 -17 0
-4 -17 0
33 8 39 0
-33 -8 0
-33 -39 0
-8 -39 0
31 19 2 0
-31 -19 0
-31 -2 0
-19 -2 0
12 6 37 0
-12 -6 0
-12 -37 0
-6 -37 0
