c family=1-in-3-SAT n=40 instance=4 seed=3881676977 models=4224
c order 36 4 15 11 32 22 33 38 5 1 37 8 31 23 13 2 35 16 34 24 26 40 14 19 25 17 28 10 20 18 21 7 30 12 6 29 9 39 27 3
c order 4 40 38 22 11 14 35 8 3 39 1 32 7 10 2 15 19 24 27 20 33 37 12 21 29 16 26 31 13 28 18 17 23 34 30 25 5 9 36 6
c order 5 16 4 14 31 22 11 27 3 26 15 8 1 7 20 28 24 9 36 21 29 25 23 13 2 38 32 34 10 18 37 33 35 40 17 39 6 12 19 30
c order 34 40 19 7 25 5 30 11 18 29 23 15 22 2 1 6 20 21 9 13 12 33 26 35 16 32 27 17 3 38 28 8 39 10 36 14 24 37 31 4
c order 29 38 4 25 35 27 31 13 16 40 14 7 6 15 26 5 10 24 17 20 9 1 18 8 32 3 28 30 12 39 2 23 33 19 22 34 11 36 37 21
c order 21 35 15 23 28 17 30 6 9 8 7 33 31 32 25 11 5 2 1 37 18 14 13 3 34 4 19 26 16 10 29 27 40 24 39 20 22 38 12 36
c order 37 26 29 16 17 6 3 24 7 14 4 1 30 35 27 36 21 18 33 39 9 20 25 2 38 10 32 28 13 34 15 40 11 23 19 8 31 5 12 22
c order 31 35 2 34 5 21 22 9 36 16 1 27 39 29 12 14 3 40 11 7 32 38 30 15 24 6 19 28 33 13 26 4 23 37 25 8 10 17 20 18
c order 39 12 29 31 13 7 22 40 9 30 5 33 35 17 15 27 25 11 8 3 18 1 28 2 36 4 23 32 34 19 10 16 6 14 21 37 24 26 38 20
c order 18 35 3 22 5 29 34 20 16 17 38 19 10 9 11 30 32 40 7 37 6 2 12 23 21 31 33 8 14 4 1 39 28 27 13 24 26 25 15 36
p cnf 40 96
3 25 23 0
-3 -25 0
-3 -23 0
-25 -23 0
3 2 24 0
-3 -2 0
-3 -24 0
-2 -24 0
9 40 30 0
-9 -40 0
-9 -30 0
-40 -30 0
16 8 12 0
-16 -8 0
-16 -12 0
-8 -12 0
33 31 26 0
-33 -31 0
-33 -26 0
-31 -26 0
5 33 9 0
-5 -33 0
-5 -9 0
-33 -9 0
23 38 7 0
-23 -38 0
-23 -7 0
-38 -7 0
26 23 33 0
-26 -23 0
-26 -33 0
-23 -33 0
16 26 8 0
-16 -26 0
-16 -8 0
-26 -8 0
9 29 40 0
-9 -29 0
-9 -40 0
-29 -40 0
32 1 36 0
-32 -1 0
-32 -36 0
-1 -36 0
20 21 3 0
-20 -21 0
-20 -3 0
-21 -3 0
16 21 17 0
-16 -21 0
-16 -17 0
-21 -17 0
20 14 32 0
-20 -14 0
-20 -32 0
-14 -32 0
27 9 7 0
-27 -9 0
-27 -7 0
-9 -7 0
4 20 25 0
-4 -20 0
-4 -25 0
-20 -25 0
10 33 15 0
-10 -33 0
-10 -15 0
-33 -15 0
37 1 36 0
-37 -1 0
-37 -36 0
-1 -36 0
20 26 19 0
-20 -26 0
-20 -19 0
-26 -19 0
9 12 6 0
-9 -12 0
-9 -6 0
-12 -6 0
12 34 33 0
-12 -34 0
-12 -33 0
-34 -33 0
19 5 9 0
-19 -5 0
-19 -9 0
-5 -9 0
23 16 29 0
-23 -16 0
-23 -29 0
-16 -29 0
37 7 18 0
-37 -7 0
-37 -18 0
-7 -18 0
