c family=1-in-3-SAT n=40 instance=6 seed=3881676977 models=704
c order 6 5 32 15 13 25 17 10 35 29 2 39 28 12 34 8 24 21 30 16 9 23 40 1 22 20 36 37 3 31 11 33 27 26 4 7 14 18 38 19
c order 29 14 5 36 37 19 15 10 12 22 8 11 33 21 40 2 16 35 13 39 18 9 20 25 28 4 32 31 27 17 3 24 23 26 38 6 1 30 7 34
c order 31 18 30 16 4 33 39 8 34 17 6 13 20 2 3 22 38 5 14 19 9 21 24 28 26 10 7 36 11 1 15 37 25 35 12 40 27 29 32 23
c order 38 20 14 37 25 31 18 16 8 5 28 3 27 2 12 34 7 13 39 1 32 4 17 35 24 22 36 6 30 33 23 40 9 29 10 15 21 19 11 26
c order 38 34 2 33 13 8 25 19 30 36 5 24 7 37 12 11 18 4 39 35 31 27 20 22 26 21 14 15 32 40 17 29 23 9 28 1 6 3 10 16
c order 39 36 13 30 25 37 4 12 40 19 2 5 15 35 20 38 21 34 10 28 29 8 23 33 17 11 32 1 31 9 14 16 27 6 26 24 22 7 3 18
c order 6 11 13 7 38 28 26 19 8 2 31 36 3 17 32 21 27 16 9 15 1 40 39 29 30 35 18 4 25 34 22 24 10 5 14 23 12 33 20 37
c order 31 22 3 24 38 2 9 23 18 1 17 29 33 39 26 12 37 10 5 28 40 14 8 27 11 32 30 16 34 13 36 20 4 7 21 19 35 25 6 15
c order 7 31 17 34 38 11 32 3 2 8 10 6 24 19 12 22 40 30 5 39 16 33 1 21 37 25 35 27 28 20 29 18 4 23 9 14 15 36 26 13
c order 13 19 17 1 20 3 14 37 6 28 18 39 7 31 40 24 16 12 21 15 9 32 2 33 38 8 11 29 5 26 30 25 22 10 36 35 27 34 4 23
p cnf 40 96
33 38 11 0
-33 -38 0
-33 -11 0
-38 -11 0
13 33 15 0
-13 -33 0
-13 -15 0
-33 -15 0
7 22 31 0
-7 -22 0
-7 -31 0
-22 -31 0
36 21 13 0
-36 -21 0
-36 -13 0
-21 -13 0
1 7 9 0
-1 -7 0
-1 -9 0
-7 -9 0
7 5 33 0
-7 -5 0
-7 -33 0
-5 -33 0
30 5 29 0
-30 -5 0
-30 -29 0
-5 -29 0
26 8 9 0
-26 -8 0
-26 -9 0
-8 -9 0
4 1 17 0
-4 -1 0
-4 -17 0
-1 -17 0
8 27 4 0
-8 -27 0
-8 -4 0
-27 -4 0
19 12 27 0
-19 -12 0
-19 -27 0
-12 -27 0
35 40 28 0
-35 -40 0
-35 -28 0
-40 -28 0
16 34 1 0
-16 -34 0
-16 -1 0
-34 -1 0
21 20 13 0
-21 -20 0
-21 -13 0
-20 -13 0
11 40 7 0
-11 -40 0
-11 -7 0
-40 -7 0
25 35 29 0
-25 -35 0
-25 -29 0
-35 -29 0
13 23 15 0
-13 -23 0
-13 -15 0
-23 -15 0
31 29 34 0
-31 -29 0
-31 -34 0
-29 -34 0
2 12 29 0
-2 -12 0
-2 -29 0
-12 -29 0
36 5 40 0
-36 -5 0
-36 -40 0
-5 -40 0
38 3 6 0
-38 -3 0
-38 -6 0
-3 -6 0
17 27 3 0
-17 -27 0
-17 -3 0
-27 -3 0
25 13 18 0
-25 -13 0
-25 -18 0
-13 -18 0
25 26 21 0
-25 -26 0
-25 -21 0
-26 -21 0
