c family=1-in-3-SAT n=45 instance=7 seed=3881676977 models=3200
c order 7 34 3 2 45 21 10 14 12 5 1 17 13 36 35 11 39 22 23 8 15 37 42 25 16 32 24 4 9 18 40 30 19 6 33 31 38 41 27 29 28 26 44 20 43
c order 40 12 44 30 23 27 4 22 35 45 21 29 14 25 18 7 5 31 6 9 16 24 38 13 2 41 3 42 11 20 26 10 32 19 37 34 28 33 43 36 1 15 17 8 39
c order 29 15 25 45 3 9 24 7 13 23 11 30 6 4 42 41 44 2 10 38 33 26 35 21 28 37 12 36 40 20 19 31 17 8 34 27 43 14 16 32 5 22 18 1 39
c order 37 26 10 27 42 7 11 33 44 40 30 20 35 41 2 25 21 36 31 16 1 23 14 38 22 9 29 3 8 32 28 24 34 6 43 17 13 4 5 15 19 12 18 39 45
c order 5 26 44 14 18 15 6 45 42 17 13 7 35 9 10 11 21 38 3 37 31 39 40 22 20 28 36 23 29 33 30 16 19 1 43 32 12 24 4 34 8 27 41 25 2
c order 30 12 6 16 45 42 1 3 17 38 31 34 19 24 4 23 9 25 32 41 29 10 7 26 43 21 11 37 13 27 20 8 44 40 36 5 22 28 35 39 14 33 18 2 15
c order 20 29 30 44 37 43 11 28 24 14 13 8 7 6 31 16 19 35 40 3 32 36 9 2 4 22 10 1 25 45 26 41 42 39 27 17 34 15 12 33 23 18 21 5 38
c order 10 25 37 27 26 40 36 13 15 32 7 21 41 42 8 35 39 38 18 16 9 44 5 29 2 3 31 11 14 28 12 43 24 34 33 45 20 6 30 4 17 22 23 19 1
c order 26 17 11 6 23 18 41 3 37 31 33 9 30 13 35 8 12 10 21 27 38 5 4 20 39 7 43 45 40 16 15 25 1 19 24 34 32 42 29 28 44 36 2 22 14
c order 12 25 26 33 5 34 1 18 23 28 38 41 13 9 15 43 10 24 2 22 14 39 4 36 32 21 8 27 20 35 37 42 17 29 45 7 3 31 44 6 19 16 11 40 30
p cnf 45 108
43 10 34 0
-43 -10 0
-43 -34 0
-10 -34 0
28 40 41 0
-28 -40 0
-28 -41 0
-40 -41 0
19 45 11 0
-19 -45 0
-19 -11 0
-45 -11 0
30 4 42 0
-30 -4 0
-30 -42 0
-4 -42 0
34 15 8 0
-34 -15 0
-34 -8 0
-15 -8 0
4 35 8 0
-4 -35 0
-4 -8 0
-35 -8 0
9 4 13 0
-9 -4 0
-9 -13 0
-4 -13 0
40 27 43 0
-40 -27 0
-40 -43 0
-27 -43 0
31 4 1 0
-31 -4 0
-31 -1 0
-4 -1 0
40 8 15 0
-40 -8 0
-40 -15 0
-8 -15 0
32 5 11 0
-32 -5 0
-32 -11 0
-5 -11 0
45 42 1 0
-45 -42 0
-45 -1 0
-42 -1 0
28 22 9 0
-28 -22 0
-28 -9 0
-22 -9 0
32 10 34 0
-32 -10 0
-32 -34 0
-10 -34 0
1 10 7 0
-1 -10 0
-1 -7 0
-10 -7 0
36 23 28 0
-36 -23 0
-36 -28 0
-23 -28 0
22 14 5 0
-22 -14 0
-22 -5 0
-14 -5 0
31 29 13 0
-31 -29 0
-31 -13 0
-29 -13 0
28 13 34 0
-28 -13 0
-28 -34 0
-13 -34 0
16 11 17 0
-16 -11 0
-16 -17 0
-11 -17 0
15 21 39 0
-15 -21 0
-15 -39 0
-21 -39 0
16 1 6 0
-16 -1 0
-16 -6 0
-1 -6 0
9 19 18 0
-9 -19 0
-9 -18 0
-19 -18 0
10 28 33 0
-10 -28 0
-10 -33 0
-28 -33 0
16 38 37 0
-16 -38 0
-16 -37 0
-38 -37 0
18 2 8 0
-18 -2 0
-18 -8 0
-2 -8 0
4 13 21 0
-4 -13 0
-4 -21 0
-13 -21 0
