c family=1-in-3-SAT n=45 instance=4 seed=3881676977 models=5248
c order 40 8 25 30 35 34 24 19 9 31 17 1 16 10 11 6 43 41 42 3 13 28 39 2 44 14 21 5 36 37 15 12 22 45 32 23 20 18 26 38 29 33 27 7 4
c order 15 43 10 42 32 34 45 24 31 5 13 8 25 14 29 37 2 11 28 1 4 21 17 7 23 9 27 41 33 16 12 30 3 22 19 38 35 26 36 20 44 40 18 39 6
c order 19 2 29 42 34 24 1 7 31 32 44 6 22 45 4 39 10 40 26 27 11 35 16 18 9 43 14 12 28 5 17 30 33 15 41 20 3 21 23 36 38 13 25 37 8
c order 3 4 45 17 31 5 23 28 38 26 21 22 9 20 29 30 14 19 7 18 27 35 43 41 25 12 44 32 34 40 24 36 39 2 6 13 10 42 37 1 8 15 11 16 33
c order 41 30 24 33 2 8 32 14 19 25 1 21 27 20 31 9 17 6 16 22 45 34 11 18 15 40 28 43 37 13 39 7 35 5 29 36 10 4 23 26 42 38 44 12 3
c order 16 36 38 39 41 13 6 32 34 44 24 45 15 23 5 22 14 40 21 19 31 28 4 18 25 10 17 11 29 8 9 26 33 35 43 37 2 27 3 12 7 42 1 30 20
c order 42 30 2 27 20 16 7 35 18 33 4 23 21 10 22 36 17 28 43 1 15 37 6 12 19 26 31 14 29 3 24 32 9 44 8 34 40 5 11 13 39 38 25 45 41
c order 45 22 36 38 10 27 16 44 25 8 2 26 35 43 12 29 6 34 31 17 40 4 3 11 7 18 21 42 19 23 41 14 30 33 13 1 5 24 28 37 32 20 15 39 9
c order 6 40 19 27 25 35 9 26 37 29 16 36 32 28 4 33 45 2 20 10 18 11 22 31 39 3 13 43 34 8 42 38 5 14 15 23 21 30 44 17 7 41 12 24 1
c order 42 7 8 27 14 43 21 29 23 4 45 32 36 16 10 26 15 24 3 34 38 9 13 5 30 31 22 44 11 25 41 40 37 39 12 35 1 33 20 2 6 18 17 19 28
p cnf 45 108
10 28 13 0
-10 -28 0
-10 -13 0
-28 -13 0
26 16 30 0
-26 -16 0
-26 -30 0
-16 -30 0
21 38 42 0
-21 -38 0
-21 -42 0
-38 -42 0
40 5 14 0
-40 -5 0
-40 -14 0
-5 -14 0
27 1 20 0
-27 -1 0
-27 -20 0
-1 -20 0
13 16 10 0
-13 -16 0
-13 -10 0
-16 -10 0
38 31 27 0
-38 -31 0
-38 -27 0
-31 -27 0
27 45 31 0
-27 -45 0
-27 -31 0
-45 -31 0
39 13 2 0
-39 -13 0
-39 -2 0
-13 -2 0
44 11 37 0
-44 -11 0
-44 -37 0
-11 -37 0
5 26 22 0
-5 -26 0
-5 -22 0
-26 -22 0
24 5 21 0
-24 -5 0
-24 -21 0
-5 -21 0
38 27 19 0
-38 -27 0
-38 -19 0
-27 -19 0
45 14 1 0
-45 -14 0
-45 -1 0
-14 -1 0
1 8 32 0
-1 -8 0
-1 -32 0
-8 -32 0
11 12 16 0
-11 -12 0
-11 -16 0
-12 -16 0
27 3 25 0
-27 -3 0
-27 -25 0
-3 -25 0
28 4 44 0
-28 -4 0
-28 -44 0
-4 -44 0
31 4 33 0
-31 -4 0
-31 -33 0
-4 -33 0
35 22 39 0
-35 -22 0
-35 -39 0
-22 -39 0
11 23 12 0
-11 -23 0
-11 -12 0
-23 -12 0
13 33 10 0
-13 -33 0
-13 -10 0
-33 -10 0
7 42 36 0
-7 -42 0
-7 -36 0
-42 -36 0
22 16 34 0
-22 -16 0
-22 -34 0
-16 -34 0
43 21 32 0
-43 -21 0
-43 -32 0
-21 -32 0
38 33 9 0
-38 -33 0
-38 -9 0
-33 -9 0
4 40 6 0
-4 -40 0
-4 -6 0
-40 -6 0
