c family=1-in-3-SAT n=45 instance=0 seed=3881676977 models=3072
c order 41 4 40 12 15 18 39 8 20 21 3 10 2 17 6 27 36 38 43 9 34 13 24 42 26 22 1 32 29 11 45 30 5 37 7 19 28 31 14 16 23 25 33 44 35
c order 38 20 31 39 16 8 11 19 37 10 22 30 24 25 29 21 35 45 17 18 5 27 23 14 33 13 6 3 41 28 36 34 7 40 9 4 15 1 44 26 12 43 2 42 32
c order 12 45 1 8 30 3 24 31 21 26 34 14 27 25 6 39 10 43 4 15 37 9 16 13 33 17 29 22 38 32 2 20 40 19 35 18 41 42 36 7 11 28 23 44 5
c order 9 42 44 25 6 26 45 11 5 39 43 12 7 13 24 3 8 17 31 27 22 14 33 32 1 18 23 28 35 38 4 30 15 36 10 41 29 16 37 21 34 40 20 19 2
c order 19 34 18 10 33 11 25 40 29 39 2 5 3 7 1 45 30 42 22 36 4 21 28 32 8 13 20 31 15 35 26 38 14 41 12 43 17 16 27 6 44 9 23 37 24
c order 3 9 38 28 41 20 33 24 36 26 27 1 22 30 2 5 40 43 31 12 14 37 29 25 21 34 18 39 7 16 19 10 45 6 11 15 23 32 35 13 44 8 17 42 4
c order 4 8 27 14 15 23 22 34 26 44 10 38 39 9 42 3 19 37 7 29 45 35 1 11 31 5 36 13 25 16 24 28 41 43 32 21 30 40 20 18 33 2 6 17 12
c order 6 35 19 45 18 39 22 20 31 41 34 16 36 25 29 30 23 3 26 21 7 12 43 8 14 4 9 44 28 2 42 24 5 17 13 1 33 40 38 27 11 15 10 37 32
c order 12 21 7 11 29 19 32 24 16 3 22 6 2 9 10 25 13 37 5 43 17 28 15 27 4 14 20 33 26 39 41 30 44 38 36 40 1 35 8 18 34 42 45 23 31
c order 34 2 30 6 9 21 3 17 15 23 11 29 39 41 26 7 14 36 5 24 19 8 40 31 25 10 22 44 42 12 20 32 27 16 4 28 13 18 1 37 33 38 35 45 43
p cnf 45 108
28 7 26 0
-28 -7 0
-28 -26 0
-7 -26 0
45 38 25 0
-45 -38 0
-45 -25 0
-38 -25 0
5 29 39 0
-5 -29 0
-5 -39 0
-29 -39 0
43 34 45 0
-43 -34 0
-43 -45 0
-34 -45 0
4 19 14 0
-4 -19 0
-4 -14 0
-19 -14 0
3 36 18 0
-3 -36 0
-3 -18 0
-36 -18 0
24 19 10 0
-24 -19 0
-24 -10 0
-19 -10 0
27 33 43 0
-27 -33 0
-27 -43 0
-33 -43 0
39 14 24 0
-39 -14 0
-39 -24 0
-14 -24 0
35 45 38 0
-35 -45 0
-35 -38 0
-45 -38 0
7 1 35 0
-7 -1 0
-7 -35 0
-1 -35 0
18 44 5 0
-18 -44 0
-18 -5 0
-44 -5 0
37 31 28 0
-37 -31 0
-37 -28 0
-31 -28 0
2 44 33 0
-2 -44 0
-2 -33 0
-44 -33 0
7 24 40 0
-7 -24 0
-7 -40 0
-24 -40 0
24 20 8 0
-24 -20 0
-24 -8 0
-20 -8 0
40 7 3 0
-40 -7 0
-40 -3 0
-7 -3 0
41 45 13 0
-41 -45 0
-41 -13 0
-45 -13 0
23 32 24 0
-23 -32 0
-23 -24 0
-32 -24 0
37 39 19 0
-37 -39 0
-37 -19 0
-39 -19 0
13 11 36 0
-13 -11 0
-13 -36 0
-11 -36 0
22 8 3 0
-22 -8 0
-22 -3 0
-8 -3 0
19 9 36 0
-19 -9 0
-19 -36 0
-9 -36 0
12 27 19 0
-12 -27 0
-12 -19 0
-27 -19 0
7 10 11 0
-7 -10 0
-7 -11 0
-10 -11 0
44 10 39 0
-44 -10 0
-44 -39 0
-10 -39 0
21 35 15 0
-21 -35 0
-21 -15 0
-35 -15 0
