c family=1-in-3-SAT n=45 instance=8 seed=3881676977 models=3072
c order 21 37 17 12 34 26 6 3 44 19 14 30 9 29 8 28 13 38 15 31 39 1 2 40 24 22 23 25 5 7 33 43 35 10 32 20 27 18 41 4 42 16 36 45 11
c order 37 2 9 23 38 41 17 19 25 1 28 36 11 21 40 10 43 34 42 5 13 33 20 7 12 29 8 39 26 32 15 24 30 35 3 16 6 45 18 31 4 27 44 22 14
c order 2 12 23 30 37 29 22 27 44 31 36 5 4 19 28 10 7 13 1 25 39 15 42 18 26 35 6 33 34 41 20 8 14 43 38 3 40 11 17 24 16 21 9 45 32
c order 21 13 40 27 45 25 28 30 24 17 37 7 3 33 18 19 22 29 5 36 39 43 15 38 26 8 6 31 41 44 42 11 2 14 16 34 9 23 4 10 20 35 32 1 12
c order 1 28 34 23 32 41 38 11 13 30 16 5 36 20 39 2 22 40 19 45 7 43 10 18 12 31 14 6 9 4 21 8 33 15 25 3 24 37 26 44 35 27 17 42 29
c order 3 5 24 16 41 18 14 12 8 21 13 9 32 34 25 29 23 28 36 17 33 22 1 15 11 39 40 35 7 44 30 20 4 26 19 42 38 10 6 43 45 37 31 2 27
c order 16 30 24 9 20 28 45 10 17 21 37 44 39 15 29 3 6 42 38 5 4 27 18 23 43 33 32 35 31 8 14 1 19 13 40 2 34 12 36 26 22 7 41 11 25
c order 34 10 8 6 28 26 25 11 43 33 24 39 5 23 19 45 42 38 15 2 7 44 36 18 32 21 27 40 16 22 1 13 29 30 20 37 35 17 9 41 3 4 12 14 31
c order 9 39 25 6 3 28 33 17 1 37 35 11 5 41 23 29 30 12 44 22 38 31 7 36 21 42 16 19 40 34 14 32 2 8 15 18 45 13 43 4 27 20 10 26 24
c order 38 11 43 44 27 26 19 6 12 36 16 2 31 21 1 13 3 34 41 14 30 7 25 10 9 33 40 15 18 24 29 8 5 17 20 23 39 22 37 42 32 35 28 4 45
p cnf 45 108
41 23 35 0
-41 -23 0
-41 -35 0
-23 -35 0
14 36 43 0
-14 -36 0
-14 -43 0
-36 -43 0
43 33 26 0
-43 -33 0
-43 -26 0
-33 -26 0
1 13 27 0
-1 -13 0
-1 -27 0
-13 -27 0
37 31 9 0
-37 -31 0
-37 -9 0
-31 -9 0
8 41 9 0
-8 -41 0
-8 -9 0
-41 -9 0
28 5 33 0
-28 -5 0
-28 -33 0
-5 -33 0
38 40 10 0
-38 -40 0
-38 -10 0
-40 -10 0
30 9 8 0
-30 -9 0
-30 -8 0
-9 -8 0
9 12 16 0
-9 -12 0
-9 -16 0
-12 -16 0
17 32 1 0
-17 -32 0
-17 -1 0
-32 -1 0
36 10 6 0
-36 -10 0
-36 -6 0
-10 -6 0
10 19 37 0
-10 -19 0
-10 -37 0
-19 -37 0
17 39 27 0
-17 -39 0
-17 -27 0
-39 -27 0
5 22 6 0
-5 -22 0
-5 -6 0
-22 -6 0
9 35 27 0
-9 -35 0
-9 -27 0
-35 -27 0
7 4 10 0
-7 -4 0
-7 -10 0
-4 -10 0
6 28 21 0
-6 -28 0
-6 -21 0
-28 -21 0
39 20 30 0
-39 -20 0
-39 -30 0
-20 -30 0
28 34 38 0
-28 -34 0
-28 -38 0
-34 -38 0
36 31 29 0
-36 -31 0
-36 -29 0
-31 -29 0
45 11 39 0
-45 -11 0
-45 -39 0
-11 -39 0
14 21 43 0
-14 -21 0
-14 -43 0
-21 -43 0
9 14 34 0
-9 -14 0
-9 -34 0
-14 -34 0
17 14 23 0
-17 -14 0
-17 -23 0
-14 -23 0
16 37 27 0
-16 -37 0
-16 -27 0
-37 -27 0
3 9 38 0
-3 -9 0
-3 -38 0
-9 -38 0
