c family=1-in-3-SAT n=45 instance=3 seed=3881676977 models=4096
c order 33 14 30 41 4 21 31 26 1 12 19 23 28 40 25 9 6 8 35 22 11 10 17 24 34 45 37 3 7 32 13 38 16 5 36 15 27 39 20 42 43 2 29 44 18
c order 41 23 15 26 25 20 18 4 30 12 10 14 9 8 32 1 3 19 17 44 13 45 5 6 43 24 39 35 33 28 38 37 27 22 34 21 40 29 2 42 31 7 11 16 36
c order 44 34 23 2 32 22 9 10 17 6 8 21 13 14 26 25 36 24 20 40 30 41 4 38 42 39 7 19 28 29 43 18 31 16 37 35 45 11 15 3 5 1 12 33 27
c order 10 18 17 39 31 16 13 28 21 6 5 32 4 30 44 33 1 19 2 36 35 11 24 37 41 25 26 34 12 9 42 8 27 45 43 22 23 29 20 15 3 7 38 40 14
c order 15 24 30 23 4 11 31 33 36 6 32 27 43 3 38 39 10 25 34 26 8 9 5 16 37 22 45 29 40 12 19 44 21 17 14 41 28 1 35 2 42 13 20 18 7
c order 40 2 29 24 26 1 5 10 41 36 33 22 25 35 20 14 17 13 6 18 44 31 8 3 30 42 9 15 27 45 12 32 11 23 39 38 19 28 7 43 37 16 21 34 4
c order 31 8 35 30 24 29 32 36 16 43 26 12 19 23 37 18 27 33 21 20 40 25 6 15 9 41 44 17 10 4 2 14 22 7 39 3 5 42 38 28 11 1 34 45 13
c order 18 32 42 43 30 8 39 34 22 9 12 15 28 13 37 44 35 6 36 26 40 29 41 33 14 11 7 4 17 27 16 25 20 10 2 19 21 24 23 31 5 38 45 1 3
c order 36 12 41 2 6 35 37 30 27 43 7 38 1 32 34 15 24 13 19 11 31 10 22 44 16 3 21 23 4 25 42 18 8 45 33 29 5 14 20 26 39 17 40 9 28
c order 22 2 16 24 20 1 3 42 36 14 39 23 10 30 21 34 35 28 6 29 4 38 31 15 18 37 32 12 26 13 8 41 5 33 11 44 40 9 45 27 19 7 17 25 43
p cnf 45 108
5 34 38 0
-5 -34 0
-5 -38 0
-34 -38 0
43 21 15 0
-43 -21 0
-43 -15 0
-21 -15 0
41 31 44 0
-41 -31 0
-41 -44 0
-31 -44 0
37 23 6 0
-37 -23 0
-37 -6 0
-23 -6 0
21 45 29 0
-21 -45 0
-21 -29 0
-45 -29 0
14 10 24 0
-14 -10 0
-14 -24 0
-10 -24 0
19 45 10 0
-19 -45 0
-19 -10 0
-45 -10 0
32 4 38 0
-32 -4 0
-32 -38 0
-4 -38 0
26 42 17 0
-26 -42 0
-26 -17 0
-42 -17 0
14 1 6 0
-14 -1 0
-14 -6 0
-1 -6 0
15 20 39 0
-15 -20 0
-15 -39 0
-20 -39 0
37 40 31 0
-37 -40 0
-37 -31 0
-40 -31 0
22 23 24 0
-22 -23 0
-22 -24 0
-23 -24 0
39 37 41 0
-39 -37 0
-39 -41 0
-37 -41 0
15 7 16 0
-15 -7 0
-15 -16 0
-7 -16 0
43 7 11 0
-43 -7 0
-43 -11 0
-7 -11 0
41 31 15 0
-41 -31 0
-41 -15 0
-31 -15 0
4 38 34 0
-4 -38 0
-4 -34 0
-38 -34 0
19 16 22 0
-19 -16 0
-19 -22 0
-16 -22 0
17 23 25 0
-17 -23 0
-17 -25 0
-23 -25 0
24 14 4 0
-24 -14 0
-24 -4 0
-14 -4 0
14 23 17 0
-14 -23 0
-14 -17 0
-23 -17 0
18 1 39 0
-18 -1 0
-18 -39 0
-1 -39 0
37 35 29 0
-37 -35 0
-37 -29 0
-35 -29 0
30 32 44 0
-30 -32 0
-30 -44 0
-32 -44 0
28 45 4 0
-28 -45 0
-28 -4 0
-45 -4 0
44 34 29 0
-44 -34 0
-44 -29 0
-34 -29 0
