c family=1-in-3-SAT n=45 instance=6 seed=3881676977 models=768
c order 11 15 44 38 41 32 8 35 7 37 28 43 29 20 34 6 1 5 14 31 19 23 40 45 12 26 4 3 33 22 18 36 30 10 2 25 9 24 39 16 21 17 27 13 42
c order 8 1 38 3 39 25 17 20 42 35 43 7 31 21 13 29 18 28 23 14 16 15 24 26 32 10 41 22 9 34 6 37 44 2 4 40 30 5 36 27 33 45 11 19 12
c order 12 39 40 9 30 28 16 43 11 18 29 22 10 14 8 38 27 45 41 15 13 21 24 19 44 2 1 17 31 42 7 36 34 20 37 4 3 26 33 25 5 6 32 35 23
c order 39 1 24 20 21 33 2 8 29 19 35 32 17 18 44 14 11 6 37 9 22 16 38 3 12 25 43 40 4 41 26 27 34 23 30 31 42 13 45 10 36 15 7 5 28
c order 34 16 17 15 11 30 40 27 9 32 1 36 31 39 13 28 24 45 33 18 3 29 7 21 23 5 38 41 8 35 42 4 12 37 2 43 6 20 14 19 22 44 10 25 26
c order 32 3 38 8 16 45 21 44 43 6 5 29 41 26 17 37 27 19 14 12 18 13 9 28 1 40 31 36 23 20 15 4 34 33 39 35 30 22 42 25 11 2 10 7 24
c order 17 13 8 25 11 14 29 33 23 15 34 31 20 35 28 43 12 21 44 27 40 3 24 5 7 18 2 6 19 22 30 26 1 37 4 9 32 39 38 41 45 16 42 10 36
c order 33 44 21 13 26 25 11 31 7 36 18 42 17 41 4 45 28 9 22 5 16 1 15 29 38 23 40 34 3 32 6 27 20 30 2 39 14 10 35 43 24 37 12 19 8
c order 43 12 42 17 4 6 1 29 15 14 10 7 45 33 26 25 20 2 38 13 31 21 40 16 41 32 28 34 19 3 11 23 36 30 35 9 5 22 18 44 37 8 27 39 24
c order 13 25 45 41 22 30 38 23 40 7 43 3 21 20 29 14 8 35 10 26 9 5 6 34 36 19 31 16 24 2 32 1 27 15 11 4 37 28 17 42 39 18 33 12 44
p cnf 45 108
22 17 2 0
-22 -17 0
-22 -2 0
-17 -2 0
4 23 19 0
-4 -23 0
-4 -19 0
-23 -19 0
1 8 34 0
-1 -8 0
-1 -34 0
-8 -34 0
3 13 28 0
-3 -13 0
-3 -28 0
-13 -28 0
4 38 37 0
-4 -38 0
-4 -37 0
-38 -37 0
23 29 34 0
-23 -29 0
-23 -34 0
-29 -34 0
7 40 29 0
-7 -40 0
-7 -29 0
-40 -29 0
44 1 23 0
-44 -1 0
-44 -23 0
-1 -23 0
7 35 9 0
-7 -35 0
-7 -9 0
-35 -9 0
11 41 26 0
-11 -41 0
-11 -26 0
-41 -26 0
9 6 40 0
-9 -6 0
-9 -40 0
-6 -40 0
24 31 6 0
-24 -31 0
-24 -6 0
-31 -6 0
14 21 38 0
-14 -21 0
-14 -38 0
-21 -38 0
16 5 21 0
-16 -5 0
-16 -21 0
-5 -21 0
27 1 17 0
-27 -1 0
-27 -17 0
-1 -17 0
6 37 3 0
-6 -37 0
-6 -3 0
-37 -3 0
25 7 35 0
-25 -7 0
-25 -35 0
-7 -35 0
18 7 19 0
-18 -7 0
-18 -19 0
-7 -19 0
7 37 19 0
-7 -37 0
-7 -19 0
-37 -19 0
12 7 30 0
-12 -7 0
-12 -30 0
-7 -30 0
15 22 12 0
-15 -22 0
-15 -12 0
-22 -12 0
3 25 9 0
-3 -25 0
-3 -9 0
-25 -9 0
14 10 11 0
-14 -10 0
-14 -11 0
-10 -11 0
36 38 33 0
-36 -38 0
-36 -33 0
-38 -33 0
2 30 28 0
-2 -30 0
-2 -28 0
-30 -28 0
31 28 24 0
-31 -28 0
-31 -24 0
-28 -24 0
6 12 1 0
-6 -12 0
-6 -1 0
-12 -1 0
