c family=1-in-3-SAT n=45 instance=5 seed=3881676977 models=2048
c order 37 28 11 34 17 44 40 36 38 27 25 16 8 19 4 32 20 33 41 15 13 7 45 42 23 35 26 22 1 21 43 6 3 29 2 5 39 14 31 30 10 24 18 12 9
c order 19 6 40 31 16 9 20 5 44 1 25 15 37 29 41 10 45 28 26 30 18 12 33 36 13 35 8 11 14 22 7 42 39 24 32 4 34 21 38 27 17 43 23 2 3
c order 17 15 1 9 8 28 33 38 13 7 4 20 6 29 16 11 22 3 45 40 30 36 25 2 14 27 23 31 12 26 18 19 35 41 24 34 39 21 42 10 44 43 37 32 5
c order 32 9 4 40 14 10 18 5 35 6 21 7 20 25 37 13 22 11 45 31 23 26 33 17 29 28 39 8 36 12 15 3 41 24 42 1 38 16 44 34 19 30 43 2 27
c order 21 23 39 31 11 33 3 35 37 36 12 16 1 25 10 32 26 19 28 17 24 43 15 22 2 13 29 6 4 42 41 45 34 40 5 7 14 20 44 27 38 30 9 8 18
c order 7 8 5 32 21 1 39 15 31 26 34 4 11 19 41 38 29 22 43 40 44 10 2 37 20 28 12 6 24 30 27 35 17 3 42 9 18 36 45 23 14 16 25 13 33
c order 25 42 24 38 32 37 10 39 17 20 41 22 18 8 43 4 30 44 3 29 5 19 40 33 7 6 12 27 21 11 35 26 14 15 1 2 13 9 36 34 28 16 23 31 45
c order 40 23 41 5 34 44 18 39 38 21 14 12 36 4 10 28 30 1 8 32 26 17 13 37 31 24 35 11 27 22 25 19 3 43 16 20 42 6 29 2 7 9 33 15 45
c order 41 35 30 44 24 45 4 5 15 39 10 19 25 17 23 37 8 13 3 14 28 1 7 38 33 32 36 42 2 21 22 11 31 43 27 20 40 18 9 29 16 26 6 12 34
c order 31 27 37 9 17 16 44 25 39 34 21 45 6 22 40 26 29 18 19 3 23 2 20 38 13 41 43 8 10 24 32 7 30 33 36 28 5 14 15 11 35 12 4 42 1
p cnf 45 108
2 19 25 0
-2 -19 0
-2 -25 0
-19 -25 0
28 25 17 0
-28 -25 0
-28 -17 0
-25 -17 0
26 11 31 0
-26 -11 0
-26 -31 0
-11 -31 0
10 38 42 0
-10 -38 0
-10 -42 0
-38 -42 0
20 12 1 0
-20 -12 0
-20 -1 0
-12 -1 0
45 38 16 0
-45 -38 0
-45 -16 0
-38 -16 0
43 6 13 0
-43 -6 0
-43 -13 0
-6 -13 0
11 21 43 0
-11 -21 0
-11 -43 0
-21 -43 0
21 30 33 0
-21 -30 0
-21 -33 0
-30 -33 0
29 26 15 0
-29 -26 0
-29 -15 0
-26 -15 0
45 2 4 0
-45 -2 0
-45 -4 0
-2 -4 0
16 38 10 0
-16 -38 0
-16 -10 0
-38 -10 0
4 18 27 0
-4 -18 0
-4 -27 0
-18 -27 0
31 1 14 0
-31 -1 0
-31 -14 0
-1 -14 0
16 1 17 0
-16 -1 0
-16 -17 0
-1 -17 0
1 15 30 0
-1 -15 0
-1 -30 0
-15 -30 0
9 29 20 0
-9 -29 0
-9 -20 0
-29 -20 0
44 33 11 0
-44 -33 0
-44 -11 0
-33 -11 0
24 25 40 0
-24 -25 0
-24 -40 0
-25 -40 0
40 42 4 0
-40 -42 0
-40 -4 0
-42 -4 0
43 27 37 0
-43 -27 0
-43 -37 0
-27 -37 0
4 18 36 0
-4 -18 0
-4 -36 0
-18 -36 0
30 22 14 0
-30 -22 0
-30 -14 0
-22 -14 0
6 42 32 0
-6 -42 0
-6 -32 0
-42 -32 0
11 30 20 0
-11 -30 0
-11 -20 0
-30 -20 0
33 26 2 0
-33 -26 0
-33 -2 0
-26 -2 0
24 3 21 0
-24 -3 0
-24 -21 0
-3 -21 0
