c family=1-in-3-SAT n=45 instance=2 seed=3881676977 models=1280
c order 20 21 2 38 9 4 8 44 13 23 15 36 29 5 31 24 27 3 37 6 22 25 41 11 26 40 19 42 14 12 43 1 16 10 33 32 35 28 34 45 18 7 39 30 17
c order 39 13 8 42 1 7 40 37 5 22 12 29 28 6 15 20 3 23 31 38 36 44 35 18 27 45 21 25 14 11 9 34 30 32 4 41 10 16 33 43 2 19 26 17 24
c order 25 15 43 18 17 32 36 6 2 23 39 10 33 26 3 30 38 12 11 41 16 34 7 24 5 42 35 20 29 9 4 13 44 31 37 14 1 27 45 40 22 19 28 21 8
c order 31 20 4 30 22 16 15 19 7 10 3 11 28 13 23 27 2 14 39 35 26 41 5 45 36 6 18 37 40 8 24 38 33 43 44 25 34 1 9 29 12 21 32 42 17
c order 11 26 40 33 20 28 31 6 45 35 7 14 9 17 23 13 18 30 42 29 44 24 8 38 4 27 34 39 36 19 5 10 3 37 41 43 16 25 15 21 2 22 1 12 32
c order 39 24 36 13 31 5 23 44 34 38 22 35 41 27 21 7 9 19 1 2 10 37 18 16 32 33 11 8 45 17 40 6 25 30 20 43 29 12 42 14 4 3 15 26 28
c order 26 43 8 15 21 9 3 44 37 25 5 42 36 31 38 27 10 2 32 16 45 35 17 18 29 22 28 12 11 19 20 7 40 6 33 30 41 14 1 4 39 24 13 23 34
c order 34 28 40 43 37 42 17 36 39 31 27 1 8 44 18 29 5 32 6 22 4 13 24 38 14 12 11 2 23 7 35 26 3 45 15 16 41 25 9 20 10 19 33 21 30
c order 42 14 27 1 13 5 17 22 33 12 36 4 45 16 23 43 28 39 31 20 6 11 41 18 10 25 29 9 8 3 35 19 37 2 7 34 40 44 30 26 15 24 38 32 21
c order 21 7 3 18 16 41 42 8 13 9 14 17 44 19 45 5 37 10 43 2 36 40 4 24 25 27 29 11 31 6 20 30 23 12 33 15 35 28 1 32 22 38 34 26 39
p cnf 45 108
2 30 25 0
-2 -30 0
-2 -25 0
-30 -25 0
20 16 42 0
-20 -16 0
-20 -42 0
-16 -42 0
38 39 43 0
-38 -39 0
-38 -43 0
-39 -43 0
29 22 33 0
-29 -22 0
-29 -33 0
-22 -33 0
36 7 38 0
-36 -7 0
-36 -38 0
-7 -38 0
13 39 24 0
-13 -39 0
-13 -24 0
-39 -24 0
36 41 13 0
-36 -41 0
-36 -13 0
-41 -13 0
4 35 37 0
-4 -35 0
-4 -37 0
-35 -37 0
19 12 10 0
-19 -12 0
-19 -10 0
-12 -10 0
27 18 9 0
-27 -18 0
-27 -9 0
-18 -9 0
31 30 24 0
-31 -30 0
-31 -24 0
-30 -24 0
7 11 45 0
-7 -11 0
-7 -45 0
-11 -45 0
5 38 18 0
-5 -38 0
-5 -18 0
-38 -18 0
7 21 25 0
-7 -21 0
-7 -25 0
-21 -25 0
40 22 8 0
-40 -22 0
-40 -8 0
-22 -8 0
31 26 35 0
-31 -26 0
-31 -35 0
-26 -35 0
16 19 32 0
-16 -19 0
-16 -32 0
-19 -32 0
20 13 3 0
-20 -13 0
-20 -3 0
-13 -3 0
24 1 11 0
-24 -1 0
-24 -11 0
-1 -11 0
23 44 19 0
-23 -44 0
-23 -19 0
-44 -19 0
20 36 15 0
-20 -36 0
-20 -15 0
-36 -15 0
34 35 6 0
-34 -35 0
-34 -6 0
-35 -6 0
37 30 19 0
-37 -30 0
-37 -19 0
-30 -19 0
2 5 39 0
-2 -5 0
-2 -39 0
-5 -39 0
16 30 39 0
-16 -30 0
-16 -39 0
-30 -39 0
23 8 7 0
-23 -8 0
-23 -7 0
-8 -7 0
44 18 40 0
-44 -18 0
-44 -40 0
-18 -40 0
