c family=1-in-3-SAT n=45 instance=9 seed=3881676977 models=7680
c order 33 14 43 41 8 5 2 25 42 12 28 4 20 9 1 34 15 32 6 11 45 23 3 35 44 40 7 26 30 19 31 21 39 37 27 16 22 29 24 13 18 10 36 17 38
c order 40 11 39 28 35 30 19 33 38 34 44 7 6 27 25 45 20 9 3 21 17 2 42 43 22 16 12 24 8 29 18 14 1 37 41 13 26 36 15 4 10 23 5 31 32
c order 15 31 37 14 23 22 39 40 7 27 21 9 42 13 44 12 28 19 45 32 33 24 18 5 4 26 35 17 11 8 34 1 29 30 41 2 10 25 36 43 20 16 3 38 6
c order 22 36 23 3 24 30 21 39 45 29 18 16 34 37 11 38 33 20 28 19 35 26 32 13 2 10 25 27 31 44 42 4 1 14 7 5 40 8 41 6 15 17 9 12 43
c order 42 2 27 16 4 3 38 1 31 34 5 26 20 17 29 6 40 13 43 12 25 10 36 8 19 21 18 14 24 32 33 30 28 15 39 23 41 44 11 37 45 7 9 22 35
c order 41 40 14 24 18 36 2 25 1 29 15 6 26 38 28 20 32 45 39 30 4 42 31 22 7 5 27 44 11 43 12 35 21 13 19 10 16 9 8 34 3 23 17 33 37
c order 30 14 44 43 24 2 42 26 39 23 11 33 15 18 3 6 28 12 31 38 9 40 16 27 45 41 22 32 10 37 1 4 5 34 29 20 19 25 13 21 8 36 35 7 17
c order 42 28 7 32 2 6 43 18 33 31 30 29 36 38 16 39 37 5 20 35 12 14 25 44 10 13 41 45 1 3 26 22 19 17 15 9 27 24 40 4 8 11 34 21 23
c order 19 13 6 11 21 36 2 15 16 37 12 29 14 27 22 33 25 45 10 9 17 41 4 34 30 38 42 28 8 18 26 43 39 1 44 20 32 24 31 3 5 7 23 40 35
c order 41 35 5 18 25 12 16 26 11 33 32 22 42 13 36 38 9 4 44 21 20 34 43 27 2 8 15 14 45 7 28 24 37 29 23 30 17 3 40 6 19 31 1 39 10
p cnf 45 108
40 41 39 0
-40 -41 0
-40 -39 0
-41 -39 0
25 12 44 0
-25 -12 0
-25 -44 0
-12 -44 0
5 19 29 0
-5 -19 0
-5 -29 0
-19 -29 0
5 10 6 0
-5 -10 0
-5 -6 0
-10 -6 0
40 14 12 0
-40 -14 0
-40 -12 0
-14 -12 0
12 21 40 0
-12 -21 0
-12 -40 0
-21 -40 0
21 37 41 0
-21 -37 0
-21 -41 0
-37 -41 0
32 14 44 0
-32 -14 0
-32 -44 0
-14 -44 0
12 7 15 0
-12 -7 0
-12 -15 0
-7 -15 0
1 3 7 0
-1 -3 0
-1 -7 0
-3 -7 0
1 14 27 0
-1 -14 0
-1 -27 0
-14 -27 0
21 3 10 0
-21 -3 0
-21 -10 0
-3 -10 0
23 20 38 0
-23 -20 0
-23 -38 0
-20 -38 0
23 13 8 0
-23 -13 0
-23 -8 0
-13 -8 0
12 44 17 0
-12 -44 0
-12 -17 0
-44 -17 0
39 2 9 0
-39 -2 0
-39 -9 0
-2 -9 0
36 11 5 0
-36 -11 0
-36 -5 0
-11 -5 0
37 26 21 0
-37 -26 0
-37 -21 0
-26 -21 0
26 21 33 0
-26 -21 0
-26 -33 0
-21 -33 0
9 45 17 0
-9 -45 0
-9 -17 0
-45 -17 0
18 37 2 0
-18 -37 0
-18 -2 0
-37 -2 0
42 7 5 0
-42 -7 0
-42 -5 0
-7 -5 0
26 6 35 0
-26 -6 0
-26 -35 0
-6 -35 0
5 24 37 0
-5 -24 0
-5 -37 0
-24 -37 0
2 45 9 0
-2 -45 0
-2 -9 0
-45 -9 0
7 15 10 0
-7 -15 0
-7 -10 0
-15 -10 0
29 15 12 0
-29 -15 0
-29 -12 0
-15 -12 0
