c family=1-in-3-SAT n=45 instance=1 seed=3881676977 models=3456
c order 10 32 35 30 25 43 37 24 36 29 18 42 33 2 22 20 41 15 3 13 23 19 9 17 5 12 11 7 34 31 21 44 40 26 45 4 6 14 16 27 1 8 38 39 28
c order 40 9 21 42 14 18 5 37 32 38 2 10 41 1 33 7 3 44 29 17 12 26 4 45 16 28 43 6 19 20 23 34 22 35 30 13 8 25 39 11 15 31 27 24 36
c order 12 35 34 1 11 40 43 23 26 28 10 24 2 27 30 36 4 6 32 19 31 16 39 5 14 9 15 22 44 13 42 7 37 41 17 8 33 29 45 20 18 21 3 38 25
c order 28 20 43 40 31 4 18 22 14 33 5 25 34 36 13 29 45 15 30 7 1 26 10 8 39 9 42 24 21 19 2 44 38 23 16 12 35 41 17 27 3 11 37 32 6
c order 26 11 44 1 43 18 3 40 10 27 38 24 33 25 37 28 41 22 45 14 39 8 17 2 36 13 15 16 23 12 5 42 4 21 6 9 19 32 7 34 31 29 35 30 20
c order 18 28 4 14 10 6 12 37 1 20 13 21 43 16 40 23 26 42 11 8 38 29 34 22 31 7 36 3 19 9 24 33 5 15 44 17 2 32 30 45 25 39 27 35 41
c order 34 21 41 23 38 26 15 24 11 16 13 18 9 30 35 39 1 36 8 14 6 2 27 44 22 17 19 4 3 29 37 45 40 7 31 12 5 32 42 10 25 43 33 28 20
c order 35 45 9 44 5 18 34 15 40 25 37 21 42 30 8 16 43 17 10 36 20 29 33 27 41 39 31 3 22 11 12 14 6 24 4 13 2 19 7 23 38 32 1 26 28
c order 24 39 7 3 10 4 5 9 33 1 44 32 27 36 6 43 40 12 23 22 13 41 31 20 18 34 35 8 14 28 19 25 15 16 30 26 38 11 2 21 17 45 42 29 37
c order 13 42 15 6 33 21 10 27 43 16 35 36 4 22 11 34 25 40 44 39 20 41 26 30 14 28 12 45 18 1 31 3 2 17 29 9 8 19 23 24 32 37 7 5 38
p cnf 45 108
13 29 1 0
-13 -29 0
-13 -1 0
-29 -1 0
2 45 39 0
-2 -45 0
-2 -39 0
-45 -39 0
14 24 12 0
-14 -24 0
-14 -12 0
-24 -12 0
33 23 19 0
-33 -23 0
-33 -19 0
-23 -19 0
33 29 16 0
-33 -29 0
-33 -16 0
-29 -16 0
14 20 11 0
-14 -20 0
-14 -11 0
-20 -11 0
25 41 21 0
-25 -41 0
-25 -21 0
-41 -21 0
30 41 10 0
-30 -41 0
-30 -10 0
-41 -10 0
43 11 19 0
-43 -11 0
-43 -19 0
-11 -19 0
37 31 13 0
-37 -31 0
-37 -13 0
-31 -13 0
38 44 26 0
-38 -44 0
-38 -26 0
-44 -26 0
25 35 11 0
-25 -35 0
-25 -11 0
-35 -11 0
19 29 5 0
-19 -29 0
-19 -5 0
-29 -5 0
35 30 1 0
-35 -30 0
-35 -1 0
-30 -1 0
43 34 22 0
-43 -34 0
-43 -22 0
-34 -22 0
34 4 39 0
-34 -4 0
-34 -39 0
-4 -39 0
31 14 16 0
-31 -14 0
-31 -16 0
-14 -16 0
8 6 43 0
-8 -6 0
-8 -43 0
-6 -43 0
13 35 41 0
-13 -35 0
-13 -41 0
-35 -41 0
8 14 22 0
-8 -14 0
-8 -22 0
-14 -22 0
7 31 14 0
-7 -31 0
-7 -14 0
-31 -14 0
20 19 11 0
-20 -19 0
-20 -11 0
-19 -11 0
26 14 4 0
-26 -14 0
-26 -4 0
-14 -4 0
42 27 32 0
-42 -27 0
-42 -32 0
-27 -32 0
4 5 10 0
-4 -5 0
-4 -10 0
-5 -10 0
28 7 40 0
-28 -7 0
-28 -40 0
-7 -40 0
20 10 41 0
-20 -10 0
-20 -41 0
-10 -41 0
