c family=1-in-3-SAT n=50 instance=0 seed=3881676977 models=6144
c order 9 23 37 18 39 50 42 11 1 16 25 29 27 26 32 13 28 45 5 35 40 14 49 15 44 17 34 47 41 8 33 7 46 4 36 48 2 38 31 10 22 24 20 6 12 19 3 21 43 30
c order 5 30 11 45 47 23 43 4 35 29 42 6 27 9 24 18 44 26 37 8 34 38 1 48 28 15 20 22 16 19 13 21 14 12 32 10 39 50 40 33 41 17 31 46 3 2 7 49 25 36
c order 16 11 2 3 6 14 4 44 24 27 12 21 32 5 26 41 19 45 31 48 47 35 42 39 43 10 50 25 46 13 28 15 17 49 33 34 30 40 1 7 23 22 8 18 29 9 38 20 36 37
c order 45 10 24 43 23 8 50 12 19 11 31 13 4 29 17 21 9 46 37 42 14 28 5 2 26 7 40 48 22 32 38 6 44 49 20 27 15 30 16 35 39 47 36 25 34 3 18 33 1 41
c order 11 12 6 23 38 5 16 26 44 14 43 10 22 29 40 49 48 50 34 36 3 46 1 33 42 7 37 45 47 39 8 13 18 35 32 9 27 28 2 30 41 25 4 24 19 20 21 31 17 15
c order 46 25 17 36 32 50 6 21 3 43 49 28 13 38 16 30 19 10 27 14 47 8 29 2 7 23 1 42 24 39 15 18 35 9 12 40 31 26 34 41 44 5 11 33 22 4 48 45 20 37
c order 5 19 26 10 41 40 28 18 37 45 35 16 4 48 34 30 32 8 2 13 49 42 7 12 33 25 46 47 21 29 6 24 38 31 44 36 23 27 15 20 39 9 11 14 22 43 17 1 3 50
c order 35 36 44 29 3 33 17 22 32 40 37 30 49 24 6 42 7 10 9 20 16 1 27 8 11 39 31 12 25 28 15 45 34 21 46 43 13 5 38 14 48 26 19 41 47 23 50 18 4 2
c order 7 42 41 6 10 31 4 8 11 5 40 39 3 46 35 23 43 33 19 48 9 50 18 32 16 28 12 14 34 1 36 47 21 26 17 13 22 37 20 15 25 27 2 45 29 38 30 49 24 44
c order 29 18 32 24 46 47 22 37 3 44 33 27 28 20 48 17 16 36 5 42 38 4 41 13 6 30 25 40 43 34 9 14 49 15 8 12 21 11 10 2 1 23 45 19 50 7 35 39 26 31
p cnf 50 120
3 34 16 0
-3 -34 0
-3 -16 0
-34 -16 0
44 23 43 0
-44 -23 0
-44 -43 0
-23 -43 0
14 41 21 0
-14 -41 0
-14 -21 0
-41 -21 0
30 38 8 0
-30 -38 0
-30 -8 0
-38 -8 0
8 26 11 0
-8 -26 0
-8 -11 0
-26 -11 0
40 35 18 0
-40 -35 0
-40 -18 0
-35 -18 0
2 25 28 0
-2 -25 0
-2 -28 0
-25 -28 0
8 7 34 0
-8 -7 0
-8 -34 0
-7 -34 0
41 11 50 0
-41 -11 0
-41 -50 0
-11 -50 0
50 37 32 0
-50 -37 0
-50 -32 0
-37 -32 0
10 18 11 0
-10 -18 0
-10 -11 0
-18 -11 0
26 29 17 0
-26 -29 0
-26 -17 0
-29 -17 0
46 10 4 0
-46 -10 0
-46 -4 0
-10 -4 0
45 11 16 0
-45 -11 0
-45 -16 0
-11 -16 0
44 34 21 0
-44 -34 0
-44 -21 0
-34 -21 0
16 14 31 0
-16 -14 0
-16 -31 0
-14 -31 0
44 13 10 0
-44 -13 0
-44 -10 0
-13 -10 0
4 34 44 0
-4 -34 0
-4 -44 0
-34 -44 0
38 12 39 0
-38 -12 0
-38 -39 0
-12 -39 0
49 43 47 0
-49 -43 0
-49 -47 0
-43 -47 0
32 38 42 0
-32 -38 0
-32 -42 0
-38 -42 0
19 4 33 0
-19 -4 0
-19 -33 0
-4 -33 0
3 36 13 0
-3 -36 0
-3 -13 0
-36 -13 0
20 45 25 0
-20 -45 0
-20 -25 0
-45 -25 0
31 21 6 0
-31 -21 0
-31 -6 0
-21 -6 0
35 13 36 0
-35 -13 0
-35 -36 0
-13 -36 0
8 38 40 0
-8 -38 0
-8 -40 0
-38 -40 0
41 7 26 0
-41 -7 0
-41 -26 0
-7 -26 0
48 1 42 0
-48 -1 0
-48 -42 0
-1 -42 0
48 6 17 0
-48 -6 0
-48 -17 0
-6 -17 0
