c family=1-in-3-SAT n=50 instance=1 seed=3881676977 models=3840
c order 27 22 8 16 29 7 24 4 3 41 12 43 45 30 32 28 47 50 23 36 2 1 44 17 20 34 9 31 6 40 18 25 37 5 35 13 14 26 19 33 46 11 21 38 39 49 48 42 10 15
c order 18 47 45 4 24 27 49 21 16 41 40 3 17 25 10 43 38 48 13 35 26 8 50 6 1 36 32 9 37 19 30 29 5 44 33 42 11 46 34 2 12 20 23 22 7 28 14 31 39 15
c order 27 50 36 35 3 28 44 31 47 18 14 34 30 39 23 33 22 1 21 49 19 42 5 45 12 38 10 7 41 17 2 37 15 4 43 48 29 13 8 16 46 9 26 32 24 20 11 6 40 25
c order 25 14 31 32 26 49 24 23 21 10 29 6 50 1 9 8 48 41 35 39 7 18 27 44 2 11 28 5 36 3 19 38 22 46 45 15 4 43 47 17 16 40 33 37 12 30 34 20 13 42
c order 30 37 17 32 5 43 47 31 45 40 27 12 49 14 50 35 42 16 11 18 24 10 2 48 1 6 28 29 44 4 33 41 46 20 15 36 39 8 26 22 9 3 34 23 7 21 13 19 38 25
c order 17 16 42 25 26 33 36 50 39 24 4 49 38 11 14 5 41 21 13 32 20 43 7 23 18 40 19 37 45 1 22 10 9 30 6 47 8 31 35 48 2 28 12 34 29 3 46 27 15 44
c order 31 26 17 47 38 40 27 50 45 33 22 43 6 36 20 14 2 30 24 34 35 21 41 23 44 10 39 8 4 5 12 9 37 7 19 3 15 13 49 42 18 11 1 46 48 16 25 32 29 28
c order 39 8 43 18 30 10 24 45 34 2 1 13 37 25 46 11 35 32 50 17 28 22 9 19 31 3 14 33 20 21 42 40 49 16 36 44 48 29 7 5 27 4 47 26 41 6 15 23 12 38
c order 12 43 29 26 39 38 23 45 50 41 36 22 6 4 30 8 37 32 47 42 34 49 7 24 2 9 19 14 28 48 31 5 18 35 27 17 25 40 3 44 16 11 13 20 33 21 10 1 15 46
c order 22 45 29 15 26 4 25 39 28 11 44 40 2 34 43 31 41 7 23 3 47 27 20 5 48 30 18 17 46 12 24 9 21 10 1 38 50 33 35 8 42 16 14 36 49 37 19 32 13 6
p cnf 50 120
50 16 1 0
-50 -16 0
-50 -1 0
-16 -1 0
4 43 17 0
-4 -43 0
-4 -17 0
-43 -17 0
42 28 9 0
-42 -28 0
-42 -9 0
-28 -9 0
38 3 4 0
-38 -3 0
-38 -4 0
-3 -4 0
49 5 17 0
-49 -5 0
-49 -17 0
-5 -17 0
26 29 9 0
-26 -29 0
-26 -9 0
-29 -9 0
22 16 49 0
-22 -16 0
-22 -49 0
-16 -49 0
12 45 5 0
-12 -45 0
-12 -5 0
-45 -5 0
9 17 19 0
-9 -17 0
-9 -19 0
-17 -19 0
40 12 11 0
-40 -12 0
-40 -11 0
-12 -11 0
15 43 49 0
-15 -43 0
-15 -49 0
-43 -49 0
28 44 24 0
-28 -44 0
-28 -24 0
-44 -24 0
27 3 20 0
-27 -3 0
-27 -20 0
-3 -20 0
40 15 20 0
-40 -15 0
-40 -20 0
-15 -20 0
16 42 38 0
-16 -42 0
-16 -38 0
-42 -38 0
39 13 14 0
-39 -13 0
-39 -14 0
-13 -14 0
28 9 2 0
-28 -9 0
-28 -2 0
-9 -2 0
23 42 15 0
-23 -42 0
-23 -15 0
-42 -15 0
50 49 5 0
-50 -49 0
-50 -5 0
-49 -5 0
32 28 49 0
-32 -28 0
-32 -49 0
-28 -49 0
19 11 22 0
-19 -11 0
-19 -22 0
-11 -22 0
45 33 14 0
-45 -33 0
-45 -14 0
-33 -14 0
36 43 41 0
-36 -43 0
-36 -41 0
-43 -41 0
30 31 49 0
-30 -31 0
-30 -49 0
-31 -49 0
41 25 27 0
-41 -25 0
-41 -27 0
-25 -27 0
24 5 40 0
-24 -5 0
-24 -40 0
-5 -40 0
32 45 10 0
-32 -45 0
-32 -10 0
-45 -10 0
17 39 32 0
-17 -39 0
-17 -32 0
-39 -32 0
21 35 30 0
-21 -35 0
-21 -30 0
-35 -30 0
9 33 34 0
-9 -33 0
-9 -34 0
-33 -34 0
