c family=1-in-3-SAT n=50 instance=7 seed=3881676977 models=6144
c order 1 40 32 41 18 49 8 3 22 12 17 50 5 42 16 38 27 19 36 15 26 28 14 4 23 46 29 6 13 2 30 48 35 37 44 43 45 24 11 47 33 10 20 21 9 31 39 25 7 34
c order 40 17 32 29 4 9 36 2 27 46 35 44 43 15 37 34 42 38 22 5 1 3 24 16 7 14 8 50 26 20 6 19 25 30 10 39 13 21 33 45 23 11 47 48 31 49 18 12 28 41
c order 47 13 22 24 36 17 1 5 38 31 34 20 39 9 16 37 11 44 18 45 4 2 32 19 33 48 42 30 49 12 43 27 25 10 21 3 15 14 8 7 40 50 28 46 41 26 6 29 23 35
c order 10 25 6 45 20 34 37 43 26 14 29 18 16 19 13 46 9 35 47 1 15 11 27 39 44 17 38 21 30 41 42 12 7 23 5 8 36 40 33 22 49 32 3 4 48 24 2 31 28 50
c order 26 34 2 31 10 11 33 49 14 6 18 35 20 24 36 15 30 23 17 21 12 13 22 44 46 37 5 9 19 32 8 16 28 43 7 45 3 40 4 1 39 38 29 42 47 48 50 25 41 27
c order 5 40 30 4 48 43 37 16 21 46 1 3 25 19 27 35 28 13 6 22 7 11 26 38 32 10 17 49 44 12 33 36 31 2 8 20 45 39 14 50 42 34 18 9 47 41 24 29 23 15
c order 32 1 16 6 49 44 5 7 26 30 43 23 13 24 17 22 39 8 18 38 33 41 35 12 46 21 28 15 45 27 29 19 2 25 4 37 31 14 47 20 42 40 34 3 11 48 9 50 36 10
c order 14 1 9 24 41 33 11 2 6 12 8 39 23 20 36 18 19 10 47 40 44 42 27 22 30 5 4 43 25 37 34 26 28 16 29 21 46 13 49 7 31 3 45 35 38 17 15 48 50 32
c order 12 48 4 42 3 25 18 8 39 47 21 15 30 23 11 29 13 16 37 9 50 27 38 26 36 43 5 2 40 6 19 41 24 35 10 1 31 45 14 44 28 33 34 17 7 20 49 22 32 46
c order 31 17 7 49 42 22 18 20 40 10 36 25 12 44 23 37 33 38 27 24 29 46 32 15 13 50 2 48 4 11 14 1 8 19 35 39 6 41 43 30 45 47 28 21 34 3 9 26 5 16
p cnf 50 120
8 2 30 0
-8 -2 0
-8 -30 0
-2 -30 0
13 8 46 0
-13 -8 0
-13 -46 0
-8 -46 0
16 7 39 0
-16 -7 0
-16 -39 0
-7 -39 0
4 39 21 0
-4 -39 0
-4 -21 0
-39 -21 0
21 28 34 0
-21 -28 0
-21 -34 0
-28 -34 0
28 11 42 0
-28 -11 0
-28 -42 0
-11 -42 0
39 37 23 0
-39 -37 0
-39 -23 0
-37 -23 0
34 33 35 0
-34 -33 0
-34 -35 0
-33 -35 0
23 43 46 0
-23 -43 0
-23 -46 0
-43 -46 0
36 44 28 0
-36 -44 0
-36 -28 0
-44 -28 0
17 35 41 0
-17 -35 0
-17 -41 0
-35 -41 0
5 13 47 0
-5 -13 0
-5 -47 0
-13 -47 0
18 8 22 0
-18 -8 0
-18 -22 0
-8 -22 0
10 27 25 0
-10 -27 0
-10 -25 0
-27 -25 0
9 45 41 0
-9 -45 0
-9 -41 0
-45 -41 0
44 5 46 0
-44 -5 0
-44 -46 0
-5 -46 0
40 35 46 0
-40 -35 0
-40 -46 0
-35 -46 0
12 36 39 0
-12 -36 0
-12 -39 0
-36 -39 0
13 34 19 0
-13 -34 0
-13 -19 0
-34 -19 0
46 2 34 0
-46 -2 0
-46 -34 0
-2 -34 0
23 17 33 0
-23 -17 0
-23 -33 0
-17 -33 0
31 43 16 0
-31 -43 0
-31 -16 0
-43 -16 0
22 15 27 0
-22 -15 0
-22 -27 0
-15 -27 0
39 22 14 0
-39 -22 0
-39 -14 0
-22 -14 0
15 27 39 0
-15 -27 0
-15 -39 0
-27 -39 0
4 1 15 0
-4 -1 0
-4 -15 0
-1 -15 0
27 22 7 0
-27 -22 0
-27 -7 0
-22 -7 0
45 38 17 0
-45 -38 0
-45 -17 0
-38 -17 0
18 8 36 0
-18 -8 0
-18 -36 0
-8 -36 0
41 14 48 0
-41 -14 0
-41 -48 0
-14 -48 0
