c family=1-in-3-SAT n=50 instance=2 seed=3881676977 models=4608
c order 16 20 13 19 40 43 14 38 12 23 15 37 17 28 36 10 35 18 30 32 34 1 44 33 22 11 6 3 42 27 24 21 7 4 25 8 9 29 48 39 50 46 26 5 41 31 2 45 49 47
c order 50 14 26 31 5 30 18 22 39 46 33 44 10 2 1 20 9 19 23 32 25 34 42 36 49 40 4 48 28 38 15 13 24 3 35 11 7 37 8 41 47 17 45 29 6 21 12 16 27 43
c order 1 23 31 30 6 43 50 36 15 19 38 46 16 24 21 49 26 12 18 10 44 28 34 9 3 14 37 17 41 8 35 4 7 25 2 39 27 45 40 42 13 20 11 33 47 48 32 29 22 5
c order 32 3 25 37 11 31 43 33 34 10 29 16 13 4 36 24 47 21 22 15 40 8 45 41 5 23 14 44 9 28 38 7 12 27 49 35 17 20 30 6 26 48 1 18 50 42 19 46 39 2
c order 33 20 1 17 48 24 27 26 11 36 28 22 49 38 31 41 6 10 35 15 42 47 18 29 39 2 32 5 9 40 46 16 44 43 50 4 13 37 30 12 7 34 23 25 45 21 19 14 3 8
c order 38 15 45 18 43 14 47 27 41 39 1 26 48 49 12 32 21 6 24 46 29 7 3 33 35 25 13 30 5 20 10 34 8 36 9 42 17 37 23 16 40 19 44 11 22 31 50 4 28 2
c order 40 32 17 25 18 35 43 37 13 9 38 49 42 14 44 3 19 27 20 15 11 10 21 4 31 47 12 50 23 39 46 24 33 7 30 45 26 41 34 1 28 48 8 6 2 22 36 16 29 5
c order 27 36 46 16 48 8 34 44 15 40 4 33 49 14 19 45 23 30 13 10 32 6 42 5 22 20 18 31 39 12 1 29 41 2 17 38 21 9 25 28 43 11 50 35 7 47 24 37 26 3
c order 28 40 39 1 41 20 34 16 2 32 44 8 3 23 31 29 27 45 48 21 46 33 7 11 36 9 49 13 6 26 15 25 5 22 14 43 37 42 50 10 35 19 18 24 47 17 4 38 12 30
c order 45 5 22 41 8 23 9 6 33 31 17 19 10 35 11 40 24 32 13 49 43 12 1 47 20 7 46 42 34 44 26 14 25 48 39 3 28 2 29 21 27 18 30 36 16 38 37 15 4 50
p cnf 50 120
17 37 8 0
-17 -37 0
-17 -8 0
-37 -8 0
16 33 6 0
-16 -33 0
-16 -6 0
-33 -6 0
26 48 36 0
-26 -48 0
-26 -36 0
-48 -36 0
35 21 19 0
-35 -21 0
-35 -19 0
-21 -19 0
39 18 8 0
-39 -18 0
-39 -8 0
-18 -8 0
20 2 47 0
-20 -2 0
-20 -47 0
-2 -47 0
48 35 39 0
-48 -35 0
-48 -39 0
-35 -39 0
40 44 18 0
-40 -44 0
-40 -18 0
-44 -18 0
6 15 45 0
-6 -15 0
-6 -45 0
-15 -45 0
22 28 36 0
-22 -28 0
-22 -36 0
-28 -36 0
17 25 28 0
-17 -25 0
-17 -28 0
-25 -28 0
17 27 45 0
-17 -27 0
-17 -45 0
-27 -45 0
16 40 17 0
-16 -40 0
-16 -17 0
-40 -17 0
37 19 43 0
-37 -19 0
-37 -43 0
-19 -43 0
33 36 38 0
-33 -36 0
-33 -38 0
-36 -38 0
16 40 7 0
-16 -40 0
-16 -7 0
-40 -7 0
22 23 3 0
-22 -23 0
-22 -3 0
-23 -3 0
36 2 1 0
-36 -2 0
-36 -1 0
-2 -1 0
24 19 13 0
-24 -19 0
-24 -13 0
-19 -13 0
48 19 47 0
-48 -19 0
-48 -47 0
-19 -47 0
45 3 5 0
-45 -3 0
-45 -5 0
-3 -5 0
13 8 35 0
-13 -8 0
-13 -35 0
-8 -35 0
39 37 41 0
-39 -37 0
-39 -41 0
-37 -41 0
29 45 4 0
-29 -45 0
-29 -4 0
-45 -4 0
10 18 48 0
-10 -18 0
-10 -48 0
-18 -48 0
10 7 11 0
-10 -7 0
-10 -11 0
-7 -11 0
23 13 46 0
-23 -13 0
-23 -46 0
-13 -46 0
12 13 6 0
-12 -13 0
-12 -6 0
-13 -6 0
13 29 27 0
-13 -29 0
-13 -27 0
-29 -27 0
25 27 14 0
-25 -27 0
-25 -14 0
-27 -14 0
