c family=1-in-3-SAT n=50 instance=3 seed=3881676977 models=11264
c order 43 26 46 18 10 28 41 24 33 9 49 19 13 5 36 25 29 17 15 12 32 50 44 3 11 20 1 45 23 7 27 14 37 31 22 4 35 8 47 16 39 48 38 2 40 21 30 42 34 6
c order 7 42 13 31 1 50 37 11 6 14 41 12 16 3 47 20 8 21 39 25 2 10 49 34 17 36 40 22 29 32 4 19 18 48 15 23 5 24 46 33 35 38 28 43 44 27 30 26 9 45
c order 50 17 4 35 10 16 9 21 14 38 46 30 23 27 34 6 19 20 31 44 22 33 11 29 13 41 18 3 26 28 5 25 49 15 7 47 32 48 2 40 8 37 36 12 24 43 45 39 42 1
c order 30 19 6 22 16 41 28 18 49 2 24 38 21 1 35 36 7 29 34 3 26 45 33 4 50 17 47 23 48 46 25 20 31 15 8 10 14 44 39 40 37 9 27 43 12 42 13 32 11 5
c order 37 47 13 32 12 38 35 42 46 8 50 11 7 39 20 18 48 29 41 14 23 45 25 10 16 1 36 3 5 22 27 30 33 49 26 15 17 2 31 43 4 9 28 44 6 24 34 21 19 40
c order 23 1 34 28 35 24 20 46 8 9 37 26 42 47 39 27 43 6 33 2 19 29 25 10 15 22 3 50 13 44 16 7 38 40 14 12 11 49 31 36 45 17 30 32 21 18 5 4 48 41
c order 27 48 28 26 49 24 10 13 37 14 20 43 45 22 11 19 23 12 16 18 3 6 44 33 8 21 46 4 29 30 2 25 31 39 40 15 1 41 7 34 5 38 35 50 32 17 9 36 47 42
c order 46 14 28 19 24 7 40 33 27 15 47 22 12 11 6 17 20 43 39 8 36 32 2 45 37 1 44 26 18 38 29 25 48 41 30 3 13 23 4 9 34 49 21 31 42 35 10 50 16 5
c order 47 23 33 9 46 14 13 49 5 36 17 11 25 3 1 18 35 42 37 8 38 30 31 29 24 39 43 15 20 10 40 16 48 4 22 45 34 32 28 12 7 6 21 2 26 44 50 27 19 41
c order 36 17 37 2 28 35 44 49 39 14 3 34 48 26 16 40 21 43 42 46 25 7 33 45 4 8 11 1 15 5 50 9 18 22 23 10 41 19 30 32 24 20 27 29 13 12 47 38 6 31
p cnf 50 120
40 14 39 0
-40 -14 0
-40 -39 0
-14 -39 0
3 40 38 0
-3 -40 0
-3 -38 0
-40 -38 0
24 34 32 0
-24 -34 0
-24 -32 0
-34 -32 0
4 6 10 0
-4 -6 0
-4 -10 0
-6 -10 0
18 14 2 0
-18 -14 0
-18 -2 0
-14 -2 0
19 29 48 0
-19 -29 0
-19 -48 0
-29 -48 0
12 32 14 0
-12 -32 0
-12 -14 0
-32 -14 0
21 39 8 0
-21 -39 0
-21 -8 0
-39 -8 0
14 22 48 0
-14 -22 0
-14 -48 0
-22 -48 0
47 46 35 0
-47 -46 0
-47 -35 0
-46 -35 0
24 9 42 0
-24 -9 0
-24 -42 0
-9 -42 0
13 40 50 0
-13 -40 0
-13 -50 0
-40 -50 0
39 34 12 0
-39 -34 0
-39 -12 0
-34 -12 0
50 42 34 0
-50 -42 0
-50 -34 0
-42 -34 0
29 26 48 0
-29 -26 0
-29 -48 0
-26 -48 0
41 7 47 0
-41 -7 0
-41 -47 0
-7 -47 0
16 38 39 0
-16 -38 0
-16 -39 0
-38 -39 0
44 24 20 0
-44 -24 0
-44 -20 0
-24 -20 0
50 11 7 0
-50 -11 0
-50 -7 0
-11 -7 0
40 31 6 0
-40 -31 0
-40 -6 0
-31 -6 0
23 17 16 0
-23 -17 0
-23 -16 0
-17 -16 0
8 23 7 0
-8 -23 0
-8 -7 0
-23 -7 0
35 24 4 0
-35 -24 0
-35 -4 0
-24 -4 0
40 28 33 0
-40 -28 0
-40 -33 0
-28 -33 0
38 43 41 0
-38 -43 0
-38 -41 0
-43 -41 0
23 12 46 0
-23 -12 0
-23 -46 0
-12 -46 0
18 48 13 0
-18 -48 0
-18 -13 0
-48 -13 0
24 25 22 0
-24 -25 0
-24 -22 0
-25 -22 0
31 1 6 0
-31 -1 0
-31 -6 0
-1 -6 0
38 40 26 0
-38 -40 0
-38 -26 0
-40 -26 0
