c family=1-in-3-SAT n=50 instance=9 seed=3881676977 models=16384
c order 39 34 38 45 11 22 3 35 21 23 2 9 25 32 16 36 15 29 41 26 50 48 44 5 17 28 37 49 46 27 40 4 18 19 12 7 33 43 8 31 47 42 6 10 24 20 14 1 30 13
c order 39 11 29 5 47 7 14 42 33 10 30 25 38 9 41 17 22 8 45 50 31 49 23 28 3 13 1 12 43 20 16 32 18 15 27 26 24 44 48 40 46 19 6 4 34 37 21 35 36 2
c order 34 5 4 37 36 49 10 29 46 23 40 7 17 18 1 47 31 35 13 12 19 28 48 6 24 50 11 26 32 15 41 45 22 27 25 39 44 8 42 2 30 38 33 3 21 14 16 43 9 20
c order 32 8 34 22 24 26 33 31 2 7 10 20 43 46 21 17 27 30 12 19 50 3 4 40 41 45 16 11 1 23 48 47 15 5 44 13 42 18 29 35 9 36 39 38 49 25 14 6 28 37
c order 20 32 11 10 19 27 36 44 47 8 1 13 5 33 14 29 7 46 26 3 50 34 41 18 22 39 42 30 48 23 15 31 38 9 4 17 28 45 2 37 21 35 16 6 40 49 12 43 25 24
c order 6 20 31 49 28 17 19 7 42 21 43 39 40 50 10 27 24 36 33 41 3 4 32 5 45 1 14 11 22 16 38 9 35 2 12 8 34 26 15 30 29 37 23 46 18 13 44 25 48 47
c order 28 13 5 9 42 39 34 11 25 12 8 2 46 47 36 48 26 14 6 49 15 22 40 20 50 1 21 44 19 10 23 7 18 35 24 37 41 17 29 16 38 45 3 33 43 31 27 32 30 4
c order 28 7 30 45 6 17 18 12 4 24 26 50 43 23 33 34 48 8 38 20 14 15 40 29 16 9 25 49 27 10 3 36 47 35 31 2 44 13 42 46 22 1 39 41 11 19 5 21 37 32
c order 14 19 37 17 1 41 28 21 47 35 27 13 30 23 50 10 8 11 44 43 48 5 22 34 6 16 36 40 32 15 20 45 9 49 33 3 26 4 29 18 25 38 31 46 42 7 39 12 2 24
c order 37 43 34 10 18 13 21 23 50 39 4 24 45 48 31 12 6 41 3 46 26 17 22 42 2 33 35 19 20 47 11 27 8 25 29 15 1 44 49 16 38 5 36 9 40 28 32 7 30 14
p cnf 50 120
19 22 23 0
-19 -22 0
-19 -23 0
-22 -23 0
31 18 8 0
-31 -18 0
-31 -8 0
-18 -8 0
45 50 29 0
-45 -50 0
-45 -29 0
-50 -29 0
18 19 37 0
-18 -19 0
-18 -37 0
-19 -37 0
21 10 48 0
-21 -10 0
-21 -48 0
-10 -48 0
36 37 2 0
-36 -37 0
-36 -2 0
-37 -2 0
20 36 19 0
-20 -36 0
-20 -19 0
-36 -19 0
3 8 10 0
-3 -8 0
-3 -10 0
-8 -10 0
3 9 34 0
-3 -9 0
-3 -34 0
-9 -34 0
37 2 43 0
-37 -2 0
-37 -43 0
-2 -43 0
9 24 18 0
-9 -24 0
-9 -18 0
-24 -18 0
33 15 45 0
-33 -15 0
-33 -45 0
-15 -45 0
44 31 49 0
-44 -31 0
-44 -49 0
-31 -49 0
47 42 7 0
-47 -42 0
-47 -7 0
-42 -7 0
1 18 23 0
-1 -18 0
-1 -23 0
-18 -23 0
32 46 6 0
-32 -46 0
-32 -6 0
-46 -6 0
20 9 29 0
-20 -9 0
-20 -29 0
-9 -29 0
12 34 46 0
-12 -34 0
-12 -46 0
-34 -46 0
3 43 24 0
-3 -43 0
-3 -24 0
-43 -24 0
46 20 4 0
-46 -20 0
-46 -4 0
-20 -4 0
33 27 20 0
-33 -27 0
-33 -20 0
-27 -20 0
23 27 32 0
-23 -27 0
-23 -32 0
-27 -32 0
20 27 16 0
-20 -27 0
-20 -16 0
-27 -16 0
43 25 14 0
-43 -25 0
-43 -14 0
-25 -14 0
43 22 6 0
-43 -22 0
-43 -6 0
-22 -6 0
41 22 47 0
-41 -22 0
-41 -47 0
-22 -47 0
46 44 48 0
-46 -44 0
-46 -48 0
-44 -48 0
48 15 27 0
-48 -15 0
-48 -27 0
-15 -27 0
41 45 33 0
-41 -45 0
-41 -33 0
-45 -33 0
3 27 21 0
-3 -27 0
-3 -21 0
-27 -21 0
