c family=1-in-3-SAT n=50 instance=4 seed=3881676977 models=9984
c order 35 29 36 50 25 20 48 46 23 34 42 4 1 16 12 22 37 15 49 47 30 45 41 11 10 44 14 17 13 2 26 27 21 9 31 6 3 43 32 38 28 5 40 39 33 19 7 18 24 8
c order 22 35 39 17 30 21 34 9 45 33 12 49 16 2 46 32 48 38 50 19 27 24 42 29 15 6 4 40 1 47 44 36 43 7 25 28 18 3 14 13 31 10 23 37 20 41 11 5 8 26
c order 29 49 27 31 14 7 1 28 3 6 4 18 44 2 42 12 35 16 10 46 45 26 9 21 11 19 40 33 41 22 15 37 13 36 47 50 48 5 23 30 34 20 43 24 25 17 32 8 38 39
c order 42 26 20 8 40 32 46 33 43 24 13 27 1 4 28 37 34 19 11 48 7 30 49 21 10 5 31 2 47 22 15 39 50 18 23 44 12 6 35 16 29 17 36 45 41 9 3 38 14 25
c order 21 37 30 9 10 40 41 44 22 34 18 43 39 46 12 1 38 50 24 14 28 29 25 23 45 8 4 13 48 26 27 47 16 35 11 3 20 7 2 32 15 6 49 36 17 33 31 19 42 5
c order 12 2 38 30 17 35 8 40 26 19 47 42 33 4 10 5 22 48 23 32 27 41 16 9 21 31 20 34 50 1 25 44 28 18 6 46 11 49 37 36 45 7 39 24 13 14 15 29 43 3
c order 12 39 20 47 1 16 18 11 7 35 44 10 43 36 41 49 46 50 27 3 40 15 14 48 19 2 45 29 34 32 33 25 24 22 17 6 31 4 13 42 23 37 21 28 9 5 38 30 8 26
c order 33 25 18 15 22 32 39 46 50 34 7 8 20 49 47 24 45 5 41 14 28 3 30 12 17 43 10 6 9 36 16 19 44 37 35 29 40 42 11 2 23 4 26 13 31 21 1 48 38 27
c order 33 9 8 42 30 15 35 1 41 6 11 20 29 10 39 12 7 37 26 3 21 25 18 22 13 32 50 28 16 34 19 47 38 2 4 27 14 36 24 23 40 45 44 48 17 49 43 46 31 5
c order 22 11 40 42 16 15 48 35 18 23 14 20 13 41 29 24 26 10 36 46 38 28 1 33 21 8 6 19 17 32 47 44 27 43 4 31 3 45 25 2 34 7 50 37 5 12 49 9 39 30
p cnf 50 120
10 34 35 0
-10 -34 0
-10 -35 0
-34 -35 0
48 36 26 0
-48 -36 0
-48 -26 0
-36 -26 0
26 50 10 0
-26 -50 0
-26 -10 0
-50 -10 0
26 2 35 0
-26 -2 0
-26 -35 0
-2 -35 0
50 3 41 0
-50 -3 0
-50 -41 0
-3 -41 0
24 45 23 0
-24 -45 0
-24 -23 0
-45 -23 0
39 40 19 0
-39 -40 0
-39 -19 0
-40 -19 0
5 6 3 0
-5 -6 0
-5 -3 0
-6 -3 0
14 25 21 0
-14 -25 0
-14 -21 0
-25 -21 0
10 37 33 0
-10 -37 0
-10 -33 0
-37 -33 0
46 29 23 0
-46 -29 0
-46 -23 0
-29 -23 0
42 24 44 0
-42 -24 0
-42 -44 0
-24 -44 0
11 50 48 0
-11 -50 0
-11 -48 0
-50 -48 0
9 3 42 0
-9 -3 0
-9 -42 0
-3 -42 0
17 47 43 0
-17 -47 0
-17 -43 0
-47 -43 0
11 49 21 0
-11 -49 0
-11 -21 0
-49 -21 0
31 20 38 0
-31 -20 0
-31 -38 0
-20 -38 0
25 45 12 0
-25 -45 0
-25 -12 0
-45 -12 0
43 35 42 0
-43 -35 0
-43 -42 0
-35 -42 0
43 42 24 0
-43 -42 0
-43 -24 0
-42 -24 0
4 22 33 0
-4 -22 0
-4 -33 0
-22 -33 0
3 2 37 0
-3 -2 0
-3 -37 0
-2 -37 0
35 50 22 0
-35 -50 0
-35 -22 0
-50 -22 0
40 15 32 0
-40 -15 0
-40 -32 0
-15 -32 0
27 17 4 0
-27 -17 0
-27 -4 0
-17 -4 0
31 8 49 0
-31 -8 0
-31 -49 0
-8 -49 0
12 9 24 0
-12 -9 0
-12 -24 0
-9 -24 0
3 15 7 0
-3 -15 0
-3 -7 0
-15 -7 0
5 46 21 0
-5 -46 0
-5 -21 0
-46 -21 0
40 20 9 0
-40 -20 0
-40 -9 0
-20 -9 0
