c family=1-in-3-SAT n=50 instance=8 seed=3881676977 models=8320
c order 4 37 49 11 41 42 6 10 14 48 26 30 22 12 31 5 7 44 39 43 38 25 15 13 46 45 29 23 33 34 32 1 18 19 27 8 35 36 17 3 9 2 28 50 40 21 24 47 20 16
c order 37 35 2 36 1 25 6 32 33 41 22 49 23 19 4 11 20 40 9 27 14 26 17 3 8 34 31 42 45 48 30 10 12 43 18 15 28 21 5 38 7 13 47 39 24 29 16 44 50 46
c order 17 5 14 41 44 6 35 30 19 10 13 4 25 36 48 7 49 28 23 29 33 39 24 21 22 43 2 18 31 45 15 3 46 34 9 8 47 1 32 12 16 42 50 27 20 40 26 38 37 11
c order 45 47 49 43 42 3 12 35 9 4 14 37 21 28 6 30 16 23 31 17 10 41 40 13 32 7 39 2 20 27 15 25 5 44 18 26 36 19 38 24 48 1 8 50 33 34 29 11 46 22
c order 29 16 21 30 5 7 23 27 35 1 40 37 4 43 49 33 24 17 42 10 18 46 12 48 19 14 26 28 38 41 11 15 36 2 8 47 44 3 20 6 34 50 9 13 39 32 31 22 45 25
c order 26 27 38 35 9 21 42 41 3 15 31 7 8 40 17 20 33 39 13 2 14 4 49 6 12 23 44 45 5 11 47 16 48 19 34 36 18 29 1 32 24 10 30 46 37 25 28 43 22 50
c order 45 37 3 7 31 25 38 41 17 15 18 42 23 13 50 6 14 48 16 1 20 30 28 44 27 43 34 40 9 11 5 10 2 22 24 46 39 8 47 29 19 12 32 26 35 21 49 36 4 33
c order 11 15 41 9 45 18 23 37 30 40 28 2 39 38 21 44 46 49 22 5 6 3 10 36 20 13 34 1 31 42 50 25 16 35 48 24 8 26 43 19 4 33 32 12 14 29 47 17 27 7
c order 43 8 41 10 17 32 28 7 24 18 12 11 15 49 1 3 5 38 46 29 27 37 45 47 35 19 6 4 14 25 39 34 16 31 42 9 44 22 30 20 33 21 2 36 13 26 23 50 40 48
c order 40 11 3 42 8 10 30 6 26 12 4 27 22 24 13 32 48 33 15 20 16 23 35 25 9 43 14 21 39 46 29 2 36 5 49 31 38 47 41 1 45 17 18 37 44 28 7 50 19 34
p cnf 50 120
26 42 28 0
-26 -42 0
-26 -28 0
-42 -28 0
43 21 8 0
-43 -21 0
-43 -8 0
-21 -8 0
23 41 9 0
-23 -41 0
-23 -9 0
-41 -9 0
38 1 36 0
-38 -1 0
-38 -36 0
-1 -36 0
39 32 42 0
-39 -32 0
-39 -42 0
-32 -42 0
47 42 50 0
-47 -42 0
-47 -50 0
-42 -50 0
42 39 38 0
-42 -39 0
-42 -38 0
-39 -38 0
48 35 43 0
-48 -35 0
-48 -43 0
-35 -43 0
43 17 25 0
-43 -17 0
-43 -25 0
-17 -25 0
18 8 29 0
-18 -8 0
-18 -29 0
-8 -29 0
35 30 43 0
-35 -30 0
-35 -43 0
-30 -43 0
43 11 34 0
-43 -11 0
-43 -34 0
-11 -34 0
25 33 27 0
-25 -33 0
-25 -27 0
-33 -27 0
36 45 44 0
-36 -45 0
-36 -44 0
-45 -44 0
4 46 47 0
-4 -46 0
-4 -47 0
-46 -47 0
36 16 31 0
-36 -16 0
-36 -31 0
-16 -31 0
42 49 12 0
-42 -49 0
-42 -12 0
-49 -12 0
29 18 13 0
-29 -18 0
-29 -13 0
-18 -13 0
31 45 30 0
-31 -45 0
-31 -30 0
-45 -30 0
15 14 11 0
-15 -14 0
-15 -11 0
-14 -11 0
43 23 37 0
-43 -23 0
-43 -37 0
-23 -37 0
5 30 45 0
-5 -30 0
-5 -45 0
-30 -45 0
5 31 12 0
-5 -31 0
-5 -12 0
-31 -12 0
4 19 23 0
-4 -19 0
-4 -23 0
-19 -23 0
5 26 50 0
-5 -26 0
-5 -50 0
-26 -50 0
35 39 14 0
-35 -39 0
-35 -14 0
-39 -14 0
6 47 20 0
-6 -47 0
-6 -20 0
-47 -20 0
22 2 4 0
-22 -2 0
-22 -4 0
-2 -4 0
24 46 44 0
-24 -46 0
-24 -44 0
-46 -44 0
35 24 21 0
-35 -24 0
-35 -21 0
-24 -21 0
