c family=1-in-3-SAT n=50 instance=6 seed=3881676977 models=18432
c order 7 11 39 12 34 43 35 27 25 42 32 30 1 5 31 4 15 24 3 18 40 26 28 29 49 9 44 6 19 48 23 20 13 21 50 37 47 8 36 46 2 45 41 38 10 14 22 17 16 33
c order 1 3 42 27 23 15 50 35 20 37 16 2 24 28 45 30 32 19 9 49 11 5 4 33 17 7 34 46 29 41 31 26 38 18 36 14 25 47 10 12 22 43 8 40 44 13 21 6 48 39
c order 39 19 34 32 6 26 16 18 27 7 5 33 3 15 17 10 1 42 23 50 48 49 41 14 45 8 31 20 12 4 25 21 30 2 29 40 24 36 46 47 38 11 9 28 22 43 13 44 37 35
c order 11 31 13 20 48 27 12 33 23 50 41 40 19 35 6 10 39 49 2 29 47 5 30 14 15 28 38 26 43 32 1 9 46 25 8 37 42 4 7 34 18 17 36 44 3 16 24 45 22 21
c order 35 38 12 37 27 3 4 49 1 21 42 20 5 33 17 14 29 18 11 30 48 50 2 25 15 24 31 19 23 47 43 46 41 28 13 44 22 6 45 39 10 8 7 9 34 16 26 36 40 32
c order 10 49 19 34 25 39 12 33 47 36 2 43 9 40 5 15 42 17 30 22 14 20 44 6 24 37 31 41 21 32 4 27 11 16 38 46 3 23 26 29 48 50 1 28 7 13 35 45 18 8
c order 47 17 12 15 31 22 24 38 26 36 34 21 32 42 14 40 7 1 20 19 4 29 49 41 33 45 50 16 8 44 3 2 43 30 23 6 39 5 35 11 48 25 9 27 37 10 46 28 18 13
c order 34 15 19 50 29 11 28 10 22 6 1 47 35 44 24 37 40 49 3 9 18 33 2 13 7 17 39 5 46 21 16 36 14 42 26 23 45 12 8 32 31 41 43 38 20 30 27 4 25 48
c order 18 50 23 22 13 9 17 31 7 24 5 4 8 16 3 49 28 33 14 29 19 46 32 37 30 40 36 38 20 6 2 34 12 1 48 47 45 39 25 11 41 44 21 26 35 15 42 43 27 10
c order 23 46 21 13 49 12 6 4 43 5 29 26 35 41 8 25 1 31 38 28 14 10 15 22 48 19 7 45 34 44 11 39 40 36 32 37 18 17 2 3 16 9 20 24 30 50 47 42 33 27
p cnf 50 120
12 45 33 0
-12 -45 0
-12 -33 0
-45 -33 0
47 45 29 0
-47 -45 0
-47 -29 0
-45 -29 0
22 18 16 0
-22 -18 0
-22 -16 0
-18 -16 0
41 34 28 0
-41 -34 0
-41 -28 0
-34 -28 0
39 43 40 0
-39 -43 0
-39 -40 0
-43 -40 0
38 43 39 0
-38 -43 0
-38 -39 0
-43 -39 0
11 18 40 0
-11 -18 0
-11 -40 0
-18 -40 0
39 9 4 0
-39 -9 0
-39 -4 0
-9 -4 0
13 29 23 0
-13 -29 0
-13 -23 0
-29 -23 0
18 15 17 0
-18 -15 0
-18 -17 0
-15 -17 0
41 50 25 0
-41 -50 0
-41 -25 0
-50 -25 0
39 9 33 0
-39 -9 0
-39 -33 0
-9 -33 0
13 5 38 0
-13 -5 0
-13 -38 0
-5 -38 0
1 8 44 0
-1 -8 0
-1 -44 0
-8 -44 0
45 27 28 0
-45 -27 0
-45 -28 0
-27 -28 0
32 46 35 0
-32 -46 0
-32 -35 0
-46 -35 0
40 42 43 0
-40 -42 0
-40 -43 0
-42 -43 0
45 10 40 0
-45 -10 0
-45 -40 0
-10 -40 0
10 34 31 0
-10 -34 0
-10 -31 0
-34 -31 0
20 41 48 0
-20 -41 0
-20 -48 0
-41 -48 0
25 41 12 0
-25 -41 0
-25 -12 0
-41 -12 0
12 24 13 0
-12 -24 0
-12 -13 0
-24 -13 0
40 22 27 0
-40 -22 0
-40 -27 0
-22 -27 0
23 31 10 0
-23 -31 0
-23 -10 0
-31 -10 0
9 33 3 0
-9 -33 0
-9 -3 0
-33 -3 0
42 2 19 0
-42 -2 0
-42 -19 0
-2 -19 0
39 48 9 0
-39 -48 0
-39 -9 0
-48 -9 0
30 27 26 0
-30 -27 0
-30 -26 0
-27 -26 0
7 47 49 0
-7 -47 0
-7 -49 0
-47 -49 0
22 32 48 0
-22 -32 0
-22 -48 0
-32 -48 0
