c family=1-in-3-SAT n=50 instance=5 seed=3881676977 models=1792
c order 8 16 18 45 5 14 15 41 22 21 39 36 17 35 25 24 9 4 20 31 33 38 3 44 7 10 49 34 28 13 42 19 2 1 11 37 12 6 27 46 50 43 48 26 30 29 32 47 40 23
c order 20 41 11 30 45 34 36 47 18 48 27 12 15 42 35 7 46 40 21 29 5 22 16 8 26 32 3 25 2 4 49 24 38 17 14 23 1 37 33 9 31 50 10 13 44 19 43 28 39 6
c order 50 5 42 14 44 16 33 2 3 1 18 19 29 7 49 43 27 24 21 6 36 4 10 25 34 26 11 31 15 37 32 48 41 30 38 22 13 28 40 23 17 8 35 47 20 12 39 9 46 45
c order 31 38 1 4 8 37 24 23 17 36 22 13 2 3 12 27 14 47 15 49 30 11 33 25 46 34 40 26 7 28 19 50 42 39 29 20 35 5 6 32 48 45 16 21 18 9 41 10 44 43
c order 33 30 10 49 44 22 34 27 39 1 47 36 35 48 13 20 7 25 41 24 14 8 9 38 26 50 19 15 37 17 11 28 16 23 5 21 46 12 31 42 6 18 29 32 2 40 43 45 4 3
c order 18 13 16 49 20 9 11 50 31 38 17 2 28 15 43 32 3 39 14 6 44 29 22 12 34 42 25 41 36 24 1 47 21 23 5 33 19 48 40 45 10 7 8 4 37 27 46 26 35 30
c order 1 34 38 36 37 14 27 21 48 2 31 30 26 35 41 42 23 33 47 16 24 11 12 28 17 19 46 44 6 45 4 10 5 43 15 13 18 20 40 9 50 32 3 22 39 7 29 25 49 8
c order 46 39 41 44 11 4 10 37 6 33 32 49 42 34 1 14 26 22 45 3 16 2 28 27 12 43 30 40 21 31 13 5 18 9 38 17 35 25 29 24 7 8 48 19 50 20 15 47 36 23
c order 49 13 37 34 48 5 27 39 1 21 4 31 23 26 28 20 40 29 11 19 10 43 7 33 17 22 42 18 36 8 44 50 35 30 14 41 2 47 9 12 6 45 24 32 25 46 38 3 15 16
c order 7 41 40 47 4 13 8 14 39 20 24 30 33 10 26 16 2 34 3 37 42 44 11 22 49 43 19 5 12 35 9 17 18 46 48 32 21 6 36 23 25 27 29 28 45 31 1 50 15 38
p cnf 50 120
5 25 48 0
-5 -25 0
-5 -48 0
-25 -48 0
4 42 46 0
-4 -42 0
-4 -46 0
-42 -46 0
49 36 13 0
-49 -36 0
-49 -13 0
-36 -13 0
38 21 39 0
-38 -21 0
-38 -39 0
-21 -39 0
49 2 15 0
-49 -2 0
-49 -15 0
-2 -15 0
47 24 21 0
-47 -24 0
-47 -21 0
-24 -21 0
20 21 38 0
-20 -21 0
-20 -38 0
-21 -38 0
15 19 29 0
-15 -19 0
-15 -29 0
-19 -29 0
8 6 39 0
-8 -6 0
-8 -39 0
-6 -39 0
38 34 37 0
-38 -34 0
-38 -37 0
-34 -37 0
28 15 19 0
-28 -15 0
-28 -19 0
-15 -19 0
2 13 29 0
-2 -13 0
-2 -29 0
-13 -29 0
44 46 21 0
-44 -46 0
-44 -21 0
-46 -21 0
25 12 16 0
-25 -12 0
-25 -16 0
-12 -16 0
8 5 45 0
-8 -5 0
-8 -45 0
-5 -45 0
16 24 36 0
-16 -24 0
-16 -36 0
-24 -36 0
2 12 19 0
-2 -12 0
-2 -19 0
-12 -19 0
13 10 29 0
-13 -10 0
-13 -29 0
-10 -29 0
30 9 4 0
-30 -9 0
-30 -4 0
-9 -4 0
2 7 26 0
-2 -7 0
-2 -26 0
-7 -26 0
13 18 8 0
-13 -18 0
-13 -8 0
-18 -8 0
14 22 44 0
-14 -22 0
-14 -44 0
-22 -44 0
48 13 30 0
-48 -13 0
-48 -30 0
-13 -30 0
50 3 26 0
-50 -3 0
-50 -26 0
-3 -26 0
44 7 35 0
-44 -7 0
-44 -35 0
-7 -35 0
41 48 15 0
-41 -48 0
-41 -15 0
-48 -15 0
37 28 11 0
-37 -28 0
-37 -11 0
-28 -11 0
48 33 50 0
-48 -33 0
-48 -50 0
-33 -50 0
27 34 50 0
-27 -34 0
-27 -50 0
-34 -50 0
30 47 50 0
-30 -47 0
-30 -50 0
-47 -50 0
