c family=1-in-3-SAT n=55 instance=8 seed=3881676977 models=7520
c order 26 54 45 18 47 2 42 44 31 1 40 16 3 33 12 41 55 36 11 29 27 46 28 23 32 30 15 24 17 22 51 50 43 13 25 35 20 37 19 9 39 6 38 7 8 49 5 21 4 52 53 14 48 10 34
c order 32 40 52 1 8 44 37 25 7 23 10 20 46 3 43 55 51 15 22 13 31 41 53 16 18 29 34 36 14 6 24 35 49 12 17 48 2 30 11 4 19 27 50 54 5 9 47 33 45 28 38 39 21 26 42
c order 38 39 2 4 19 12 3 7 33 41 22 50 23 47 44 13 14 26 32 29 1 53 25 15 54 49 28 34 16 46 5 11 43 10 8 36 27 55 18 40 20 45 9 35 31 37 24 42 21 51 6 30 48 17 52
c order 39 28 1 48 21 52 19 55 15 6 22 2 3 49 53 12 24 41 10 47 18 7 29 16 5 42 14 26 44 20 40 37 23 32 27 45 38 9 11 25 50 8 30 13 4 31 35 33 51 46 36 43 54 17 34
c order 3 43 55 19 49 1 7 37 38 14 23 52 13 50 21 33 51 11 24 22 34 27 36 4 44 2 29 17 41 48 30 47 8 10 46 26 35 45 18 31 12 42 25 40 9 15 53 16 6 39 32 20 54 5 28
c order 50 3 31 23 41 36 12 32 13 21 46 7 54 45 43 22 33 8 20 47 44 11 10 48 39 15 16 28 42 35 5 34 38 4 6 2 29 18 25 27 53 40 19 24 49 9 52 30 17 1 55 51 26 14 37
c order 17 10 45 11 38 1 43 26 5 42 35 14 52 54 39 41 33 6 49 31 28 19 34 27 37 8 51 23 46 9 21 16 13 4 50 24 40 3 47 12 2 22 53 48 55 29 20 18 30 44 25 15 32 7 36
c order 32 50 15 9 39 17 24 1 27 11 7 41 53 26 54 18 34 4 2 48 8 28 22 49 36 21 45 42 23 52 31 25 40 29 16 43 33 20 6 47 5 3 46 55 44 30 37 38 10 19 13 35 14 51 12
c order 16 48 34 5 26 1 20 49 13 12 37 2 19 15 54 53 30 43 28 44 18 51 25 14 39 10 50 41 8 36 32 47 17 6 9 52 46 21 40 24 33 11 38 42 35 23 31 55 3 27 29 45 4 22 7
c order 14 20 21 22 12 34 29 11 19 13 49 23 55 51 18 5 31 27 38 9 3 25 41 4 24 46 16 15 40 48 53 50 33 30 42 37 36 2 17 52 45 47 10 28 39 32 54 44 43 8 1 26 35 6 7
p cnf 55 132
55 42 2 0
-55 -42 0
-55 -2 0
-42 -2 0
21 31 14 0
-21 -31 0
-21 -14 0
-31 -14 0
39 54 18 0
-39 -54 0
-39 -18 0
-54 -18 0
32 20 33 0
-32 -20 0
-32 -33 0
-20 -33 0
36 17 35 0
-36 -17 0
-36 -35 0
-17 -35 0
40 50 22 0
-40 -50 0
-40 -22 0
-50 -22 0
12 46 21 0
-12 -46 0
-12 -21 0
-46 -21 0
7 2 9 0
-7 -2 0
-7 -9 0
-2 -9 0
3 54 32 0
-3 -54 0
-3 -32 0
-54 -32 0
41 39 19 0
-41 -39 0
-41 -19 0
-39 -19 0
46 43 2 0
-46 -43 0
-46 -2 0
-43 -2 0
21 39 17 0
-21 -39 0
-21 -17 0
-39 -17 0
25 2 37 0
-25 -2 0
-25 -37 0
-2 -37 0
20 22 55 0
-20 -22 0
-20 -55 0
-22 -55 0
16 18 30 0
-16 -18 0
-16 -30 0
-18 -30 0
51 41 50 0
-51 -41 0
-51 -50 0
-41 -50 0
6 13 31 0
-6 -13 0
-6 -31 0
-13 -31 0
49 16 53 0
-49 -16 0
-49 -53 0
-16 -53 0
31 37 43 0
-31 -37 0
-31 -43 0
-37 -43 0
25 10 38 0
-25 -10 0
-25 -38 0
-10 -38 0
28 30 36 0
-28 -30 0
-28 -36 0
-30 -36 0
21 15 27 0
-21 -15 0
-21 -27 0
-15 -27 0
40 24 14 0
-40 -24 0
-40 -14 0
-24 -14 0
27 42 12 0
-27 -42 0
-27 -12 0
-42 -12 0
11 4 47 0
-11 -4 0
-11 -47 0
-4 -47 0
52 48 3 0
-52 -48 0
-52 -3 0
-48 -3 0
38 22 12 0
-38 -22 0
-38 -12 0
-22 -12 0
23 3 43 0
-23 -3 0
-23 -43 0
-3 -43 0
36 3 51 0
-36 -3 0
-36 -51 0
-3 -51 0
36 40 44 0
-36 -40 0
-36 -44 0
-40 -44 0
4 47 44 0
-4 -47 0
-4 -44 0
-47 -44 0
34 18 53 0
-34 -18 0
-34 -53 0
-18 -53 0
4 3 29 0
-4 -3 0
-4 -29 0
-3 -29 0
