c family=1-in-3-SAT n=55 instance=7 seed=3881676977 models=16576
c order 4 14 53 33 46 8 24 1 43 22 45 34 20 36 38 16 11 12 7 29 31 39 55 18 49 42 28 10 40 51 30 52 9 48 27 41 15 47 26 32 35 44 37 54 50 21 6 19 23 3 13 25 17 2 5
c order 21 31 22 35 10 43 25 45 51 55 20 2 54 15 11 23 53 52 3 9 30 40 24 47 42 39 4 46 17 32 7 44 50 38 13 16 12 1 34 18 33 5 28 26 14 36 6 8 49 29 19 48 37 41 27
c order 49 43 13 40 46 37 53 51 29 16 10 6 8 28 36 47 12 3 17 31 23 1 44 32 50 21 2 39 19 5 25 35 42 9 4 20 30 27 18 14 38 55 54 26 34 11 22 48 15 52 24 7 45 33 41
c order 33 10 41 9 13 37 12 36 15 20 3 8 11 23 21 52 50 6 27 35 7 38 43 32 14 44 49 39 34 22 28 18 29 24 53 2 4 54 31 1 16 40 19 51 26 48 46 25 42 5 30 45 17 47 55
c order 20 8 37 33 55 16 23 25 28 47 10 7 21 2 19 52 51 29 35 46 50 36 49 30 48 32 40 15 31 17 24 53 54 11 3 34 13 22 42 39 12 4 26 9 44 27 6 5 41 43 18 45 38 1 14
c order 13 45 21 4 42 6 25 15 28 50 43 12 41 24 34 2 36 31 29 52 37 30 10 7 51 32 17 23 54 5 22 18 9 3 20 55 44 46 11 53 1 26 35 49 27 38 8 19 33 47 48 14 40 16 39
c order 33 55 42 15 21 31 54 40 25 17 32 3 10 6 43 51 5 39 26 45 53 4 46 30 47 23 28 36 18 27 2 9 49 35 24 7 37 14 22 48 12 52 29 34 38 50 20 11 41 16 1 19 8 44 13
c order 10 52 23 4 30 54 46 41 18 27 21 20 24 48 37 26 34 25 42 31 17 51 9 44 43 19 39 3 22 6 47 5 50 2 14 16 1 7 53 11 36 12 32 29 49 8 28 40 13 33 38 15 45 55 35
c order 33 16 1 46 50 24 48 22 17 25 4 51 15 21 12 54 28 52 49 35 8 10 9 30 43 36 13 38 3 18 14 39 19 47 29 11 5 45 41 31 42 53 2 26 6 23 27 40 37 55 32 20 7 44 34
c order 5 26 2 35 27 31 54 37 13 3 21 51 55 30 36 9 6 23 32 50 24 10 20 39 12 47 7 15 34 52 29 1 41 18 16 11 22 44 33 53 48 19 42 45 25 38 17 49 14 43 40 46 4 28 8
p cnf 55 132
17 47 28 0
-17 -47 0
-17 -28 0
-47 -28 0
38 27 54 0
-38 -27 0
-38 -54 0
-27 -54 0
27 28 30 0
-27 -28 0
-27 -30 0
-28 -30 0
38 18 44 0
-38 -18 0
-38 -44 0
-18 -44 0
7 51 25 0
-7 -51 0
-7 -25 0
-51 -25 0
24 4 3 0
-24 -4 0
-24 -3 0
-4 -3 0
34 29 44 0
-34 -29 0
-34 -44 0
-29 -44 0
34 44 48 0
-34 -44 0
-34 -48 0
-44 -48 0
54 12 20 0
-54 -12 0
-54 -20 0
-12 -20 0
8 50 46 0
-8 -50 0
-8 -46 0
-50 -46 0
46 12 29 0
-46 -12 0
-46 -29 0
-12 -29 0
7 45 43 0
-7 -45 0
-7 -43 0
-45 -43 0
50 3 5 0
-50 -3 0
-50 -5 0
-3 -5 0
31 28 19 0
-31 -28 0
-31 -19 0
-28 -19 0
51 31 2 0
-51 -31 0
-51 -2 0
-31 -2 0
34 29 55 0
-34 -29 0
-34 -55 0
-29 -55 0
36 35 54 0
-36 -35 0
-36 -54 0
-35 -54 0
27 46 1 0
-27 -46 0
-27 -1 0
-46 -1 0
14 11 42 0
-14 -11 0
-14 -42 0
-11 -42 0
49 25 9 0
-49 -25 0
-49 -9 0
-25 -9 0
5 43 53 0
-5 -43 0
-5 -53 0
-43 -53 0
43 42 14 0
-43 -42 0
-43 -14 0
-42 -14 0
21 30 7 0
-21 -30 0
-21 -7 0
-30 -7 0
16 52 4 0
-16 -52 0
-16 -4 0
-52 -4 0
41 26 9 0
-41 -26 0
-41 -9 0
-26 -9 0
39 11 41 0
-39 -11 0
-39 -41 0
-11 -41 0
45 5 18 0
-45 -5 0
-45 -18 0
-5 -18 0
6 15 32 0
-6 -15 0
-6 -32 0
-15 -32 0
3 49 30 0
-3 -49 0
-3 -30 0
-49 -30 0
40 34 26 0
-40 -34 0
-40 -26 0
-34 -26 0
54 24 34 0
-54 -24 0
-54 -34 0
-24 -34 0
44 52 15 0
-44 -52 0
-44 -15 0
-52 -15 0
54 31 32 0
-54 -31 0
-54 -32 0
-31 -32 0
