c family=1-in-3-SAT n=55 instance=2 seed=3881676977 models=4608
c order 36 45 46 10 54 13 41 33 1 51 16 48 32 37 40 47 5 52 49 18 15 44 42 11 30 22 8 21 20 9 3 50 7 24 4 17 26 29 28 35 19 6 31 14 55 38 53 25 27 2 12 23 39 43 34
c order 47 6 49 50 13 10 15 31 28 53 54 4 11 41 46 12 20 43 2 5 18 24 40 33 44 26 22 45 14 19 34 51 17 9 35 42 27 7 38 30 48 32 8 3 29 52 55 1 16 39 36 37 23 21 25
c order 14 8 28 44 43 3 36 47 18 51 52 22 10 49 25 38 50 20 27 6 7 2 17 9 37 15 48 42 4 45 21 13 24 11 31 5 35 12 34 16 46 30 33 1 32 54 29 40 53 19 39 26 41 23 55
c order 11 55 9 48 24 27 10 22 23 31 50 47 15 21 53 8 52 14 37 45 18 51 25 36 35 49 19 5 7 44 42 29 28 4 20 32 40 43 54 41 2 38 34 13 30 12 33 6 17 3 26 16 39 1 46
c order 12 16 42 34 33 1 45 37 20 54 49 27 44 25 3 24 36 4 52 13 17 14 21 51 2 5 50 29 39 22 55 41 6 15 53 26 35 9 8 43 40 19 28 38 10 23 30 31 48 32 7 11 46 47 18
c order 43 5 54 35 29 3 38 28 11 42 18 40 14 24 22 25 27 50 17 13 32 9 12 8 44 48 49 30 31 1 7 46 39 26 2 19 6 20 53 34 16 45 23 55 47 51 37 4 33 41 52 10 15 36 21
c order 35 18 44 46 23 24 34 28 39 43 14 25 10 15 47 13 42 27 38 3 22 7 16 31 17 51 33 11 20 19 6 54 55 26 12 4 48 21 41 36 29 37 5 49 53 30 40 50 52 9 45 1 2 32 8
c order 13 14 22 44 37 43 12 29 30 8 25 35 38 23 20 9 26 4 16 51 47 31 21 7 52 6 5 53 24 49 34 3 41 46 11 27 28 10 36 45 42 33 55 19 40 32 2 17 15 50 48 54 1 39 18
c order 40 49 30 29 16 31 25 3 54 13 23 43 51 1 10 55 39 47 7 20 8 12 11 52 26 45 14 38 24 46 35 36 42 15 22 5 18 6 37 17 19 32 33 28 34 53 50 41 44 4 27 48 9 21 2
c order 38 33 51 39 15 10 54 36 34 12 22 18 24 37 19 31 16 17 2 53 41 28 1 43 29 49 47 20 45 6 46 8 48 50 35 11 52 13 55 25 44 30 27 5 3 7 21 4 26 14 23 40 42 32 9
p cnf 55 132
55 9 18 0
-55 -9 0
-55 -18 0
-9 -18 0
13 16 21 0
-13 -16 0
-13 -21 0
-16 -21 0
1 34 41 0
-1 -34 0
-1 -41 0
-34 -41 0
46 35 9 0
-46 -35 0
-46 -9 0
-35 -9 0
17 15 4 0
-17 -15 0
-17 -4 0
-15 -4 0
26 31 5 0
-26 -31 0
-26 -5 0
-31 -5 0
52 43 5 0
-52 -43 0
-52 -5 0
-43 -5 0
45 53 54 0
-45 -53 0
-45 -54 0
-53 -54 0
16 18 7 0
-16 -18 0
-16 -7 0
-18 -7 0
43 19 44 0
-43 -19 0
-43 -44 0
-19 -44 0
41 3 53 0
-41 -3 0
-41 -53 0
-3 -53 0
27 49 9 0
-27 -49 0
-27 -9 0
-49 -9 0
11 51 34 0
-11 -51 0
-11 -34 0
-51 -34 0
25 19 16 0
-25 -19 0
-25 -16 0
-19 -16 0
40 32 49 0
-40 -32 0
-40 -49 0
-32 -49 0
30 25 53 0
-30 -25 0
-30 -53 0
-25 -53 0
41 27 49 0
-41 -27 0
-41 -49 0
-27 -49 0
32 27 18 0
-32 -27 0
-32 -18 0
-27 -18 0
46 55 50 0
-46 -55 0
-46 -50 0
-55 -50 0
19 18 44 0
-19 -18 0
-19 -44 0
-18 -44 0
47 50 39 0
-47 -50 0
-47 -39 0
-50 -39 0
8 14 23 0
-8 -14 0
-8 -23 0
-14 -23 0
1 22 45 0
-1 -22 0
-1 -45 0
-22 -45 0
49 50 28 0
-49 -50 0
-49 -28 0
-50 -28 0
40 39 12 0
-40 -39 0
-40 -12 0
-39 -12 0
19 35 32 0
-19 -35 0
-19 -32 0
-35 -32 0
26 29 52 0
-26 -29 0
-26 -52 0
-29 -52 0
1 50 21 0
-1 -50 0
-1 -21 0
-50 -21 0
28 36 47 0
-28 -36 0
-28 -47 0
-36 -47 0
28 1 8 0
-28 -1 0
-28 -8 0
-1 -8 0
52 33 10 0
-52 -33 0
-52 -10 0
-33 -10 0
19 31 24 0
-19 -31 0
-19 -24 0
-31 -24 0
51 52 34 0
-51 -52 0
-51 -34 0
-52 -34 0
