c family=1-in-3-SAT n=55 instance=0 seed=3881676977 models=10752
c order 36 17 51 50 46 8 29 31 5 6 3 2 7 34 25 47 23 33 49 20 40 45 37 24 35 11 55 48 44 27 9 16 22 10 38 18 15 39 54 4 52 19 41 42 32 12 30 21 26 13 28 14 43 1 53
c order 35 43 41 19 36 40 32 16 47 50 29 34 25 17 10 7 46 5 45 8 22 3 37 23 9 15 55 42 12 1 49 54 24 6 48 52 39 4 53 2 20 13 11 27 38 14 33 31 18 26 51 28 30 44 21
c order 49 10 8 31 7 19 15 18 4 51 54 29 9 55 28 17 25 37 3 36 42 41 23 6 22 20 44 26 27 45 5 14 11 12 40 50 43 35 24 2 21 16 32 39 47 52 38 46 48 30 1 13 34 33 53
c order 17 31 19 1 34 36 33 46 6 53 29 8 13 25 14 45 16 11 44 35 22 5 7 3 51 23 2 4 32 47 39 50 37 28 38 27 54 15 42 24 21 9 41 49 26 12 40 43 10 52 48 18 55 30 20
c order 2 22 37 7 48 47 5 26 10 46 40 8 51 35 3 38 6 19 54 1 12 50 52 36 16 23 39 30 17 42 20 9 13 4 41 55 49 33 45 24 43 15 29 18 32 11 34 53 28 21 31 44 27 25 14
c order 21 1 2 45 12 28 23 22 37 15 52 11 9 55 20 32 39 34 13 29 30 43 51 53 36 42 48 33 40 16 41 49 7 44 19 5 31 35 17 50 25 46 8 10 38 27 26 14 24 47 4 6 54 3 18
c order 51 4 25 40 22 43 26 33 12 31 2 48 35 53 17 7 30 21 20 38 13 28 49 8 41 46 23 5 24 42 44 39 37 1 6 10 19 47 29 52 11 3 45 14 55 54 27 15 36 32 9 34 16 18 50
c order 24 46 13 9 3 41 1 20 44 14 43 39 32 5 33 8 35 21 29 22 23 19 11 51 7 18 27 2 4 52 42 38 26 45 6 40 25 48 34 30 17 10 28 53 55 31 54 37 50 12 36 49 16 47 15
c order 20 44 17 49 46 14 16 27 7 9 24 37 6 45 50 30 40 34 13 3 38 33 1 12 47 54 55 43 19 32 8 48 15 22 35 53 23 52 29 42 4 26 41 31 5 51 36 39 18 10 25 2 28 11 21
c order 3 32 7 15 47 23 49 8 51 39 54 50 46 5 41 40 34 4 19 36 52 25 18 37 38 9 27 55 6 24 20 17 11 13 29 33 53 10 26 14 1 12 45 48 2 43 31 16 22 42 44 21 35 30 28
p cnf 55 132
29 32 5 0
-29 -32 0
-29 -5 0
-32 -5 0
48 41 50 0
-48 -41 0
-48 -50 0
-41 -50 0
14 49 33 0
-14 -49 0
-14 -33 0
-49 -33 0
24 29 26 0
-24 -29 0
-24 -26 0
-29 -26 0
14 11 36 0
-14 -11 0
-14 -36 0
-11 -36 0
3 55 53 0
-3 -55 0
-3 -53 0
-55 -53 0
50 3 39 0
-50 -3 0
-50 -39 0
-3 -39 0
25 9 31 0
-25 -9 0
-25 -31 0
-9 -31 0
37 34 12 0
-37 -34 0
-37 -12 0
-34 -12 0
30 46 14 0
-30 -46 0
-30 -14 0
-46 -14 0
55 35 24 0
-55 -35 0
-55 -24 0
-35 -24 0
9 49 22 0
-9 -49 0
-9 -22 0
-49 -22 0
43 16 33 0
-43 -16 0
-43 -33 0
-16 -33 0
19 14 43 0
-19 -14 0
-19 -43 0
-14 -43 0
16 52 41 0
-16 -52 0
-16 -41 0
-52 -41 0
46 2 30 0
-46 -2 0
-46 -30 0
-2 -30 0
55 37 22 0
-55 -37 0
-55 -22 0
-37 -22 0
14 40 32 0
-14 -40 0
-14 -32 0
-40 -32 0
52 36 3 0
-52 -36 0
-52 -3 0
-36 -3 0
27 20 21 0
-27 -20 0
-27 -21 0
-20 -21 0
41 48 27 0
-41 -48 0
-41 -27 0
-48 -27 0
43 30 47 0
-43 -30 0
-43 -47 0
-30 -47 0
15 46 22 0
-15 -46 0
-15 -22 0
-46 -22 0
54 35 47 0
-54 -35 0
-54 -47 0
-35 -47 0
3 41 54 0
-3 -41 0
-3 -54 0
-41 -54 0
8 49 50 0
-8 -49 0
-8 -50 0
-49 -50 0
25 31 21 0
-25 -31 0
-25 -21 0
-31 -21 0
28 4 23 0
-28 -4 0
-28 -23 0
-4 -23 0
48 36 18 0
-48 -36 0
-48 -18 0
-36 -18 0
42 9 30 0
-42 -9 0
-42 -30 0
-9 -30 0
16 46 48 0
-16 -46 0
-16 -48 0
-46 -48 0
48 38 22 0
-48 -38 0
-48 -22 0
-38 -22 0
14 1 12 0
-14 -1 0
-14 -12 0
-1 -12 0
