c family=1-in-3-SAT n=55 instance=5 seed=3881676977 models=3072
c order 26 8 24 32 25 2 3 36 6 44 50 1 30 18 22 13 38 49 23 39 45 14 4 43 29 21 11 7 47 16 10 41 40 54 9 51 20 55 48 35 37 52 15 17 46 33 53 28 31 27 5 19 34 12 42
c order 46 9 33 25 16 17 47 34 20 15 48 19 8 30 35 13 43 49 36 11 50 12 38 5 45 23 44 18 2 31 14 41 53 55 24 1 52 26 40 39 29 7 3 28 22 10 42 32 37 4 21 6 54 51 27
c order 26 42 37 32 15 17 34 51 40 28 8 45 41 49 23 55 47 10 3 13 36 50 1 29 9 31 6 7 27 30 44 39 54 12 19 46 18 38 4 14 16 20 22 48 21 35 24 43 2 25 53 5 52 33 11
c order 48 6 3 41 11 15 49 47 24 28 5 23 42 38 14 21 29 19 52 31 34 40 55 50 4 51 8 36 44 39 10 18 17 25 26 13 12 2 45 33 30 7 43 37 35 46 20 22 53 9 32 16 27 54 1
c order 55 31 39 34 7 12 49 52 24 25 46 6 18 3 45 35 11 54 22 37 10 19 2 14 4 16 38 13 26 29 27 28 50 5 21 51 23 44 53 8 47 30 36 1 17 40 42 48 20 9 15 43 33 41 32
c order 22 55 51 36 43 42 50 19 13 8 27 28 23 44 49 38 39 5 33 9 3 14 46 41 21 54 25 40 37 12 16 24 32 34 2 31 7 18 30 29 47 52 45 26 48 53 6 4 20 17 1 15 11 10 35
c order 45 10 34 7 41 23 51 42 13 33 37 46 11 43 16 55 29 9 1 31 50 52 15 21 2 47 35 53 6 49 36 27 4 26 14 28 39 40 17 24 19 12 5 25 8 3 22 32 30 44 18 38 54 20 48
c order 36 54 28 55 43 6 41 8 53 26 46 44 7 38 15 22 45 50 51 24 20 39 40 16 32 18 25 49 47 52 13 35 29 12 14 3 17 23 30 42 9 34 31 5 2 11 27 4 10 33 1 48 21 19 37
c order 40 15 16 19 54 34 25 18 51 17 37 49 43 38 32 52 41 22 8 46 5 30 4 44 35 6 10 48 45 9 33 47 11 39 14 50 7 20 36 3 24 31 42 55 21 12 23 13 29 26 53 2 28 1 27
c order 50 16 12 21 3 1 24 36 54 27 34 2 11 42 53 55 9 40 28 26 51 41 46 19 13 14 31 18 37 43 5 47 32 6 15 17 45 33 38 22 7 52 44 49 35 25 29 4 10 48 20 39 23 30 8
p cnf 55 132
15 28 53 0
-15 -28 0
-15 -53 0
-28 -53 0
34 50 54 0
-34 -50 0
-34 -54 0
-50 -54 0
33 54 20 0
-33 -54 0
-33 -20 0
-54 -20 0
50 10 26 0
-50 -10 0
-50 -26 0
-10 -26 0
8 17 28 0
-8 -17 0
-8 -28 0
-17 -28 0
32 45 49 0
-32 -45 0
-32 -49 0
-45 -49 0
29 52 13 0
-29 -52 0
-29 -13 0
-52 -13 0
34 28 20 0
-34 -28 0
-34 -20 0
-28 -20 0
17 25 26 0
-17 -25 0
-17 -26 0
-25 -26 0
42 37 12 0
-42 -37 0
-42 -12 0
-37 -12 0
18 38 47 0
-18 -38 0
-18 -47 0
-38 -47 0
17 46 33 0
-17 -46 0
-17 -33 0
-46 -33 0
33 3 10 0
-33 -3 0
-33 -10 0
-3 -10 0
55 38 15 0
-55 -38 0
-55 -15 0
-38 -15 0
33 53 48 0
-33 -53 0
-33 -48 0
-53 -48 0
45 50 26 0
-45 -50 0
-45 -26 0
-50 -26 0
7 27 35 0
-7 -27 0
-7 -35 0
-27 -35 0
32 26 29 0
-32 -26 0
-32 -29 0
-26 -29 0
54 48 24 0
-54 -48 0
-54 -24 0
-48 -24 0
15 35 24 0
-15 -35 0
-15 -24 0
-35 -24 0
51 17 45 0
-51 -17 0
-51 -45 0
-17 -45 0
29 3 7 0
-29 -3 0
-29 -7 0
-3 -7 0
10 31 48 0
-10 -31 0
-10 -48 0
-31 -48 0
7 44 39 0
-7 -44 0
-7 -39 0
-44 -39 0
2 54 41 0
-2 -54 0
-2 -41 0
-54 -41 0
45 53 55 0
-45 -53 0
-45 -55 0
-53 -55 0
36 55 9 0
-36 -55 0
-36 -9 0
-55 -9 0
27 28 21 0
-27 -28 0
-27 -21 0
-28 -21 0
8 50 16 0
-8 -50 0
-8 -16 0
-50 -16 0
28 16 46 0
-28 -16 0
-28 -46 0
-16 -46 0
43 50 22 0
-43 -50 0
-43 -22 0
-50 -22 0
23 33 19 0
-23 -33 0
-23 -19 0
-33 -19 0
40 45 51 0
-40 -45 0
-40 -51 0
-45 -51 0
