c family=1-in-3-SAT n=55 instance=6 seed=3881676977 models=6784
c order 35 24 11 5 8 48 9 30 28 23 25 41 52 40 26 49 53 18 32 1 51 50 19 2 37 3 21 44 14 12 36 22 7 4 10 15 45 29 47 55 17 16 27 42 39 38 13 46 6 31 33 43 34 54 20
c order 53 31 34 9 3 35 10 33 49 12 41 15 45 14 39 17 40 50 23 32 2 20 24 46 36 21 47 37 18 30 55 54 44 7 11 27 25 13 22 28 4 5 16 48 43 1 29 42 52 51 8 38 6 19 26
c order 1 53 48 41 34 24 38 23 46 26 35 28 17 4 43 45 37 16 2 22 30 39 3 40 5 36 55 52 44 8 12 42 47 11 18 29 50 20 27 49 13 14 51 10 9 21 15 33 25 32 7 6 54 31 19
c order 23 45 54 11 20 32 36 27 19 40 21 15 22 10 6 2 37 5 50 43 7 53 38 39 28 31 29 26 41 18 34 42 49 24 13 4 9 30 16 12 55 33 52 3 17 35 48 25 47 8 14 44 46 1 51
c order 21 40 35 1 9 37 54 43 15 45 42 20 6 16 50 12 39 4 51 25 8 22 27 32 30 34 7 41 19 24 17 53 11 48 23 13 14 38 10 2 44 31 49 55 26 29 3 33 18 46 52 36 47 5 28
c order 51 55 18 17 46 6 37 4 34 21 39 25 38 33 3 22 9 1 24 15 28 10 20 5 14 53 7 44 2 19 42 12 45 8 52 43 23 31 49 40 50 47 30 16 32 41 26 36 11 13 35 48 27 54 29
c order 5 51 43 23 18 54 39 22 41 35 37 45 26 4 12 13 29 10 19 21 25 11 47 52 24 2 48 9 27 55 3 1 44 49 34 8 46 32 20 40 6 36 15 17 38 33 50 31 14 7 30 53 28 16 42
c order 54 33 14 23 51 13 22 16 34 49 50 43 38 5 11 32 40 12 35 9 29 36 55 28 18 24 17 27 2 21 7 39 19 41 44 20 52 31 48 15 47 4 26 6 30 8 53 37 25 46 45 42 10 1 3
c order 20 55 47 54 2 6 44 53 41 26 11 30 16 22 52 37 51 31 8 43 13 40 3 45 28 34 5 48 38 35 29 27 25 33 18 4 42 19 46 14 9 32 24 39 50 21 23 1 17 49 12 7 15 36 10
c order 46 44 55 50 40 14 10 52 37 7 33 54 13 19 42 25 30 24 23 16 1 31 36 35 38 3 22 29 47 48 45 34 28 53 41 26 39 12 21 20 11 27 51 15 32 49 43 6 5 2 8 9 4 17 18
p cnf 55 132
2 20 4 0
-2 -20 0
-2 -4 0
-20 -4 0
3 50 21 0
-3 -50 0
-3 -21 0
-50 -21 0
54 26 41 0
-54 -26 0
-54 -41 0
-26 -41 0
52 15 14 0
-52 -15 0
-52 -14 0
-15 -14 0
37 27 33 0
-37 -27 0
-37 -33 0
-27 -33 0
18 7 33 0
-18 -7 0
-18 -33 0
-7 -33 0
10 32 35 0
-10 -32 0
-10 -35 0
-32 -35 0
4 54 40 0
-4 -54 0
-4 -40 0
-54 -40 0
28 30 26 0
-28 -30 0
-28 -26 0
-30 -26 0
29 45 41 0
-29 -45 0
-29 -41 0
-45 -41 0
43 11 45 0
-43 -11 0
-43 -45 0
-11 -45 0
5 45 49 0
-5 -45 0
-5 -49 0
-45 -49 0
38 40 43 0
-38 -40 0
-38 -43 0
-40 -43 0
1 35 9 0
-1 -35 0
-1 -9 0
-35 -9 0
43 30 20 0
-43 -30 0
-43 -20 0
-30 -20 0
19 9 29 0
-19 -9 0
-19 -29 0
-9 -29 0
36 31 40 0
-36 -31 0
-36 -40 0
-31 -40 0
35 46 11 0
-35 -46 0
-35 -11 0
-46 -11 0
23 29 43 0
-23 -29 0
-23 -43 0
-29 -43 0
11 21 50 0
-11 -21 0
-11 -50 0
-21 -50 0
35 4 28 0
-35 -4 0
-35 -28 0
-4 -28 0
51 41 6 0
-51 -41 0
-51 -6 0
-41 -6 0
6 33 10 0
-6 -33 0
-6 -10 0
-33 -10 0
53 1 13 0
-53 -1 0
-53 -13 0
-1 -13 0
1 24 22 0
-1 -24 0
-1 -22 0
-24 -22 0
21 48 4 0
-21 -48 0
-21 -4 0
-48 -4 0
19 52 16 0
-19 -52 0
-19 -16 0
-52 -16 0
53 37 31 0
-53 -37 0
-53 -31 0
-37 -31 0
22 47 50 0
-22 -47 0
-22 -50 0
-47 -50 0
25 9 16 0
-25 -9 0
-25 -16 0
-9 -16 0
3 34 50 0
-3 -34 0
-3 -50 0
-34 -50 0
22 25 40 0
-22 -25 0
-22 -40 0
-25 -40 0
42 27 45 0
-42 -27 0
-42 -45 0
-27 -45 0
