c family=1-in-3-SAT n=55 instance=3 seed=3881676977 models=13568
c order 32 45 41 52 23 50 42 51 54 24 28 34 43 36 3 14 4 8 21 49 2 12 39 31 29 15 48 33 10 5 22 37 17 6 55 47 30 7 18 16 20 19 38 11 13 46 35 9 40 1 26 44 27 53 25
c order 55 38 25 4 45 19 53 2 24 12 30 33 13 26 3 14 41 42 31 22 9 43 15 40 17 52 46 29 5 18 34 8 44 20 49 35 36 10 21 32 39 47 6 27 11 54 7 50 48 16 37 23 28 51 1
c order 27 43 13 22 46 19 39 31 20 35 45 41 1 2 38 50 16 33 17 47 28 40 32 7 48 55 44 12 34 23 11 18 52 37 36 9 3 30 25 6 15 21 4 51 49 26 14 24 53 29 8 10 5 42 54
c order 46 45 2 5 26 25 29 33 34 31 23 17 37 21 40 53 1 9 41 8 42 7 55 54 49 52 4 36 43 16 48 18 38 35 47 12 20 13 6 14 3 19 30 44 28 11 51 10 22 24 39 27 32 15 50
c order 29 48 7 39 41 24 53 31 8 23 30 22 1 42 15 12 36 25 52 37 28 10 46 35 38 20 32 6 54 9 4 44 21 18 19 17 43 40 2 16 14 55 49 47 27 26 50 11 3 33 13 5 51 34 45
c order 39 34 5 16 46 42 12 8 29 9 54 10 25 26 4 30 24 36 31 27 21 40 13 47 14 45 23 43 1 28 37 48 22 38 11 15 18 52 32 41 44 2 19 50 53 33 17 49 51 7 55 20 6 35 3
c order 13 26 55 19 28 54 10 39 44 34 6 42 40 24 12 41 30 27 50 32 4 49 29 20 2 51 16 14 53 35 17 1 52 33 3 25 48 7 45 46 21 18 38 31 9 8 15 11 23 5 43 37 47 36 22
c order 51 10 9 8 18 30 1 46 6 27 26 44 16 20 39 38 23 54 33 12 17 50 36 13 5 43 31 34 24 53 29 2 22 45 42 55 49 15 41 14 4 37 32 35 28 47 3 7 40 21 11 19 25 52 48
c order 47 11 12 41 55 31 2 6 18 40 42 14 1 27 25 16 24 32 35 9 53 10 50 21 28 48 29 51 20 46 43 22 33 13 5 38 54 19 30 4 39 3 52 34 15 49 26 8 17 37 44 36 45 23 7
c order 45 16 13 9 31 40 6 4 25 20 35 1 43 27 53 39 52 26 28 34 10 47 22 50 38 3 32 11 7 24 5 33 30 54 21 42 44 29 55 23 14 49 19 15 48 18 36 37 8 17 12 2 51 41 46
p cnf 55 132
4 25 53 0
-4 -25 0
-4 -53 0
-25 -53 0
39 37 45 0
-39 -37 0
-39 -45 0
-37 -45 0
15 32 47 0
-15 -32 0
-15 -47 0
-32 -47 0
4 34 12 0
-4 -34 0
-4 -12 0
-34 -12 0
23 6 27 0
-23 -6 0
-23 -27 0
-6 -27 0
41 30 20 0
-41 -30 0
-41 -20 0
-30 -20 0
43 33 44 0
-43 -33 0
-43 -44 0
-33 -44 0
34 7 39 0
-34 -7 0
-34 -39 0
-7 -39 0
3 14 43 0
-3 -14 0
-3 -43 0
-14 -43 0
32 44 1 0
-32 -44 0
-32 -1 0
-44 -1 0
31 17 40 0
-31 -17 0
-31 -40 0
-17 -40 0
1 31 17 0
-1 -31 0
-1 -17 0
-31 -17 0
19 39 21 0
-19 -39 0
-19 -21 0
-39 -21 0
16 49 40 0
-16 -49 0
-16 -40 0
-49 -40 0
24 15 19 0
-24 -15 0
-24 -19 0
-15 -19 0
16 48 33 0
-16 -48 0
-16 -33 0
-48 -33 0
41 9 47 0
-41 -9 0
-41 -47 0
-9 -47 0
11 14 55 0
-11 -14 0
-11 -55 0
-14 -55 0
45 40 50 0
-45 -40 0
-45 -50 0
-40 -50 0
30 22 5 0
-30 -22 0
-30 -5 0
-22 -5 0
3 50 35 0
-3 -50 0
-3 -35 0
-50 -35 0
29 47 13 0
-29 -47 0
-29 -13 0
-47 -13 0
30 26 3 0
-30 -26 0
-30 -3 0
-26 -3 0
2 23 26 0
-2 -23 0
-2 -26 0
-23 -26 0
44 35 43 0
-44 -35 0
-44 -43 0
-35 -43 0
6 34 26 0
-6 -34 0
-6 -26 0
-34 -26 0
18 11 37 0
-18 -11 0
-18 -37 0
-11 -37 0
51 22 33 0
-51 -22 0
-51 -33 0
-22 -33 0
19 28 16 0
-19 -28 0
-19 -16 0
-28 -16 0
55 48 38 0
-55 -48 0
-55 -38 0
-48 -38 0
31 50 30 0
-31 -50 0
-31 -30 0
-50 -30 0
38 27 36 0
-38 -27 0
-38 -36 0
-27 -36 0
12 45 50 0
-12 -45 0
-12 -50 0
-45 -50 0
