c family=1-in-3-SAT n=55 instance=1 seed=3881676977 models=12288
c order 52 11 33 55 9 38 4 7 48 37 18 43 6 26 1 19 32 35 20 5 8 42 14 53 23 50 2 36 3 24 21 39 27 34 46 29 49 54 40 45 30 13 15 10 17 22 31 12 28 25 16 51 41 44 47
c order 17 40 11 44 24 4 20 29 35 7 42 26 21 52 25 31 30 3 49 48 9 53 33 23 1 45 19 47 27 43 54 16 51 13 12 2 46 50 6 32 14 41 10 15 39 8 18 5 55 22 36 37 38 34 28
c order 29 21 4 48 3 20 55 53 1 11 2 35 25 37 23 49 39 17 26 33 12 54 10 27 51 32 34 16 52 50 36 6 9 24 31 22 19 15 13 45 41 5 8 43 40 42 18 44 14 30 28 46 38 47 7
c order 23 20 54 31 47 18 28 9 45 1 11 30 51 2 36 17 21 5 4 13 19 3 42 16 8 40 25 35 22 49 50 55 27 39 12 6 53 37 7 33 32 10 15 52 14 41 38 48 44 46 24 34 29 43 26
c order 48 13 1 51 11 50 27 9 35 19 49 42 52 40 16 46 47 3 17 36 22 5 15 29 14 26 41 4 24 21 23 43 12 45 53 7 34 44 38 8 18 33 28 30 6 32 2 55 31 10 25 37 54 20 39
c order 1 34 23 14 9 49 53 39 13 28 8 10 2 30 35 54 27 43 33 46 41 17 20 16 32 6 11 50 52 25 44 47 55 45 7 22 42 31 12 40 3 29 21 15 4 19 18 48 37 51 38 36 26 24 5
c order 32 54 4 34 37 39 5 44 47 45 19 27 36 7 16 49 17 12 2 6 30 26 22 43 52 10 40 35 53 29 24 48 1 14 11 38 13 55 20 46 33 21 25 18 8 41 15 42 31 28 9 51 50 3 23
c order 39 50 48 30 36 13 21 34 43 31 2 38 20 27 49 46 22 51 24 12 5 55 9 47 41 14 37 28 4 44 52 45 6 35 19 11 33 29 8 54 42 1 53 40 32 3 25 23 18 16 7 17 15 10 26
c order 42 11 38 28 48 32 35 1 34 44 15 8 53 31 45 37 54 47 13 30 9 49 51 55 16 10 41 29 21 27 46 36 39 22 33 2 3 26 40 18 50 43 20 17 4 24 23 12 52 5 7 6 14 25 19
c order 31 47 17 43 33 7 35 19 44 54 55 21 3 39 50 38 29 14 18 26 22 28 9 34 13 46 1 5 30 12 49 27 11 52 8 6 37 10 36 42 23 2 48 32 20 45 41 24 25 40 51 53 16 15 4
p cnf 55 132
2 49 30 0
-2 -49 0
-2 -30 0
-49 -30 0
14 2 55 0
-14 -2 0
-14 -55 0
-2 -55 0
6 29 27 0
-6 -29 0
-6 -27 0
-29 -27 0
26 50 6 0
-26 -50 0
-26 -6 0
-50 -6 0
17 32 25 0
-17 -32 0
-17 -25 0
-32 -25 0
29 48 31 0
-29 -48 0
-29 -31 0
-48 -31 0
27 43 49 0
-27 -43 0
-27 -49 0
-43 -49 0
21 14 5 0
-21 -14 0
-21 -5 0
-14 -5 0
52 10 28 0
-52 -10 0
-52 -28 0
-10 -28 0
37 13 54 0
-37 -13 0
-37 -54 0
-13 -54 0
38 37 29 0
-38 -37 0
-38 -29 0
-37 -29 0
45 31 19 0
-45 -31 0
-45 -19 0
-31 -19 0
16 29 49 0
-16 -29 0
-16 -49 0
-29 -49 0
17 15 4 0
-17 -15 0
-17 -4 0
-15 -4 0
54 32 30 0
-54 -32 0
-54 -30 0
-32 -30 0
52 17 46 0
-52 -17 0
-52 -46 0
-17 -46 0
2 10 49 0
-2 -10 0
-2 -49 0
-10 -49 0
50 44 54 0
-50 -44 0
-50 -54 0
-44 -54 0
3 18 27 0
-3 -18 0
-3 -27 0
-18 -27 0
3 1 41 0
-3 -1 0
-3 -41 0
-1 -41 0
55 17 27 0
-55 -17 0
-55 -27 0
-17 -27 0
25 15 6 0
-25 -15 0
-25 -6 0
-15 -6 0
48 4 8 0
-48 -4 0
-48 -8 0
-4 -8 0
31 8 20 0
-31 -8 0
-31 -20 0
-8 -20 0
26 35 27 0
-26 -35 0
-26 -27 0
-35 -27 0
27 24 42 0
-27 -24 0
-27 -42 0
-24 -42 0
24 43 42 0
-24 -43 0
-24 -42 0
-43 -42 0
38 33 42 0
-38 -33 0
-38 -42 0
-33 -42 0
3 6 46 0
-3 -6 0
-3 -46 0
-6 -46 0
20 12 18 0
-20 -12 0
-20 -18 0
-12 -18 0
26 19 49 0
-26 -19 0
-26 -49 0
-19 -49 0
29 55 36 0
-29 -55 0
-29 -36 0
-55 -36 0
1 16 19 0
-1 -16 0
-1 -19 0
-16 -19 0
