c family=1-in-3-SAT n=55 instance=9 seed=3881676977 models=16384
c order 21 5 8 9 26 45 17 34 12 31 4 15 6 50 10 39 2 7 41 11 24 43 42 36 33 51 46 40 30 18 48 38 23 13 20 53 3 54 14 55 19 16 47 29 35 37 49 27 22 44 25 32 28 52 1
c order 10 9 12 4 42 31 45 1 49 16 3 52 32 22 46 5 14 55 7 28 30 11 8 17 23 20 50 41 33 38 25 37 18 51 2 24 13 54 34 47 39 15 19 53 35 26 29 21 48 40 27 36 43 44 6
c order 37 33 19 35 48 5 41 55 11 23 38 21 44 17 51 31 14 54 13 3 30 45 10 20 32 18 49 28 7 16 22 25 39 52 8 46 36 50 34 1 24 6 9 26 27 15 12 40 43 47 53 2 29 4 42
c order 15 33 10 41 31 50 18 46 7 44 30 53 12 2 43 16 48 5 49 26 52 38 1 55 35 36 40 9 13 23 27 29 25 4 42 20 24 22 3 14 39 45 21 17 47 8 34 11 51 28 19 32 6 54 37
c order 41 7 24 54 8 45 44 33 4 34 27 14 22 23 1 38 25 43 42 3 39 49 48 5 13 17 53 50 46 11 32 28 36 9 2 40 20 55 37 6 47 12 31 26 29 19 51 52 21 16 18 35 10 30 15
c order 26 10 9 30 32 18 23 43 36 35 47 34 20 29 51 25 4 14 45 8 50 17 54 15 6 21 16 48 12 44 49 42 1 5 40 41 33 24 19 27 55 46 37 52 22 7 11 38 39 31 53 13 2 3 28
c order 44 7 18 14 32 41 49 26 50 20 22 9 29 27 8 47 45 34 23 21 1 3 11 10 28 16 42 2 15 39 40 51 24 38 5 43 31 48 36 4 37 19 53 54 6 33 35 52 55 25 46 13 12 30 17
c order 20 34 53 46 3 44 28 54 16 31 6 39 21 14 8 5 41 29 2 22 11 37 50 35 55 24 47 36 23 18 7 48 33 19 17 10 13 9 12 49 38 27 30 52 51 43 4 45 15 25 1 32 26 42 40
c order 51 40 3 25 45 29 21 38 19 34 11 22 46 16 23 13 36 20 44 6 42 14 30 12 37 27 55 54 47 28 50 39 2 53 26 15 5 8 52 41 24 10 18 49 48 4 35 32 17 33 1 31 43 9 7
c order 42 48 45 38 23 36 6 14 53 37 30 5 32 10 1 9 13 7 18 39 55 31 47 3 46 41 43 25 26 2 20 27 29 17 22 11 40 24 44 12 15 8 51 4 52 34 54 19 16 49 28 21 33 35 50
p cnf 55 132
31 53 10 0
-31 -53 0
-31 -10 0
-53 -10 0
14 26 10 0
-14 -26 0
-14 -10 0
-26 -10 0
51 20 19 0
-51 -20 0
-51 -19 0
-20 -19 0
17 22 40 0
-17 -22 0
-17 -40 0
-22 -40 0
31 10 4 0
-31 -10 0
-31 -4 0
-10 -4 0
31 45 2 0
-31 -45 0
-31 -2 0
-45 -2 0
25 7 31 0
-25 -7 0
-25 -31 0
-7 -31 0
5 34 11 0
-5 -34 0
-5 -11 0
-34 -11 0
40 15 10 0
-40 -15 0
-40 -10 0
-15 -10 0
23 18 4 0
-23 -18 0
-23 -4 0
-18 -4 0
31 45 30 0
-31 -45 0
-31 -30 0
-45 -30 0
36 52 53 0
-36 -52 0
-36 -53 0
-52 -53 0
53 2 48 0
-53 -2 0
-53 -48 0
-2 -48 0
7 41 14 0
-7 -41 0
-7 -14 0
-41 -14 0
7 8 27 0
-7 -8 0
-7 -27 0
-8 -27 0
20 37 2 0
-20 -37 0
-20 -2 0
-37 -2 0
43 39 18 0
-43 -39 0
-43 -18 0
-39 -18 0
27 25 20 0
-27 -25 0
-27 -20 0
-25 -20 0
34 46 39 0
-34 -46 0
-34 -39 0
-46 -39 0
10 51 41 0
-10 -51 0
-10 -41 0
-51 -41 0
2 42 53 0
-2 -42 0
-2 -53 0
-42 -53 0
47 8 38 0
-47 -8 0
-47 -38 0
-8 -38 0
25 28 7 0
-25 -28 0
-25 -7 0
-28 -7 0
18 22 37 0
-18 -22 0
-18 -37 0
-22 -37 0
51 48 21 0
-51 -48 0
-51 -21 0
-48 -21 0
44 33 25 0
-44 -33 0
-44 -25 0
-33 -25 0
26 23 43 0
-26 -23 0
-26 -43 0
-23 -43 0
20 43 9 0
-20 -43 0
-20 -9 0
-43 -9 0
43 23 10 0
-43 -23 0
-43 -10 0
-23 -10 0
4 55 42 0
-4 -55 0
-4 -42 0
-55 -42 0
46 54 17 0
-46 -54 0
-46 -17 0
-54 -17 0
7 41 8 0
-7 -41 0
-7 -8 0
-41 -8 0
19 53 52 0
-19 -53 0
-19 -52 0
-53 -52 0
