c family=1-in-3-SAT n=55 instance=4 seed=3881676977 models=11264
c order 15 1 14 27 7 29 12 53 4 24 3 25 55 48 2 51 19 11 10 31 45 43 20 41 36 33 39 26 22 40 13 52 54 44 32 17 47 23 30 28 50 8 46 9 21 42 49 5 6 18 34 35 38 37 16
c order 29 43 28 7 38 33 41 40 6 23 45 55 50 13 22 30 24 36 18 2 25 11 27 21 42 52 15 19 4 1 44 34 14 32 9 10 51 47 26 5 49 46 37 16 17 31 53 39 3 20 8 54 12 48 35
c order 52 37 27 11 32 47 30 3 28 23 14 9 41 7 19 34 40 54 42 4 24 10 21 46 55 1 13 2 16 18 33 20 48 15 35 17 6 53 49 51 44 31 36 22 50 8 29 39 38 26 12 45 5 25 43
c order 32 33 53 35 38 19 34 55 20 44 4 12 11 26 8 14 9 42 31 29 17 27 37 10 24 45 39 1 50 21 41 30 28 5 23 46 43 49 25 3 51 6 48 54 16 15 13 36 52 18 40 47 22 7 2
c order 28 26 48 21 35 47 17 20 12 43 32 9 37 10 3 38 54 25 44 18 29 46 55 52 4 39 24 49 13 33 6 22 11 27 15 34 30 31 1 41 53 16 23 40 8 45 5 42 7 14 2 36 50 51 19
c order 29 30 23 6 52 25 50 1 54 19 36 37 15 43 2 3 24 22 13 41 16 17 5 47 31 44 7 34 51 39 38 45 9 28 32 4 49 20 55 53 26 48 12 40 11 8 21 18 35 10 46 42 14 27 33
c order 5 24 41 15 27 31 49 26 6 22 25 52 9 21 50 1 39 14 18 36 10 30 19 8 53 12 32 40 54 28 4 7 17 2 51 3 48 42 55 46 43 13 34 11 45 38 47 37 35 23 33 16 44 20 29
c order 31 55 4 46 13 45 41 35 25 1 11 51 47 24 44 53 15 14 7 48 39 28 10 29 38 3 2 50 37 34 40 27 6 19 8 42 21 33 22 36 16 18 30 54 5 9 32 12 17 20 43 49 52 26 23
c order 5 34 4 29 35 20 19 13 54 10 9 47 24 22 3 25 15 50 53 7 44 52 46 26 6 43 41 39 45 30 31 51 36 17 14 1 11 28 38 48 40 21 32 49 23 12 33 27 16 18 42 55 37 2 8
c order 36 39 51 26 12 54 4 49 41 32 38 45 9 33 50 11 13 2 35 23 47 27 17 16 25 28 15 20 7 40 19 48 53 29 8 44 52 46 18 21 24 30 37 42 3 14 34 31 10 55 6 22 43 5 1
p cnf 55 132
14 10 49 0
-14 -10 0
-14 -49 0
-10 -49 0
42 43 21 0
-42 -43 0
-42 -21 0
-43 -21 0
53 25 23 0
-53 -25 0
-53 -23 0
-25 -23 0
20 40 19 0
-20 -40 0
-20 -19 0
-40 -19 0
17 24 52 0
-17 -24 0
-17 -52 0
-24 -52 0
23 36 47 0
-23 -36 0
-23 -47 0
-36 -47 0
37 42 32 0
-37 -42 0
-37 -32 0
-42 -32 0
49 43 33 0
-49 -43 0
-49 -33 0
-43 -33 0
5 35 18 0
-5 -35 0
-5 -18 0
-35 -18 0
17 37 4 0
-17 -37 0
-17 -4 0
-37 -4 0
46 23 7 0
-46 -23 0
-46 -7 0
-23 -7 0
5 14 37 0
-5 -14 0
-5 -37 0
-14 -37 0
24 16 43 0
-24 -16 0
-24 -43 0
-16 -43 0
46 50 30 0
-46 -50 0
-46 -30 0
-50 -30 0
42 7 32 0
-42 -7 0
-42 -32 0
-7 -32 0
41 16 9 0
-41 -16 0
-41 -9 0
-16 -9 0
53 35 28 0
-53 -35 0
-53 -28 0
-35 -28 0
45 40 37 0
-45 -40 0
-45 -37 0
-40 -37 0
5 26 35 0
-5 -26 0
-5 -35 0
-26 -35 0
13 43 30 0
-13 -43 0
-13 -30 0
-43 -30 0
24 14 3 0
-24 -14 0
-24 -3 0
-14 -3 0
40 54 2 0
-40 -54 0
-40 -2 0
-54 -2 0
43 49 46 0
-43 -49 0
-43 -46 0
-49 -46 0
29 14 11 0
-29 -14 0
-29 -11 0
-14 -11 0
43 19 4 0
-43 -19 0
-43 -4 0
-19 -4 0
30 25 52 0
-30 -25 0
-30 -52 0
-25 -52 0
23 9 6 0
-23 -9 0
-23 -6 0
-9 -6 0
12 46 15 0
-12 -46 0
-12 -15 0
-46 -15 0
2 35 25 0
-2 -35 0
-2 -25 0
-35 -25 0
42 1 41 0
-42 -1 0
-42 -41 0
-1 -41 0
5 13 34 0
-5 -13 0
-5 -34 0
-13 -34 0
22 37 20 0
-22 -37 0
-22 -20 0
-37 -20 0
2 4 21 0
-2 -4 0
-2 -21 0
-4 -21 0
