c family=1-in-3-SAT n=60 instance=2 seed=3881676977 models=2048
c order 14 1 10 15 49 50 48 44 4 60 41 5 28 27 54 26 7 20 47 13 17 34 38 16 39 21 11 24 18 22 32 55 52 31 56 35 9 58 8 30 43 42 53 45 46 51 23 40 3 57 29 37 59 12 19 6 25 2 36 33
c order 31 45 39 37 20 18 55 60 1 41 22 12 5 14 52 42 36 6 34 47 57 15 49 32 53 9 7 33 2 24 58 35 21 11 26 48 30 50 19 17 23 40 4 16 56 46 38 29 10 25 27 8 43 3 59 51 28 54 13 44
c order 1 30 54 55 53 27 12 14 37 49 3 23 25 10 20 38 31 6 39 43 50 34 24 15 40 56 35 45 42 26 58 51 41 29 9 16 13 48 19 57 8 33 17 4 7 22 44 18 59 5 36 47 21 52 28 2 46 60 11 32
c order 47 56 4 33 13 31 54 28 39 18 52 8 55 59 35 15 27 19 42 57 37 25 45 23 17 58 12 34 26 44 49 22 3 30 24 60 41 9 14 2 21 16 1 46 36 20 40 32 10 5 50 53 51 48 38 29 6 11 43 7
c order 21 33 29 30 10 44 52 11 20 43 56 32 37 25 16 23 42 48 49 34 14 55 38 26 9 19 46 39 59 36 27 4 41 57 60 5 15 3 2 6 18 35 54 51 47 8 28 50 17 22 7 12 1 24 13 53 45 58 31 40
c order 47 33 59 21 34 4 60 11 10 23 40 26 49 28 44 8 27 53 30 57 6 43 39 35 36 51 20 18 31 46 52 1 41 17 19 58 56 29 5 24 55 7 2 25 12 54 32 37 3 50 16 38 13 15 9 14 45 42 22 48
c order 45 8 56 7 9 12 59 35 40 34 17 25 32 48 30 20 19 36 55 33 2 38 46 47 53 57 5 43 3 14 6 13 42 23 21 16 18 50 39 29 22 31 4 28 52 26 49 51 11 27 54 15 37 24 44 58 10 1 41 60
c order 51 24 16 4 26 46 29 55 27 31 50 58 45 60 3 47 44 52 30 48 7 25 20 37 40 19 1 12 10 57 21 28 2 6 56 8 53 13 22 9 5 43 23 17 35 59 42 14 41 33 39 11 32 49 36 54 15 34 18 38
c order 11 13 30 54 8 6 44 41 10 17 39 59 31 60 25 5 42 33 18 22 36 28 26 15 58 7 50 12 14 43 48 21 3 27 55 49 2 24 23 29 52 37 4 57 20 47 16 53 56 32 40 51 34 45 19 46 35 38 9 1
c order 54 9 11 24 30 7 19 20 38 2 29 13 56 33 47 43 15 44 50 53 31 60 40 25 48 49 39 5 57 17 8 1 55 16 45 14 35 51 22 23 3 27 12 46 28 32 18 59 4 26 6 42 34 41 58 37 36 10 52 21
p cnf 60 144
42 52 37 0
-42 -52 0
-42 -37 0
-52 -37 0
35 57 29 0
-35 -57 0
-35 -29 0
-57 -29 0
10 54 25 0
-10 -54 0
-10 -25 0
-54 -25 0
60 25 46 0
-60 -25 0
-60 -46 0
-25 -46 0
11 48 35 0
-11 -48 0
-11 -35 0
-48 -35 0
3 25 60 0
-3 -25 0
-3 -60 0
-25 -60 0
4 12 20 0
-4 -12 0
-4 -20 0
-12 -20 0
56 57 55 0
-56 -57 0
-56 -55 0
-57 -55 0
30 41 45 0
-30 -41 0
-30 -45 0
-41 -45 0
35 33 27 0
-35 -33 0
-35 -27 0
-33 -27 0
51 45 59 0
-51 -45 0
-51 -59 0
-45 -59 0
59 29 20 0
-59 -29 0
-59 -20 0
-29 -20 0
21 9 30 0
-21 -9 0
-21 -30 0
-9 -30 0
41 18 1 0
-41 -18 0
-41 -1 0
-18 -1 0
1 9 40 0
-1 -9 0
-1 -40 0
-9 -40 0
29 5 15 0
-29 -5 0
-29 -15 0
-5 -15 0
49 42 25 0
-49 -42 0
-49 -25 0
-42 -25 0
30 16 22 0
-30 -16 0
-30 -22 0
-16 -22 0
33 58 46 0
-33 -58 0
-33 -46 0
-58 -46 0
8 20 28 0
-8 -20 0
-8 -28 0
-20 -28 0
59 42 4 0
-59 -42 0
-59 -4 0
-42 -4 0
26 53 18 0
-26 -53 0
-26 -18 0
-53 -18 0
2 16 45 0
-2 -16 0
-2 -45 0
-16 -45 0
14 13 23 0
-14 -13 0
-14 -23 0
-13 -23 0
31 39 14 0
-31 -39 0
-31 -14 0
-39 -14 0
51 35 39 0
-51 -35 0
-51 -39 0
-35 -39 0
60 13 56 0
-60 -13 0
-60 -56 0
-13 -56 0
51 22 54 0
-51 -22 0
-51 -54 0
-22 -54 0
38 22 31 0
-38 -22 0
-38 -31 0
-22 -31 0
44 30 28 0
-44 -30 0
-44 -28 0
-30 -28 0
19 34 35 0
-19 -34 0
-19 -35 0
-34 -35 0
22 43 54 0
-22 -43 0
-22 -54 0
-43 -54 0
1 49 10 0
-1 -49 0
-1 -10 0
-49 -10 0
51 30 42 0
-51 -30 0
-51 -42 0
-30 -42 0
2 38 14 0
-2 -38 0
-2 -14 0
-38 -14 0
48 59 13 0
-48 -59 0
-48 -13 0
-59 -13 0
