c family=1-in-3-SAT n=60 instance=8 seed=3881676977 models=12288
c order 5 17 19 2 45 34 31 29 40 48 3 32 42 30 15 39 55 11 41 7 10 20 8 50 18 1 6 53 28 25 9 14 27 35 37 23 13 12 52 33 44 16 54 47 43 36 51 49 58 22 4 57 56 46 24 26 59 21 60 38
c order 32 16 42 40 12 28 24 48 45 41 34 27 8 35 23 30 7 36 43 9 2 21 57 52 18 50 25 3 46 53 20 4 11 6 49 58 29 60 26 14 54 5 13 37 15 44 31 19 33 56 17 55 10 38 51 1 22 39 47 59
c order 59 7 57 28 53 5 24 49 36 52 32 54 20 60 39 42 31 3 12 18 38 45 13 51 21 10 47 25 37 43 29 34 8 56 17 55 4 30 27 14 15 22 33 1 11 9 40 6 23 16 19 35 41 44 2 48 46 58 26 50
c order 47 52 22 1 12 43 16 33 56 28 20 11 9 10 41 17 7 4 58 51 40 8 26 24 39 29 48 32 42 3 44 59 25 46 14 54 18 13 5 30 38 27 6 31 15 60 2 37 19 45 55 50 23 53 36 35 34 49 21 57
c order 36 9 27 2 1 45 54 15 42 14 49 18 5 23 4 3 33 52 48 39 19 56 29 24 32 40 51 12 44 13 30 20 37 28 25 53 6 46 22 21 17 26 7 10 47 34 50 41 8 43 57 38 60 58 35 16 59 31 11 55
c order 9 13 57 17 40 18 43 36 35 39 29 4 60 31 54 15 16 51 42 6 14 53 1 52 59 47 44 26 23 22 5 48 24 34 37 45 55 49 11 46 32 7 30 21 20 2 50 3 38 19 56 12 27 8 41 28 33 58 25 10
c order 53 33 39 60 14 5 24 43 11 59 20 49 26 46 9 29 54 23 7 56 2 17 1 57 25 27 50 40 16 38 55 47 13 6 48 41 44 34 8 37 4 10 21 22 28 3 36 15 52 45 19 12 30 42 35 58 18 32 51 31
c order 19 4 15 31 14 42 28 57 36 35 23 12 37 50 55 56 30 26 29 3 27 48 41 49 40 11 58 54 13 52 2 38 5 33 22 9 43 7 53 20 44 59 24 32 16 1 6 18 21 60 46 39 8 51 45 25 17 10 47 34
c order 13 34 9 36 6 17 20 54 53 14 38 57 56 15 37 59 27 39 28 16 35 52 33 24 1 40 12 51 49 44 32 2 21 60 46 19 18 26 7 4 10 30 43 42 11 41 3 48 5 25 58 31 8 22 23 47 45 55 29 50
c order 3 25 33 19 14 45 10 46 4 52 20 55 30 32 49 47 6 7 16 5 18 51 1 12 17 13 35 53 27 39 29 26 22 9 15 44 38 50 24 41 60 56 48 23 54 36 28 59 21 8 42 31 58 40 37 34 11 43 57 2
p cnf 60 144
39 9 7 0
-39 -9 0
-39 -7 0
-9 -7 0
29 13 19 0
-29 -13 0
-29 -19 0
-13 -19 0
8 40 42 0
-8 -40 0
-8 -42 0
-40 -42 0
46 1 36 0
-46 -1 0
-46 -36 0
-1 -36 0
8 29 7 0
-8 -29 0
-8 -7 0
-29 -7 0
54 40 25 0
-54 -40 0
-54 -25 0
-40 -25 0
41 4 18 0
-41 -4 0
-41 -18 0
-4 -18 0
12 60 30 0
-12 -60 0
-12 -30 0
-60 -30 0
59 48 14 0
-59 -48 0
-59 -14 0
-48 -14 0
12 7 1 0
-12 -7 0
-12 -1 0
-7 -1 0
2 28 58 0
-2 -28 0
-2 -58 0
-28 -58 0
59 32 41 0
-59 -32 0
-59 -41 0
-32 -41 0
39 18 15 0
-39 -18 0
-39 -15 0
-18 -15 0
47 53 48 0
-47 -53 0
-47 -48 0
-53 -48 0
9 7 58 0
-9 -7 0
-9 -58 0
-7 -58 0
22 30 17 0
-22 -30 0
-22 -17 0
-30 -17 0
5 41 17 0
-5 -41 0
-5 -17 0
-41 -17 0
33 24 35 0
-33 -24 0
-33 -35 0
-24 -35 0
50 46 24 0
-50 -46 0
-50 -24 0
-46 -24 0
22 48 36 0
-22 -48 0
-22 -36 0
-48 -36 0
50 26 42 0
-50 -26 0
-50 -42 0
-26 -42 0
1 48 56 0
-1 -48 0
-1 -56 0
-48 -56 0
38 1 23 0
-38 -1 0
-38 -23 0
-1 -23 0
47 25 18 0
-47 -25 0
-47 -18 0
-25 -18 0
11 47 3 0
-11 -47 0
-11 -3 0
-47 -3 0
6 45 13 0
-6 -45 0
-6 -13 0
-45 -13 0
29 50 13 0
-29 -50 0
-29 -13 0
-50 -13 0
24 13 54 0
-24 -13 0
-24 -54 0
-13 -54 0
36 59 33 0
-36 -59 0
-36 -33 0
-59 -33 0
3 27 48 0
-3 -27 0
-3 -48 0
-27 -48 0
11 17 52 0
-11 -17 0
-11 -52 0
-17 -52 0
14 42 39 0
-14 -42 0
-14 -39 0
-42 -39 0
52 57 60 0
-52 -57 0
-52 -60 0
-57 -60 0
55 58 31 0
-55 -58 0
-55 -31 0
-58 -31 0
60 10 40 0
-60 -10 0
-60 -40 0
-10 -40 0
12 57 56 0
-12 -57 0
-12 -56 0
-57 -56 0
