c family=1-in-3-SAT n=60 instance=6 seed=3881676977 models=15712
c order 59 29 46 8 13 41 54 56 25 18 51 42 47 60 48 24 44 50 52 37 53 2 27 15 22 39 9 32 33 49 45 43 5 30 7 17 12 23 6 11 34 21 35 36 58 40 26 10 1 14 20 3 55 38 19 28 31 57 16 4
c order 4 59 11 22 8 17 35 3 58 18 25 24 19 55 33 9 31 40 2 45 32 57 29 10 16 15 38 36 1 52 23 30 5 48 44 13 43 60 28 12 39 54 26 46 34 56 21 51 7 27 50 14 49 20 47 42 41 53 6 37
c order 57 28 38 11 13 43 55 45 34 8 15 1 52 14 19 47 7 36 48 49 2 5 20 58 32 39 3 42 4 54 50 53 44 18 24 6 30 17 29 46 37 51 35 25 21 60 27 41 56 31 59 9 16 26 23 33 40 10 12 22
c order 12 19 22 29 41 55 39 24 50 15 48 58 3 21 52 8 45 10 46 56 25 49 9 16 4 7 26 6 53 5 31 28 11 32 47 34 33 13 23 44 60 18 54 20 37 40 38 14 1 2 43 51 17 27 42 35 36 57 59 30
c order 33 58 36 7 45 52 35 55 9 54 53 17 29 19 43 11 40 28 50 49 30 21 14 27 12 46 34 41 42 2 15 56 23 32 10 44 4 47 25 1 51 24 48 16 20 31 26 37 39 38 22 57 6 18 5 8 3 59 60 13
c order 46 11 26 28 30 47 57 40 20 29 19 5 7 56 41 1 13 8 36 49 44 3 2 54 33 16 10 27 4 21 14 38 12 31 39 18 53 17 25 34 42 23 45 51 52 32 6 59 43 24 50 9 60 37 15 22 48 35 55 58
c order 41 16 55 59 36 20 27 8 1 12 3 37 42 53 14 30 25 52 13 48 44 15 35 54 43 49 7 10 22 50 21 23 57 4 32 19 38 46 17 2 31 40 5 58 29 18 39 24 34 9 47 11 45 33 6 56 51 60 26 28
c order 17 59 35 42 58 48 14 31 30 47 28 11 5 60 10 26 12 32 40 57 54 19 43 34 2 37 53 4 8 7 49 21 22 46 1 36 3 41 45 33 20 15 18 16 38 56 23 13 50 9 6 51 25 24 29 39 52 44 27 55
c order 12 45 53 10 50 33 14 47 16 59 18 40 2 5 35 11 38 46 6 31 42 3 28 30 32 7 56 1 41 21 19 60 58 25 39 13 27 34 43 48 55 52 24 51 44 8 4 26 36 22 49 54 23 29 57 17 37 20 9 15
c order 12 11 17 1 18 28 33 25 51 5 7 21 9 42 27 16 59 24 34 55 47 32 52 29 13 19 50 46 40 26 44 37 43 3 45 10 6 49 36 15 39 53 4 41 30 58 20 31 22 54 56 8 2 48 35 14 38 57 23 60
p cnf 60 144
24 16 39 0
-24 -16 0
-24 -39 0
-16 -39 0
31 54 5 0
-31 -54 0
-31 -5 0
-54 -5 0
12 7 35 0
-12 -7 0
-12 -35 0
-7 -35 0
53 41 51 0
-53 -41 0
-53 -51 0
-41 -51 0
31 30 55 0
-31 -30 0
-31 -55 0
-30 -55 0
25 11 7 0
-25 -11 0
-25 -7 0
-11 -7 0
12 34 57 0
-12 -34 0
-12 -57 0
-34 -57 0
27 47 8 0
-27 -47 0
-27 -8 0
-47 -8 0
58 14 7 0
-58 -14 0
-58 -7 0
-14 -7 0
15 3 55 0
-15 -3 0
-15 -55 0
-3 -55 0
17 15 37 0
-17 -15 0
-17 -37 0
-15 -37 0
48 40 36 0
-48 -40 0
-48 -36 0
-40 -36 0
51 23 39 0
-51 -23 0
-51 -39 0
-23 -39 0
40 56 5 0
-40 -56 0
-40 -5 0
-56 -5 0
32 59 34 0
-32 -59 0
-32 -34 0
-59 -34 0
30 49 51 0
-30 -49 0
-30 -51 0
-49 -51 0
13 20 28 0
-13 -20 0
-13 -28 0
-20 -28 0
32 46 15 0
-32 -46 0
-32 -15 0
-46 -15 0
13 60 28 0
-13 -60 0
-13 -28 0
-60 -28 0
40 13 12 0
-40 -13 0
-40 -12 0
-13 -12 0
45 46 41 0
-45 -46 0
-45 -41 0
-46 -41 0
30 19 36 0
-30 -19 0
-30 -36 0
-19 -36 0
2 13 7 0
-2 -13 0
-2 -7 0
-13 -7 0
21 8 6 0
-21 -8 0
-21 -6 0
-8 -6 0
36 57 40 0
-36 -57 0
-36 -40 0
-57 -40 0
31 35 9 0
-31 -35 0
-31 -9 0
-35 -9 0
35 19 40 0
-35 -19 0
-35 -40 0
-19 -40 0
42 29 39 0
-42 -29 0
-42 -39 0
-29 -39 0
49 1 43 0
-49 -1 0
-49 -43 0
-1 -43 0
11 15 18 0
-11 -15 0
-11 -18 0
-15 -18 0
18 4 54 0
-18 -4 0
-18 -54 0
-4 -54 0
8 33 60 0
-8 -33 0
-8 -60 0
-33 -60 0
55 21 10 0
-55 -21 0
-55 -10 0
-21 -10 0
14 26 17 0
-14 -26 0
-14 -17 0
-26 -17 0
53 21 4 0
-53 -21 0
-53 -4 0
-21 -4 0
49 7 44 0
-49 -7 0
-49 -44 0
-7 -44 0
