c family=1-in-3-SAT n=60 instance=3 seed=3881676977 models=16384
c order 25 19 49 22 15 4 43 37 54 23 29 26 41 3 58 47 53 20 31 35 33 24 57 30 44 10 56 45 28 6 12 16 14 50 40 38 2 27 52 39 21 32 59 1 5 17 51 11 7 46 13 42 18 9 60 8 55 36 48 34
c order 17 37 23 49 51 20 54 38 5 16 47 55 57 60 1 44 8 14 41 43 13 34 45 18 32 28 40 4 59 24 29 11 15 39 52 50 27 31 58 46 2 9 53 56 3 36 48 35 22 26 12 30 21 25 6 10 33 42 7 19
c order 17 51 30 35 57 46 26 31 38 10 37 16 3 18 27 29 36 5 56 55 32 14 19 42 43 54 4 9 7 8 28 33 11 15 48 53 12 6 20 34 52 25 1 40 45 21 22 50 44 60 23 13 58 24 59 47 2 49 39 41
c order 3 46 58 60 43 8 13 42 19 53 1 48 55 10 12 39 14 30 11 32 54 28 44 33 41 57 52 49 20 9 21 34 37 29 4 36 26 17 56 2 7 51 16 38 22 27 59 5 18 15 25 50 35 6 23 24 31 45 40 47
c order 55 24 45 19 46 29 5 44 34 52 25 26 50 35 57 3 36 2 33 28 56 38 58 16 59 20 48 4 51 39 47 6 8 13 30 12 31 41 22 37 21 14 23 11 27 32 40 54 17 60 53 43 42 9 15 49 10 18 1 7
c order 48 55 16 57 43 46 38 19 20 37 8 30 21 54 35 2 56 42 24 15 58 5 44 26 49 60 51 1 33 25 53 6 10 13 14 27 50 4 17 40 7 59 41 11 9 12 3 28 47 31 18 29 36 39 34 45 22 23 32 52
c order 44 30 24 1 53 52 33 43 26 5 56 9 22 25 51 2 8 58 20 28 12 21 15 16 13 57 50 59 18 49 6 31 39 7 10 11 36 34 14 60 37 3 32 41 48 45 54 47 46 35 23 38 42 4 55 40 29 19 27 17
c order 2 6 4 36 21 25 1 57 23 35 13 37 45 22 52 26 49 30 18 38 39 32 55 58 27 46 42 9 33 56 12 8 11 53 43 34 28 29 51 7 24 40 48 54 41 3 17 44 10 31 5 15 60 50 19 59 14 47 20 16
c order 58 54 27 30 19 15 14 22 37 31 20 60 39 44 26 11 40 46 33 41 5 10 52 7 9 23 29 17 13 53 3 36 35 50 28 43 55 18 2 21 32 16 34 12 4 47 59 48 45 6 25 42 56 49 8 24 57 38 1 51
c order 36 3 6 19 8 9 30 4 44 50 60 57 1 16 55 59 49 39 31 7 38 22 29 21 40 52 2 35 58 14 41 15 17 37 26 10 5 54 47 13 33 24 48 20 43 56 23 34 53 45 32 46 25 27 28 51 11 12 18 42
p cnf 60 144
13 2 33 0
-13 -2 0
-13 -33 0
-2 -33 0
53 37 19 0
-53 -37 0
-53 -19 0
-37 -19 0
33 18 30 0
-33 -18 0
-33 -30 0
-18 -30 0
37 7 13 0
-37 -7 0
-37 -13 0
-7 -13 0
2 23 56 0
-2 -23 0
-2 -56 0
-23 -56 0
36 56 4 0
-36 -56 0
-36 -4 0
-56 -4 0
32 4 20 0
-32 -4 0
-32 -20 0
-4 -20 0
33 51 40 0
-33 -51 0
-33 -40 0
-51 -40 0
3 49 57 0
-3 -49 0
-3 -57 0
-49 -57 0
43 22 48 0
-43 -22 0
-43 -48 0
-22 -48 0
42 23 22 0
-42 -23 0
-42 -22 0
-23 -22 0
56 31 43 0
-56 -31 0
-56 -43 0
-31 -43 0
20 14 51 0
-20 -14 0
-20 -51 0
-14 -51 0
28 60 57 0
-28 -60 0
-28 -57 0
-60 -57 0
50 8 13 0
-50 -8 0
-50 -13 0
-8 -13 0
55 17 35 0
-55 -17 0
-55 -35 0
-17 -35 0
51 7 11 0
-51 -7 0
-51 -11 0
-7 -11 0
60 14 7 0
-60 -14 0
-60 -7 0
-14 -7 0
15 51 16 0
-15 -51 0
-15 -16 0
-51 -16 0
32 44 39 0
-32 -44 0
-32 -39 0
-44 -39 0
16 59 23 0
-16 -59 0
-16 -23 0
-59 -23 0
21 20 57 0
-21 -20 0
-21 -57 0
-20 -57 0
3 21 2 0
-3 -21 0
-3 -2 0
-21 -2 0
32 33 1 0
-32 -33 0
-32 -1 0
-33 -1 0
22 48 56 0
-22 -48 0
-22 -56 0
-48 -56 0
41 38 5 0
-41 -38 0
-41 -5 0
-38 -5 0
43 18 9 0
-43 -18 0
-43 -9 0
-18 -9 0
12 59 1 0
-12 -59 0
-12 -1 0
-59 -1 0
56 22 7 0
-56 -22 0
-56 -7 0
-22 -7 0
54 15 6 0
-54 -15 0
-54 -6 0
-15 -6 0
60 38 43 0
-60 -38 0
-60 -43 0
-38 -43 0
60 6 21 0
-60 -6 0
-60 -21 0
-6 -21 0
53 21 27 0
-53 -21 0
-53 -27 0
-21 -27 0
9 53 34 0
-9 -53 0
-9 -34 0
-53 -34 0
35 6 2 0
-35 -6 0
-35 -2 0
-6 -2 0
36 26 56 0
-36 -26 0
-36 -56 0
-26 -56 0
