c family=1-in-3-SAT n=60 instance=0 seed=3881676977 models=16384
c order 44 47 25 16 53 15 34 49 32 58 4 29 26 35 8 24 56 37 21 7 30 3 52 39 40 27 57 46 55 60 23 38 17 11 10 54 51 50 42 2 18 19 28 33 13 59 22 12 20 48 5 41 1 9 43 6 36 14 31 45
c order 13 41 24 27 4 48 49 16 31 25 60 19 36 38 6 43 17 58 18 29 12 10 40 3 37 8 46 28 23 7 33 39 34 20 44 21 35 32 47 55 1 2 45 59 54 51 5 26 15 56 57 22 9 53 11 14 30 42 52 50
c order 28 55 27 49 60 3 36 46 2 1 58 42 59 44 17 8 18 45 26 11 21 35 6 57 30 29 32 41 5 14 9 54 37 39 40 47 51 12 7 23 53 24 34 4 19 33 25 52 20 22 31 10 48 16 13 38 43 56 50 15
c order 1 20 24 21 60 45 26 42 19 11 37 46 12 48 40 34 9 51 56 2 52 30 10 28 38 14 23 41 59 58 31 15 43 18 49 6 57 35 54 33 36 47 29 7 27 5 25 39 4 3 22 32 50 55 44 8 16 53 17 13
c order 21 20 5 45 17 6 22 25 18 36 44 3 51 4 50 41 59 58 49 23 34 27 43 16 32 39 37 60 29 56 19 8 15 10 13 2 54 42 55 24 1 47 46 31 9 33 30 53 40 28 35 14 11 38 7 12 57 26 48 52
c order 12 24 28 19 1 54 45 58 17 29 15 48 23 50 55 25 8 16 44 21 13 52 20 3 18 22 5 32 37 2 46 11 27 59 7 47 4 6 43 53 33 60 14 30 49 9 41 40 35 56 51 38 57 36 10 42 26 39 34 31
c order 23 18 36 47 53 41 58 12 8 20 46 24 22 21 50 35 55 39 9 3 59 15 44 4 45 10 6 7 25 26 30 5 32 60 38 17 28 43 34 29 48 40 57 52 14 49 11 1 56 51 42 19 13 54 31 27 2 16 37 33
c order 12 43 13 3 44 23 47 55 10 20 1 60 34 28 49 22 5 15 37 36 53 39 21 33 38 4 59 52 9 48 45 19 40 8 56 30 14 7 41 35 27 18 25 42 17 29 46 51 58 16 26 11 2 24 57 6 50 32 54 31
c order 44 1 49 29 2 38 8 34 46 41 59 30 9 16 26 11 42 14 5 18 17 7 19 60 57 33 53 54 50 12 6 15 28 4 39 43 55 48 27 45 25 40 23 58 52 10 13 56 20 37 3 47 35 21 36 24 32 51 31 22
c order 36 50 5 9 38 25 42 24 8 28 18 19 7 52 21 11 39 15 12 53 55 40 26 31 10 6 23 37 59 29 30 20 41 51 60 44 56 1 58 33 13 22 45 2 27 16 48 43 49 47 35 4 34 32 54 17 46 14 3 57
p cnf 60 144
54 29 56 0
-54 -29 0
-54 -56 0
-29 -56 0
24 39 9 0
-24 -39 0
-24 -9 0
-39 -9 0
50 13 28 0
-50 -13 0
-50 -28 0
-13 -28 0
52 5 27 0
-52 -5 0
-52 -27 0
-5 -27 0
38 50 24 0
-38 -50 0
-38 -24 0
-50 -24 0
47 25 59 0
-47 -25 0
-47 -59 0
-25 -59 0
48 22 21 0
-48 -22 0
-48 -21 0
-22 -21 0
11 3 38 0
-11 -3 0
-11 -38 0
-3 -38 0
16 39 49 0
-16 -39 0
-16 -49 0
-39 -49 0
30 31 16 0
-30 -31 0
-30 -16 0
-31 -16 0
32 29 2 0
-32 -29 0
-32 -2 0
-29 -2 0
47 30 34 0
-47 -30 0
-47 -34 0
-30 -34 0
14 36 37 0
-14 -36 0
-14 -37 0
-36 -37 0
38 42 26 0
-38 -42 0
-38 -26 0
-42 -26 0
12 5 43 0
-12 -5 0
-12 -43 0
-5 -43 0
13 54 40 0
-13 -54 0
-13 -40 0
-54 -40 0
37 6 13 0
-37 -6 0
-37 -13 0
-6 -13 0
37 55 32 0
-37 -55 0
-37 -32 0
-55 -32 0
25 14 22 0
-25 -14 0
-25 -22 0
-14 -22 0
2 32 12 0
-2 -32 0
-2 -12 0
-32 -12 0
16 46 6 0
-16 -46 0
-16 -6 0
-46 -6 0
34 47 16 0
-34 -47 0
-34 -16 0
-47 -16 0
59 52 8 0
-59 -52 0
-59 -8 0
-52 -8 0
14 30 39 0
-14 -30 0
-14 -39 0
-30 -39 0
33 47 57 0
-33 -47 0
-33 -57 0
-47 -57 0
42 41 33 0
-42 -41 0
-42 -33 0
-41 -33 0
27 20 19 0
-27 -20 0
-27 -19 0
-20 -19 0
57 2 30 0
-57 -2 0
-57 -30 0
-2 -30 0
47 54 2 0
-47 -54 0
-47 -2 0
-54 -2 0
13 8 7 0
-13 -8 0
-13 -7 0
-8 -7 0
9 4 10 0
-9 -4 0
-9 -10 0
-4 -10 0
25 12 3 0
-25 -12 0
-25 -3 0
-12 -3 0
33 20 50 0
-33 -20 0
-33 -50 0
-20 -50 0
31 4 38 0
-31 -4 0
-31 -38 0
-4 -38 0
54 49 26 0
-54 -49 0
-54 -26 0
-49 -26 0
58 14 9 0
-58 -14 0
-58 -9 0
-14 -9 0
