c family=1-in-3-SAT n=60 instance=1 seed=3881676977 models=18432
c order 43 31 40 5 10 6 38 57 16 21 50 9 60 8 26 51 4 54 20 56 3 58 59 47 46 36 12 13 32 28 22 29 37 14 49 25 1 44 23 42 30 2 39 34 35 24 41 33 11 15 19 53 48 17 7 52 45 18 27 55
c order 7 19 51 24 48 57 11 1 39 55 56 4 3 47 13 46 5 21 17 8 35 20 41 53 60 9 18 29 37 43 25 33 2 50 12 52 14 10 38 22 45 54 27 23 34 58 28 40 49 42 32 15 59 44 30 31 6 26 36 16
c order 43 58 52 23 17 57 15 10 55 30 1 28 53 26 37 24 31 39 46 6 11 50 42 18 47 25 12 54 13 16 5 34 20 14 56 49 29 7 36 21 32 38 44 51 40 9 45 41 59 8 4 33 22 48 27 19 3 2 60 35
c order 43 52 18 40 49 4 3 27 38 21 14 59 22 58 25 29 34 1 16 19 31 9 37 30 15 60 23 28 56 12 11 54 53 32 39 33 26 41 50 46 2 20 48 51 6 35 13 7 24 47 10 17 45 36 42 57 44 55 5 8
c order 57 60 20 32 51 18 9 38 29 3 11 14 10 21 44 52 1 28 37 6 8 53 50 36 5 47 43 49 34 2 24 16 12 19 42 7 13 4 31 41 40 39 17 59 15 35 45 58 46 33 27 55 23 26 22 54 56 48 25 30
c order 19 44 15 12 55 38 21 23 32 8 30 57 37 27 2 47 14 28 6 29 10 18 33 46 51 48 41 25 13 26 20 56 17 58 49 16 24 60 42 4 59 50 11 34 3 53 39 40 54 1 7 45 35 43 5 52 9 22 31 36
c order 39 12 13 35 55 44 33 41 10 11 1 52 43 27 36 59 6 7 24 29 37 45 20 9 25 46 14 60 15 56 48 19 54 47 58 26 16 50 21 5 18 31 23 4 2 17 57 30 32 34 28 42 53 22 3 51 40 8 49 38
c order 37 39 50 32 33 55 44 16 27 28 24 21 34 46 36 40 4 60 10 2 49 51 42 11 17 54 57 43 35 5 53 59 52 56 22 41 31 48 29 14 25 30 38 45 13 26 18 23 9 20 15 19 58 47 12 7 6 3 8 1
c order 51 29 33 7 8 4 36 16 46 55 20 44 24 3 37 28 43 13 41 26 14 18 35 23 12 56 49 39 31 60 52 9 15 25 54 59 32 34 47 22 58 17 5 30 2 21 40 11 50 1 27 42 53 57 38 48 6 45 19 10
c order 11 4 48 13 52 9 53 41 23 51 60 38 25 54 33 3 49 34 55 27 45 42 2 58 47 32 19 40 6 43 30 21 16 35 59 37 15 12 50 26 24 5 56 18 7 31 22 46 1 10 28 44 17 29 39 20 57 8 14 36
p cnf 60 144
45 30 48 0
-45 -30 0
-45 -48 0
-30 -48 0
54 2 29 0
-54 -2 0
-54 -29 0
-2 -29 0
37 40 55 0
-37 -40 0
-37 -55 0
-40 -55 0
19 41 40 0
-19 -41 0
-19 -40 0
-41 -40 0
39 41 52 0
-39 -41 0
-39 -52 0
-41 -52 0
31 47 5 0
-31 -47 0
-31 -5 0
-47 -5 0
20 31 25 0
-20 -31 0
-20 -25 0
-31 -25 0
55 46 33 0
-55 -46 0
-55 -33 0
-46 -33 0
22 24 25 0
-22 -24 0
-22 -25 0
-24 -25 0
41 16 24 0
-41 -16 0
-41 -24 0
-16 -24 0
53 13 15 0
-53 -13 0
-53 -15 0
-13 -15 0
9 20 8 0
-9 -20 0
-9 -8 0
-20 -8 0
59 6 57 0
-59 -6 0
-59 -57 0
-6 -57 0
36 13 58 0
-36 -13 0
-36 -58 0
-13 -58 0
22 41 48 0
-22 -41 0
-22 -48 0
-41 -48 0
14 15 2 0
-14 -15 0
-14 -2 0
-15 -2 0
52 26 44 0
-52 -26 0
-52 -44 0
-26 -44 0
27 40 25 0
-27 -40 0
-27 -25 0
-40 -25 0
33 29 45 0
-33 -29 0
-33 -45 0
-29 -45 0
44 29 31 0
-44 -29 0
-44 -31 0
-29 -31 0
26 60 49 0
-26 -60 0
-26 -49 0
-60 -49 0
9 2 5 0
-9 -2 0
-9 -5 0
-2 -5 0
39 51 31 0
-39 -51 0
-39 -31 0
-51 -31 0
28 3 8 0
-28 -3 0
-28 -8 0
-3 -8 0
17 29 6 0
-17 -29 0
-17 -6 0
-29 -6 0
8 18 49 0
-8 -18 0
-8 -49 0
-18 -49 0
8 28 35 0
-8 -28 0
-8 -35 0
-28 -35 0
49 53 55 0
-49 -53 0
-49 -55 0
-53 -55 0
43 39 17 0
-43 -39 0
-43 -17 0
-39 -17 0
37 47 57 0
-37 -47 0
-37 -57 0
-47 -57 0
18 7 30 0
-18 -7 0
-18 -30 0
-7 -30 0
59 21 1 0
-59 -21 0
-59 -1 0
-21 -1 0
59 46 15 0
-59 -46 0
-59 -15 0
-46 -15 0
33 30 44 0
-33 -30 0
-33 -44 0
-30 -44 0
9 2 1 0
-9 -2 0
-9 -1 0
-2 -1 0
16 44 1 0
-16 -44 0
-16 -1 0
-44 -1 0
