c family=1-in-3-SAT n=60 instance=4 seed=3881676977 models=15360
c order 45 40 51 14 37 23 18 31 15 5 33 13 6 59 8 22 42 24 54 16 43 56 3 55 53 46 28 48 35 39 26 34 10 2 36 32 30 21 4 20 38 41 50 60 17 52 57 7 25 12 1 19 44 9 47 11 29 58 49 27
c order 51 3 53 9 41 28 7 49 23 1 11 42 34 4 39 2 14 10 32 17 22 33 6 29 36 21 27 18 52 35 38 55 58 46 5 13 56 59 40 16 19 31 12 60 57 43 37 15 30 47 24 54 8 26 44 48 50 25 20 45
c order 38 33 1 11 48 58 35 56 27 8 42 9 53 32 45 18 17 46 13 16 34 7 20 6 43 14 39 26 51 21 57 54 24 40 31 37 44 49 55 41 47 25 2 3 4 52 22 29 12 23 10 59 36 19 50 30 28 15 60 5
c order 33 6 2 14 5 34 19 1 22 20 47 11 51 29 40 60 4 25 44 39 18 41 57 27 49 15 56 13 38 32 17 48 30 24 26 12 21 9 3 50 36 45 10 58 16 43 59 28 23 46 53 31 42 8 7 37 55 54 35 52
c order 31 39 4 28 32 20 25 52 38 33 15 17 30 6 50 14 29 44 19 60 55 51 57 36 34 56 12 24 22 9 1 58 49 37 3 43 23 16 5 40 21 59 18 35 11 48 41 46 54 53 27 13 47 42 2 7 45 26 8 10
c order 38 22 50 17 51 2 24 16 20 36 40 12 46 18 39 32 54 33 27 35 6 10 28 59 49 55 44 42 34 11 29 57 41 21 13 7 23 52 43 8 5 1 9 45 25 15 53 31 19 4 37 3 30 60 47 14 26 58 56 48
c order 2 35 1 28 40 46 49 60 22 31 8 26 27 6 3 5 11 42 29 43 15 36 58 45 4 24 14 56 19 9 30 39 18 44 53 54 34 13 7 21 50 48 32 33 38 57 23 47 17 25 59 55 51 41 12 16 10 20 37 52
c order 25 46 27 33 13 53 24 18 47 37 50 38 40 4 44 60 21 45 10 20 1 16 2 54 36 6 42 31 34 19 9 51 57 52 14 39 56 23 26 30 59 55 11 48 7 12 41 8 3 35 29 43 28 5 32 49 22 17 15 58
c order 44 45 24 50 23 25 52 5 37 9 21 17 6 26 46 43 57 49 55 31 11 51 56 38 54 36 8 3 2 34 33 14 59 30 53 41 60 18 40 29 4 48 39 15 58 16 12 7 47 13 19 20 32 42 1 28 35 27 10 22
c order 24 13 50 46 31 59 58 32 53 6 36 26 25 48 19 29 21 12 11 14 5 35 40 34 44 51 52 15 22 38 42 4 16 43 55 2 30 47 39 8 23 10 49 45 9 28 7 56 3 1 54 37 33 60 27 17 41 57 18 20
p cnf 60 144
37 58 32 0
-37 -58 0
-37 -32 0
-58 -32 0
31 35 51 0
-31 -35 0
-31 -51 0
-35 -51 0
20 5 36 0
-20 -5 0
-20 -36 0
-5 -36 0
40 27 31 0
-40 -27 0
-40 -31 0
-27 -31 0
36 56 42 0
-36 -56 0
-36 -42 0
-56 -42 0
20 46 9 0
-20 -46 0
-20 -9 0
-46 -9 0
59 43 4 0
-59 -43 0
-59 -4 0
-43 -4 0
25 47 60 0
-25 -47 0
-25 -60 0
-47 -60 0
15 10 23 0
-15 -10 0
-15 -23 0
-10 -23 0
32 55 14 0
-32 -55 0
-32 -14 0
-55 -14 0
58 16 52 0
-58 -16 0
-58 -52 0
-16 -52 0
35 40 25 0
-35 -40 0
-35 -25 0
-40 -25 0
1 21 23 0
-1 -21 0
-1 -23 0
-21 -23 0
5 50 53 0
-5 -50 0
-5 -53 0
-50 -53 0
16 41 27 0
-16 -41 0
-16 -27 0
-41 -27 0
60 58 53 0
-60 -58 0
-60 -53 0
-58 -53 0
3 48 51 0
-3 -48 0
-3 -51 0
-48 -51 0
15 7 1 0
-15 -7 0
-15 -1 0
-7 -1 0
39 49 7 0
-39 -49 0
-39 -7 0
-49 -7 0
7 50 39 0
-7 -50 0
-7 -39 0
-50 -39 0
3 6 27 0
-3 -6 0
-3 -27 0
-6 -27 0
39 5 26 0
-39 -5 0
-39 -26 0
-5 -26 0
21 18 13 0
-21 -18 0
-21 -13 0
-18 -13 0
58 36 13 0
-58 -36 0
-58 -13 0
-36 -13 0
12 40 3 0
-12 -40 0
-12 -3 0
-40 -3 0
51 1 46 0
-51 -1 0
-51 -46 0
-1 -46 0
8 38 31 0
-8 -38 0
-8 -31 0
-38 -31 0
41 28 40 0
-41 -28 0
-41 -40 0
-28 -40 0
20 28 21 0
-20 -28 0
-20 -21 0
-28 -21 0
60 31 30 0
-60 -31 0
-60 -30 0
-31 -30 0
29 52 57 0
-29 -52 0
-29 -57 0
-52 -57 0
19 24 29 0
-19 -24 0
-19 -29 0
-24 -29 0
51 26 34 0
-51 -26 0
-51 -34 0
-26 -34 0
49 41 29 0
-49 -41 0
-49 -29 0
-41 -29 0
60 36 55 0
-60 -36 0
-60 -55 0
-36 -55 0
39 24 9 0
-39 -24 0
-39 -9 0
-24 -9 0
