c family=1-in-3-SAT n=60 instance=5 seed=3881676977 models=12288
c order 12 1 59 8 30 40 6 58 43 48 49 36 7 18 32 35 45 41 20 16 42 34 46 27 31 52 11 53 3 22 39 33 55 44 51 50 25 17 47 14 56 57 24 21 2 4 38 23 28 15 10 5 19 54 9 26 13 37 60 29
c order 20 47 48 46 30 3 25 53 5 52 55 1 7 54 17 9 45 49 33 23 60 19 59 10 43 51 6 58 41 12 18 38 50 39 35 14 44 22 4 11 57 21 24 26 8 56 29 15 31 32 42 28 27 40 34 2 36 13 16 37
c order 45 13 24 30 31 48 44 7 46 49 51 10 8 41 14 54 40 53 56 25 29 33 15 11 9 35 39 47 6 16 60 50 59 43 23 26 4 1 19 3 38 20 12 17 28 21 27 36 18 5 42 32 55 37 2 34 22 58 57 52
c order 1 12 35 41 60 40 9 50 45 27 25 31 3 18 37 30 5 36 13 2 29 38 46 17 8 52 57 14 42 23 58 51 48 10 7 28 47 49 4 32 34 43 56 39 54 53 59 19 44 22 16 55 33 20 24 26 6 11 21 15
c order 60 50 21 51 48 40 4 8 36 58 31 41 43 35 57 17 29 49 7 6 24 44 53 14 39 11 27 16 9 23 34 54 55 37 25 15 30 20 32 59 42 1 2 33 56 22 19 10 12 47 26 38 52 5 28 46 45 3 18 13
c order 28 42 41 54 10 52 50 21 34 36 40 60 32 51 39 56 23 15 6 5 38 2 44 8 1 4 55 9 31 27 17 46 24 59 12 26 47 18 7 16 20 35 30 11 3 14 37 45 33 49 57 13 22 58 25 53 48 29 19 43
c order 51 54 36 37 22 23 4 39 40 9 1 25 16 45 19 5 18 12 57 11 6 35 31 53 42 28 29 20 34 2 60 44 33 55 3 7 50 38 21 27 10 30 14 52 59 48 15 13 32 24 17 47 8 49 41 26 56 46 43 58
c order 18 21 17 9 51 25 48 22 4 1 30 58 23 47 59 10 13 44 34 49 46 42 37 53 27 5 16 40 8 60 20 3 24 29 15 36 43 39 12 7 2 11 28 41 38 31 32 26 57 52 35 54 14 33 45 56 50 19 6 55
c order 41 3 37 24 11 22 31 30 23 29 34 4 59 27 46 57 8 1 32 35 28 17 10 51 45 55 40 20 36 39 19 33 14 48 56 49 5 53 18 7 42 43 25 60 6 58 47 54 2 38 50 52 44 12 15 26 9 21 13 16
c order 29 9 24 34 60 11 44 36 1 17 12 48 32 22 46 49 5 37 14 45 59 6 13 57 39 40 38 23 4 3 41 16 28 33 26 10 15 2 53 43 55 27 56 30 51 54 58 52 25 31 18 20 21 50 8 42 35 19 7 47
p cnf 60 144
60 21 52 0
-60 -21 0
-60 -52 0
-21 -52 0
17 48 5 0
-17 -48 0
-17 -5 0
-48 -5 0
58 20 15 0
-58 -20 0
-58 -15 0
-20 -15 0
51 30 53 0
-51 -30 0
-51 -53 0
-30 -53 0
30 47 44 0
-30 -47 0
-30 -44 0
-47 -44 0
11 31 27 0
-11 -31 0
-11 -27 0
-31 -27 0
20 33 39 0
-20 -33 0
-20 -39 0
-33 -39 0
16 53 5 0
-16 -53 0
-16 -5 0
-53 -5 0
5 21 37 0
-5 -21 0
-5 -37 0
-21 -37 0
57 34 13 0
-57 -34 0
-57 -13 0
-34 -13 0
9 40 45 0
-9 -40 0
-9 -45 0
-40 -45 0
31 54 51 0
-31 -54 0
-31 -51 0
-54 -51 0
6 13 25 0
-6 -13 0
-6 -25 0
-13 -25 0
50 57 17 0
-50 -57 0
-50 -17 0
-57 -17 0
10 52 14 0
-10 -52 0
-10 -14 0
-52 -14 0
39 33 1 0
-39 -33 0
-39 -1 0
-33 -1 0
59 38 54 0
-59 -38 0
-59 -54 0
-38 -54 0
42 7 37 0
-42 -7 0
-42 -37 0
-7 -37 0
19 56 28 0
-19 -56 0
-19 -28 0
-56 -28 0
26 20 53 0
-26 -20 0
-26 -53 0
-20 -53 0
33 39 49 0
-33 -39 0
-33 -49 0
-39 -49 0
31 42 52 0
-31 -42 0
-31 -52 0
-42 -52 0
6 28 53 0
-6 -28 0
-6 -53 0
-28 -53 0
54 10 32 0
-54 -10 0
-54 -32 0
-10 -32 0
57 11 41 0
-57 -11 0
-57 -41 0
-11 -41 0
13 20 49 0
-13 -20 0
-13 -49 0
-20 -49 0
5 30 13 0
-5 -30 0
-5 -13 0
-30 -13 0
60 24 3 0
-60 -24 0
-60 -3 0
-24 -3 0
52 59 14 0
-52 -59 0
-52 -14 0
-59 -14 0
10 2 33 0
-10 -2 0
-10 -33 0
-2 -33 0
17 24 18 0
-17 -24 0
-17 -18 0
-24 -18 0
53 2 27 0
-53 -2 0
-53 -27 0
-2 -27 0
24 26 44 0
-24 -26 0
-24 -44 0
-26 -44 0
21 27 51 0
-21 -27 0
-21 -51 0
-27 -51 0
52 30 39 0
-52 -30 0
-52 -39 0
-30 -39 0
36 48 10 0
-36 -48 0
-36 -10 0
-48 -10 0
