c family=1-in-3-SAT n=60 instance=7 seed=3881676977 models=12288
c order 41 33 22 31 45 21 17 14 58 8 46 40 43 10 26 20 5 16 39 35 2 29 27 55 53 18 23 56 54 3 9 25 37 47 50 51 19 30 13 7 44 59 11 1 36 32 49 6 48 4 38 34 52 15 60 42 12 24 57 28
c order 52 8 4 49 48 2 9 54 60 3 50 35 15 53 38 36 45 23 10 34 28 31 20 5 18 22 24 37 16 6 12 42 27 59 11 19 57 7 29 32 40 33 17 41 21 46 39 58 47 30 55 14 44 51 25 43 13 26 1 56
c order 4 57 47 28 30 39 11 42 24 51 16 15 35 43 54 29 18 19 21 36 5 46 49 32 26 31 41 33 27 25 9 55 58 52 37 7 59 44 12 13 34 48 53 56 6 40 50 3 10 38 2 23 60 20 1 17 14 45 22 8
c order 4 25 58 14 55 8 10 50 16 6 7 47 28 53 12 43 51 19 9 20 37 30 29 42 23 1 60 56 18 52 41 46 33 5 54 22 45 31 17 27 21 40 3 57 39 36 59 34 24 15 26 13 44 32 48 49 35 2 38 11
c order 48 57 30 4 24 44 27 23 3 58 40 20 47 34 39 37 56 49 25 60 9 22 59 45 28 17 26 12 33 41 15 2 53 35 29 46 16 31 8 5 38 43 6 50 14 7 55 32 51 10 13 54 21 19 18 36 1 42 11 52
c order 20 10 35 23 46 48 52 26 58 3 55 13 39 12 38 49 54 59 2 7 47 36 42 34 21 51 37 11 30 32 28 15 53 18 5 40 44 43 16 33 6 31 24 4 9 45 25 1 14 50 57 8 60 56 41 27 29 19 17 22
c order 14 36 4 23 42 15 38 19 48 16 55 25 41 11 27 47 57 46 17 7 40 29 35 56 44 20 43 59 21 33 6 54 1 5 32 8 53 49 30 60 45 18 26 50 12 58 39 3 10 51 2 28 37 9 22 52 24 34 13 31
c order 6 46 35 44 57 40 37 4 42 18 3 9 11 24 8 12 16 17 55 20 27 48 19 34 15 38 41 60 26 22 45 54 50 56 59 2 5 39 51 53 31 49 23 52 21 47 30 1 33 32 10 43 13 14 29 25 7 28 58 36
c order 5 49 46 19 44 53 36 29 10 4 31 6 25 48 8 11 52 45 18 37 41 7 38 14 47 22 21 58 33 54 15 23 39 59 32 26 30 13 20 16 42 34 2 17 56 28 55 40 24 3 9 51 1 35 60 27 50 43 57 12
c order 3 31 13 17 53 55 2 45 16 23 32 56 35 8 1 4 38 7 42 26 40 22 51 43 50 59 29 20 5 54 28 25 18 47 15 10 19 36 52 49 34 6 48 12 37 9 11 44 21 30 14 33 27 58 60 46 41 39 57 24
p cnf 60 144
7 22 27 0
-7 -22 0
-7 -27 0
-22 -27 0
46 25 7 0
-46 -25 0
-46 -7 0
-25 -7 0
5 44 23 0
-5 -44 0
-5 -23 0
-44 -23 0
41 45 28 0
-41 -45 0
-41 -28 0
-45 -28 0
59 31 58 0
-59 -31 0
-59 -58 0
-31 -58 0
44 48 42 0
-44 -48 0
-44 -42 0
-48 -42 0
15 37 24 0
-15 -37 0
-15 -24 0
-37 -24 0
54 21 3 0
-54 -21 0
-54 -3 0
-21 -3 0
3 59 41 0
-3 -59 0
-3 -41 0
-59 -41 0
43 38 44 0
-43 -38 0
-43 -44 0
-38 -44 0
52 38 6 0
-52 -38 0
-52 -6 0
-38 -6 0
41 34 15 0
-41 -34 0
-41 -15 0
-34 -15 0
34 37 25 0
-34 -37 0
-34 -25 0
-37 -25 0
24 3 15 0
-24 -3 0
-24 -15 0
-3 -15 0
20 8 49 0
-20 -8 0
-20 -49 0
-8 -49 0
36 34 3 0
-36 -34 0
-36 -3 0
-34 -3 0
40 52 26 0
-40 -52 0
-40 -26 0
-52 -26 0
5 43 24 0
-5 -43 0
-5 -24 0
-43 -24 0
3 1 24 0
-3 -1 0
-3 -24 0
-1 -24 0
58 18 47 0
-58 -18 0
-58 -47 0
-18 -47 0
55 12 53 0
-55 -12 0
-55 -53 0
-12 -53 0
11 37 10 0
-11 -37 0
-11 -10 0
-37 -10 0
32 46 58 0
-32 -46 0
-32 -58 0
-46 -58 0
35 11 41 0
-35 -11 0
-35 -41 0
-11 -41 0
31 37 51 0
-31 -37 0
-31 -51 0
-37 -51 0
31 13 37 0
-31 -13 0
-31 -37 0
-13 -37 0
40 38 51 0
-40 -38 0
-40 -51 0
-38 -51 0
49 23 31 0
-49 -23 0
-49 -31 0
-23 -31 0
12 51 15 0
-12 -51 0
-12 -15 0
-51 -15 0
41 46 53 0
-41 -46 0
-41 -53 0
-46 -53 0
52 33 8 0
-52 -33 0
-52 -8 0
-33 -8 0
10 44 45 0
-10 -44 0
-10 -45 0
-44 -45 0
26 56 54 0
-26 -56 0
-26 -54 0
-56 -54 0
16 25 8 0
-16 -25 0
-16 -8 0
-25 -8 0
1 6 41 0
-1 -6 0
-1 -41 0
-6 -41 0
19 41 34 0
-19 -41 0
-19 -34 0
-41 -34 0
