c family=1-in-3-SAT n=60 instance=9 seed=3881676977 models=12288
c order 55 34 35 52 58 46 28 4 21 3 20 1 50 9 17 26 7 2 14 36 48 32 47 40 6 11 10 60 43 59 27 30 42 49 38 57 25 12 18 33 39 41 56 15 24 13 23 5 51 44 19 53 54 8 45 16 37 29 31 22
c order 19 8 38 4 16 30 55 49 46 11 5 58 32 50 1 45 53 36 18 2 7 6 44 26 31 51 39 21 15 23 52 20 47 3 56 12 60 57 10 17 43 9 13 22 24 14 41 25 35 48 27 28 29 33 40 34 37 59 42 54
c order 16 1 41 13 51 8 23 14 36 5 38 12 6 33 50 57 45 34 19 49 30 31 17 26 3 18 9 22 43 32 58 27 55 54 35 24 21 4 37 59 39 53 28 20 2 40 46 7 60 25 11 52 44 48 47 29 56 10 15 42
c order 11 10 4 28 59 21 46 3 54 25 13 41 23 45 17 52 33 48 38 39 8 20 27 50 57 24 58 40 7 53 43 18 51 44 34 56 30 42 9 5 22 12 19 1 36 47 31 15 2 35 37 14 26 6 49 60 32 16 55 29
c order 15 26 45 49 40 6 22 34 17 13 10 19 23 21 57 3 55 8 29 14 9 7 38 50 41 30 11 33 36 39 12 59 1 43 53 31 56 4 27 28 60 32 46 54 20 42 51 16 58 18 48 24 5 35 52 47 2 37 44 25
c order 16 58 30 38 44 53 14 34 19 13 22 10 4 46 24 3 25 55 26 37 32 31 39 49 47 6 21 42 33 52 12 1 60 2 57 51 59 15 27 8 35 5 23 45 54 9 40 11 20 56 41 17 28 36 18 43 7 48 29 50
c order 43 51 52 32 40 6 5 54 10 9 33 29 30 56 1 12 44 27 60 2 49 11 14 24 19 26 28 39 59 48 50 18 17 21 25 4 34 47 53 55 41 31 8 7 58 22 13 46 16 23 57 35 3 38 45 37 42 36 15 20
c order 44 42 35 45 8 20 16 54 48 5 9 55 59 27 10 60 56 34 14 36 23 52 21 1 38 50 24 41 39 11 31 26 37 32 58 46 40 18 17 57 25 19 43 33 49 30 4 29 7 22 47 28 3 12 6 53 13 15 2 51
c order 30 45 25 15 36 28 12 16 31 59 3 35 53 51 24 20 19 43 33 41 14 26 13 57 40 55 32 18 38 1 5 54 29 8 48 10 4 34 50 21 60 52 17 49 6 23 47 58 56 39 37 9 46 42 22 11 44 2 27 7
c order 58 34 52 31 7 18 10 4 56 55 5 17 50 42 28 13 20 51 39 3 57 23 36 19 35 26 45 1 33 24 44 25 54 16 38 8 29 27 15 14 30 12 49 59 9 22 48 40 43 21 32 47 41 37 11 2 60 46 53 6
p cnf 60 144
12 24 5 0
-12 -24 0
-12 -5 0
-24 -5 0
43 38 16 0
-43 -38 0
-43 -16 0
-38 -16 0
55 37 23 0
-55 -37 0
-55 -23 0
-37 -23 0
4 17 60 0
-4 -17 0
-4 -60 0
-17 -60 0
5 22 27 0
-5 -22 0
-5 -27 0
-22 -27 0
20 56 40 0
-20 -56 0
-20 -40 0
-56 -40 0
4 58 32 0
-4 -58 0
-4 -32 0
-58 -32 0
2 15 52 0
-2 -15 0
-2 -52 0
-15 -52 0
47 10 42 0
-47 -10 0
-47 -42 0
-10 -42 0
48 18 9 0
-48 -18 0
-48 -9 0
-18 -9 0
19 33 45 0
-19 -33 0
-19 -45 0
-33 -45 0
26 13 51 0
-26 -13 0
-26 -51 0
-13 -51 0
51 44 25 0
-51 -44 0
-51 -25 0
-44 -25 0
43 32 19 0
-43 -32 0
-43 -19 0
-32 -19 0
2 40 20 0
-2 -40 0
-2 -20 0
-40 -20 0
40 28 58 0
-40 -28 0
-40 -58 0
-28 -58 0
11 16 48 0
-11 -16 0
-11 -48 0
-16 -48 0
6 32 50 0
-6 -32 0
-6 -50 0
-32 -50 0
19 60 6 0
-19 -60 0
-19 -6 0
-60 -6 0
18 24 25 0
-18 -24 0
-18 -25 0
-24 -25 0
38 43 16 0
-38 -43 0
-38 -16 0
-43 -16 0
10 59 20 0
-10 -59 0
-10 -20 0
-59 -20 0
2 45 40 0
-2 -45 0
-2 -40 0
-45 -40 0
30 37 27 0
-30 -37 0
-30 -27 0
-37 -27 0
28 16 36 0
-28 -16 0
-28 -36 0
-16 -36 0
49 13 38 0
-49 -13 0
-49 -38 0
-13 -38 0
27 17 44 0
-27 -17 0
-27 -44 0
-17 -44 0
28 12 53 0
-28 -12 0
-28 -53 0
-12 -53 0
59 30 37 0
-59 -30 0
-59 -37 0
-30 -37 0
21 10 44 0
-21 -10 0
-21 -44 0
-10 -44 0
4 25 57 0
-4 -25 0
-4 -57 0
-25 -57 0
4 43 50 0
-4 -43 0
-4 -50 0
-43 -50 0
19 54 46 0
-19 -54 0
-19 -46 0
-54 -46 0
50 13 16 0
-50 -13 0
-50 -16 0
-13 -16 0
33 56 60 0
-33 -56 0
-33 -60 0
-56 -60 0
25 50 24 0
-25 -50 0
-25 -24 0
-50 -24 0
