c family=1-in-3-SAT n=70 instance=3 seed=3881676977 models=8192
c order 64 34 19 29 51 61 67 12 69 65 5 53 54 46 20 45 23 11 36 58 63 50 40 31 35 7 6 15 30 24 3 33 18 47 1 32 14 27 2 56 16 60 62 9 59 48 26 22 55 25 8 41 42 49 52 21 13 70 66 28 10 38 44 43 37 4 57 17 39 68
c order 19 11 38 60 49 32 59 44 56 65 41 2 70 47 61 40 6 9 14 21 26 45 8 5 34 64 3 24 4 48 16 50 30 31 27 52 53 22 66 28 68 25 18 69 46 35 63 36 58 39 23 15 57 43 12 54 37 55 33 17 29 1 13 67 42 10 51 20 7 62
c order 57 64 60 53 12 29 23 11 46 16 66 39 30 19 31 28 5 59 25 44 36 45 38 40 9 49 2 37 33 58 55 13 70 18 54 4 1 63 56 10 51 67 27 24 6 35 52 17 26 47 7 50 3 42 48 8 69 15 34 21 62 43 41 61 14 32 20 65 68 22
c order 67 49 40 6 56 26 12 51 8 59 58 25 19 39 29 24 21 5 61 44 57 37 27 35 53 22 52 16 11 9 66 45 50 7 43 63 20 38 36 10 70 42 47 64 30 15 46 3 17 41 60 48 13 2 68 62 65 18 33 69 34 55 31 23 54 14 1 32 4 28
c order 43 60 31 46 36 11 16 24 14 41 39 27 32 63 21 54 7 22 2 40 1 64 34 23 25 61 6 29 37 5 33 44 66 8 56 45 17 68 50 30 20 51 28 48 69 70 53 26 42 9 3 15 35 12 47 67 19 58 62 13 10 49 57 55 4 59 52 65 38 18
c order 42 20 22 37 49 39 18 66 58 68 30 55 14 11 26 67 13 17 57 34 1 19 35 29 54 7 59 2 46 53 6 4 23 45 52 28 9 60 5 3 70 61 48 32 36 33 21 27 65 41 40 15 16 12 51 63 47 31 24 8 69 56 25 38 10 62 64 44 50 43
c order 45 24 23 4 40 29 21 3 16 14 70 12 2 1 61 65 19 26 22 28 8 60 66 38 55 41 20 50 59 51 17 57 47 7 13 37 67 43 58 15 30 49 11 68 69 5 6 10 63 9 18 33 35 34 42 64 46 56 44 39 27 48 53 36 32 25 52 31 54 62
c order 39 43 18 38 21 51 27 50 64 47 29 20 24 59 58 9 68 23 66 3 70 32 60 34 36 37 14 48 15 8 25 6 33 16 46 61 17 12 35 4 1 10 44 62 7 2 31 41 45 53 52 30 13 28 67 22 55 65 63 26 40 19 56 69 5 42 54 57 11 49
c order 48 3 33 55 42 1 20 11 15 67 38 58 44 24 37 32 26 36 13 21 63 56 27 23 31 52 43 6 8 53 29 69 64 51 62 40 19 18 17 65 68 25 22 9 66 30 12 14 46 5 45 59 2 60 16 57 35 10 39 4 28 54 34 50 7 47 70 61 41 49
c order 25 60 18 30 5 43 42 64 10 19 3 33 36 69 27 4 8 67 22 26 37 12 9 34 53 56 15 13 28 47 68 59 35 48 2 1 39 61 21 57 40 7 46 41 29 44 66 16 20 63 23 38 50 17 70 14 45 6 54 62 49 52 65 24 51 58 32 31 55 11
p cnf 70 168
28 70 45 0
-28 -70 0
-28 -45 0
-70 -45 0
42 50 53 0
-42 -50 0
-42 -53 0
-50 -53 0
69 23 53 0
-69 -23 0
-69 -53 0
-23 -53 0
42 59 11 0
-42 -59 0
-42 -11 0
-59 -11 0
2 18 44 0
-2 -18 0
-2 -44 0
-18 -44 0
22 21 28 0
-22 -21 0
-22 -28 0
-21 -28 0
39 34 52 0
-39 -34 0
-39 -52 0
-34 -52 0
15 35 16 0
-15 -35 0
-15 -16 0
-35 -16 0
32 33 25 0
-32 -33 0
-32 -25 0
-33 -25 0
48 16 55 0
-48 -16 0
-48 -55 0
-16 -55 0
44 41 59 0
-44 -41 0
-44 -59 0
-41 -59 0
20 11 39 0
-20 -11 0
-20 -39 0
-11 -39 0
42 67 39 0
-42 -67 0
-42 -39 0
-67 -39 0
11 69 37 0
-11 -69 0
-11 -37 0
-69 -37 0
66 23 39 0
-66 -23 0
-66 -39 0
-23 -39 0
34 56 41 0
-34 -56 0
-34 -41 0
-56 -41 0
11 62 5 0
-11 -62 0
-11 -5 0
-62 -5 0
10 11 48 0
-10 -11 0
-10 -48 0
-11 -48 0
1 46 43 0
-1 -46 0
-1 -43 0
-46 -43 0
1 51 45 0
-1 -51 0
-1 -45 0
-51 -45 0
64 6 21 0
-64 -6 0
-64 -21 0
-6 -21 0
44 43 35 0
-44 -43 0
-44 -35 0
-43 -35 0
2 3 69 0
-2 -3 0
-2 -69 0
-3 -69 0
68 55 2 0
-68 -55 0
-68 -2 0
-55 -2 0
33 44 12 0
-33 -44 0
-33 -12 0
-44 -12 0
61 9 49 0
-61 -9 0
-61 -49 0
-9 -49 0
60 46 7 0
-60 -46 0
-60 -7 0
-46 -7 0
64 31 18 0
-64 -31 0
-64 -18 0
-31 -18 0
62 39 26 0
-62 -39 0
-62 -26 0
-39 -26 0
20 41 49 0
-20 -41 0
-20 -49 0
-41 -49 0
6 30 23 0
-6 -30 0
-6 -23 0
-30 -23 0
35 69 17 0
-35 -69 0
-35 -17 0
-69 -17 0
59 29 23 0
-59 -29 0
-59 -23 0
-29 -23 0
9 23 31 0
-9 -23 0
-9 -31 0
-23 -31 0
31 16 19 0
-31 -16 0
-31 -19 0
-16 -19 0
65 59 64 0
-65 -59 0
-65 -64 0
-59 -64 0
30 68 60 0
-30 -68 0
-30 -60 0
-68 -60 0
35 59 33 0
-35 -59 0
-35 -33 0
-59 -33 0
28 35 33 0
-28 -35 0
-28 -33 0
-35 -33 0
54 58 64 0
-54 -58 0
-54 -64 0
-58 -64 0
50 18 9 0
-50 -18 0
-50 -9 0
-18 -9 0
55 24 66 0
-55 -24 0
-55 -66 0
-24 -66 0
