c family=1-in-3-SAT n=70 instance=5 seed=3881676977 models=16384
c order 47 40 12 39 46 34 23 15 45 70 60 30 37 2 29 57 33 16 5 18 6 7 49 63 21 28 59 38 44 67 41 68 19 22 26 1 4 20 8 17 43 50 61 42 54 52 10 69 55 32 13 66 65 25 53 24 48 51 56 31 64 27 58 35 14 11 9 3 62 36
c order 17 38 61 30 25 50 12 55 47 46 69 45 27 40 8 20 1 2 51 43 18 63 29 54 4 7 5 9 57 56 23 64 48 13 15 21 35 44 19 36 66 62 14 67 31 37 28 42 26 24 52 58 33 16 39 49 10 59 6 70 11 68 53 32 41 22 65 3 60 34
c order 43 14 4 12 62 31 65 3 67 8 19 53 25 1 39 54 13 5 57 22 47 64 6 50 10 21 27 52 30 49 7 70 38 69 60 2 40 23 56 33 42 45 17 20 32 36 59 16 44 35 34 28 11 61 66 46 24 15 51 48 58 55 37 18 9 29 68 41 63 26
c order 63 61 28 7 59 69 2 34 54 4 67 60 33 36 64 55 52 53 6 56 1 25 32 66 40 29 23 70 26 49 3 18 19 42 39 27 12 24 37 62 8 45 46 9 20 14 21 58 44 48 57 30 65 17 50 16 31 13 11 35 22 47 15 38 51 43 41 68 10 5
c order 47 20 19 6 10 18 43 61 31 62 59 21 54 53 33 9 49 26 29 69 36 41 23 52 28 3 67 12 60 51 2 25 14 50 48 38 65 64 40 46 39 63 35 8 24 34 44 30 32 11 4 5 68 55 15 22 42 56 1 57 17 27 7 37 16 66 13 45 58 70
c order 69 27 41 14 36 23 52 61 30 50 3 57 21 55 8 26 6 54 56 49 4 5 31 12 2 48 39 37 35 68 20 13 9 22 15 62 24 65 33 60 34 64 67 38 59 63 45 28 47 44 42 17 53 25 51 18 29 46 43 19 32 58 1 11 70 16 66 40 7 10
c order 3 33 68 65 27 50 60 13 42 54 19 47 51 34 62 32 6 67 20 56 24 2 36 16 53 23 35 63 14 40 17 18 39 30 31 58 38 49 5 41 9 55 70 12 11 4 1 64 25 7 66 69 15 21 37 59 44 28 26 61 52 10 45 22 46 29 43 48 8 57
c order 19 46 50 13 2 51 21 35 70 69 27 47 39 49 61 33 52 58 1 44 45 34 64 53 23 65 67 62 30 31 16 9 37 28 32 41 66 59 43 5 11 54 10 38 17 4 3 56 15 68 22 24 8 25 26 42 7 29 36 20 60 6 63 48 55 40 14 18 12 57
c order 53 37 47 30 25 24 39 3 21 34 64 22 59 43 31 20 44 27 69 40 54 63 46 19 61 8 10 56 23 60 52 2 36 41 18 29 68 70 11 12 67 17 55 26 33 48 32 66 7 58 45 5 14 50 9 15 62 51 38 4 1 65 57 49 42 35 6 13 16 28
c order 33 29 55 8 12 37 56 18 28 67 36 64 31 58 7 13 68 45 34 15 26 62 1 41 16 6 54 48 25 20 23 40 9 63 14 10 17 70 35 11 51 38 27 66 69 46 39 5 52 61 50 3 59 4 65 2 42 22 21 32 43 47 57 19 24 30 49 60 53 44
p cnf 70 168
7 45 28 0
-7 -45 0
-7 -28 0
-45 -28 0
70 1 44 0
-70 -1 0
-70 -44 0
-1 -44 0
50 20 29 0
-50 -20 0
-50 -29 0
-20 -29 0
39 67 38 0
-39 -67 0
-39 -38 0
-67 -38 0
22 5 36 0
-22 -5 0
-22 -36 0
-5 -36 0
15 55 44 0
-15 -55 0
-15 -44 0
-55 -44 0
38 23 13 0
-38 -23 0
-38 -13 0
-23 -13 0
60 30 44 0
-60 -30 0
-60 -44 0
-30 -44 0
18 70 15 0
-18 -70 0
-18 -15 0
-70 -15 0
68 34 4 0
-68 -34 0
-68 -4 0
-34 -4 0
54 15 65 0
-54 -15 0
-54 -65 0
-15 -65 0
65 67 2 0
-65 -67 0
-65 -2 0
-67 -2 0
62 25 12 0
-62 -25 0
-62 -12 0
-25 -12 0
69 10 28 0
-69 -10 0
-69 -28 0
-10 -28 0
4 2 3 0
-4 -2 0
-4 -3 0
-2 -3 0
13 37 49 0
-13 -37 0
-13 -49 0
-37 -49 0
18 47 67 0
-18 -47 0
-18 -67 0
-47 -67 0
41 29 10 0
-41 -29 0
-41 -10 0
-29 -10 0
4 32 60 0
-4 -32 0
-4 -60 0
-32 -60 0
2 58 9 0
-2 -58 0
-2 -9 0
-58 -9 0
43 67 2 0
-43 -67 0
-43 -2 0
-67 -2 0
63 34 30 0
-63 -34 0
-63 -30 0
-34 -30 0
45 58 5 0
-45 -58 0
-45 -5 0
-58 -5 0
55 31 50 0
-55 -31 0
-55 -50 0
-31 -50 0
10 45 35 0
-10 -45 0
-10 -35 0
-45 -35 0
1 19 30 0
-1 -19 0
-1 -30 0
-19 -30 0
54 29 44 0
-54 -29 0
-54 -44 0
-29 -44 0
51 60 38 0
-51 -60 0
-51 -38 0
-60 -38 0
6 19 65 0
-6 -19 0
-6 -65 0
-19 -65 0
66 52 70 0
-66 -52 0
-66 -70 0
-52 -70 0
28 23 63 0
-28 -23 0
-28 -63 0
-23 -63 0
35 30 7 0
-35 -30 0
-35 -7 0
-30 -7 0
4 46 28 0
-4 -46 0
-4 -28 0
-46 -28 0
37 18 51 0
-37 -18 0
-37 -51 0
-18 -51 0
58 21 26 0
-58 -21 0
-58 -26 0
-21 -26 0
27 42 47 0
-27 -42 0
-27 -47 0
-42 -47 0
68 47 67 0
-68 -47 0
-68 -67 0
-47 -67 0
27 12 46 0
-27 -12 0
-27 -46 0
-12 -46 0
59 20 19 0
-59 -20 0
-59 -19 0
-20 -19 0
24 55 6 0
-24 -55 0
-24 -6 0
-55 -6 0
40 5 9 0
-40 -5 0
-40 -9 0
-5 -9 0
4 7 32 0
-4 -7 0
-4 -32 0
-7 -32 0
