c family=1-in-3-SAT n=70 instance=6 seed=3881676977 models=16384
c order 21 10 70 45 19 18 4 52 9 7 51 62 17 44 29 30 25 38 8 58 66 64 3 12 68 32 60 59 6 39 31 22 67 23 16 56 34 49 53 37 63 33 61 50 41 24 48 11 46 13 15 28 2 27 47 69 55 26 14 65 43 54 40 1 5 57 20 36 35 42
c order 47 61 17 69 58 45 11 12 28 22 42 41 13 55 9 20 8 7 33 29 38 65 2 40 50 26 53 62 5 30 51 3 34 39 16 14 6 25 27 46 35 67 4 52 1 32 56 49 64 10 60 59 48 24 23 18 68 31 15 43 21 70 54 19 57 37 36 63 44 66
c order 58 3 21 1 61 8 12 49 54 27 2 37 24 19 39 66 33 29 25 35 17 59 7 30 22 5 50 36 28 11 41 20 51 31 40 42 45 14 68 23 64 70 53 6 43 18 46 15 60 63 47 52 65 67 9 62 10 26 55 56 38 48 32 4 57 16 69 44 34 13
c order 31 61 49 3 30 45 35 40 10 18 17 59 9 19 46 60 11 67 14 56 36 52 51 29 66 28 58 69 33 24 23 50 13 53 7 26 4 5 34 42 55 68 64 1 12 39 63 70 32 15 20 22 27 43 6 62 47 41 37 48 65 44 54 57 2 38 21 16 25 8
c order 56 53 28 37 70 18 61 12 65 57 17 67 13 66 50 49 55 11 25 19 1 52 22 38 60 20 33 47 43 5 8 23 62 45 48 34 3 64 29 35 31 32 41 46 58 26 24 59 16 39 15 21 6 10 51 4 30 69 54 7 14 40 44 42 36 2 68 9 63 27
c order 22 14 4 29 3 5 59 56 20 54 45 55 16 60 38 27 28 51 52 57 6 19 43 12 58 21 48 61 30 10 17 49 40 35 66 26 15 39 50 25 34 42 11 23 46 65 18 41 13 33 8 2 44 32 70 64 36 63 53 62 37 1 7 67 31 24 47 9 68 69
c order 65 20 52 19 37 60 56 27 46 51 11 14 67 23 50 4 33 47 29 34 45 1 69 15 66 43 3 55 6 62 13 26 7 59 24 18 22 49 39 53 54 16 8 36 17 61 25 44 42 57 32 21 68 40 10 38 48 70 31 12 9 28 5 63 41 2 58 35 30 64
c order 56 51 36 42 67 20 69 31 18 12 57 21 8 39 16 17 64 53 44 13 38 54 43 60 55 68 6 10 19 32 35 22 1 3 14 37 46 25 70 63 40 28 66 15 24 33 27 48 5 47 61 2 11 34 4 50 7 30 49 65 62 23 9 58 45 41 52 26 29 59
c order 55 14 21 25 33 12 29 61 11 65 30 26 70 45 54 10 42 24 36 49 53 3 6 69 15 28 67 22 31 18 37 32 63 58 64 56 4 20 43 13 50 44 66 51 19 17 7 59 46 39 9 52 41 48 62 8 5 68 23 1 35 16 38 47 34 60 57 2 40 27
c order 60 11 16 13 63 39 44 29 65 70 58 9 23 12 30 54 31 61 3 66 68 51 49 48 5 45 59 15 6 28 36 2 21 62 26 14 20 67 17 4 52 47 69 46 38 37 41 10 42 19 53 56 40 50 8 33 34 55 18 35 43 57 25 64 7 24 32 22 1 27
p cnf 70 168
65 35 41 0
-65 -35 0
-65 -41 0
-35 -41 0
39 61 57 0
-39 -61 0
-39 -57 0
-61 -57 0
59 33 54 0
-59 -33 0
-59 -54 0
-33 -54 0
64 36 62 0
-64 -36 0
-64 -62 0
-36 -62 0
21 23 51 0
-21 -23 0
-21 -51 0
-23 -51 0
11 30 40 0
-11 -30 0
-11 -40 0
-30 -40 0
58 46 2 0
-58 -46 0
-58 -2 0
-46 -2 0
65 2 63 0
-65 -2 0
-65 -63 0
-2 -63 0
49 39 45 0
-49 -39 0
-49 -45 0
-39 -45 0
70 65 3 0
-70 -65 0
-70 -3 0
-65 -3 0
43 47 68 0
-43 -47 0
-43 -68 0
-47 -68 0
28 60 58 0
-28 -60 0
-28 -58 0
-60 -58 0
57 60 39 0
-57 -60 0
-57 -39 0
-60 -39 0
67 3 52 0
-67 -3 0
-67 -52 0
-3 -52 0
65 1 17 0
-65 -1 0
-65 -17 0
-1 -17 0
26 41 39 0
-26 -41 0
-26 -39 0
-41 -39 0
4 55 51 0
-4 -55 0
-4 -51 0
-55 -51 0
52 30 22 0
-52 -30 0
-52 -22 0
-30 -22 0
53 60 44 0
-53 -60 0
-53 -44 0
-60 -44 0
2 20 41 0
-2 -20 0
-2 -41 0
-20 -41 0
15 16 23 0
-15 -16 0
-15 -23 0
-16 -23 0
70 60 31 0
-70 -60 0
-70 -31 0
-60 -31 0
41 37 58 0
-41 -37 0
-41 -58 0
-37 -58 0
2 55 38 0
-2 -55 0
-2 -38 0
-55 -38 0
64 30 53 0
-64 -30 0
-64 -53 0
-30 -53 0
57 49 61 0
-57 -49 0
-57 -61 0
-49 -61 0
5 33 14 0
-5 -33 0
-5 -14 0
-33 -14 0
37 51 8 0
-37 -51 0
-37 -8 0
-51 -8 0
61 53 36 0
-61 -53 0
-61 -36 0
-53 -36 0
61 11 31 0
-61 -11 0
-61 -31 0
-11 -31 0
30 22 63 0
-30 -22 0
-30 -63 0
-22 -63 0
69 14 32 0
-69 -14 0
-69 -32 0
-14 -32 0
69 19 41 0
-69 -19 0
-69 -41 0
-19 -41 0
16 40 42 0
-16 -40 0
-16 -42 0
-40 -42 0
62 68 47 0
-62 -68 0
-62 -47 0
-68 -47 0
20 10 24 0
-20 -10 0
-20 -24 0
-10 -24 0
33 48 29 0
-33 -48 0
-33 -29 0
-48 -29 0
18 9 60 0
-18 -9 0
-18 -60 0
-9 -60 0
30 14 26 0
-30 -14 0
-30 -26 0
-14 -26 0
17 50 64 0
-17 -50 0
-17 -64 0
-50 -64 0
53 35 8 0
-53 -35 0
-53 -8 0
-35 -8 0
45 40 27 0
-45 -40 0
-45 -27 0
-40 -27 0
