c family=1-in-3-SAT n=70 instance=7 seed=3881676977 models=15360
c order 5 50 61 62 30 15 63 14 42 49 48 38 64 13 67 39 60 59 27 46 20 3 37 19 4 16 34 8 66 36 22 21 51 43 69 45 58 70 10 6 23 35 65 25 26 17 2 9 40 57 1 32 47 55 44 31 56 41 29 68 12 7 24 33 52 53 28 54 11 18
c order 12 22 69 47 8 21 31 1 41 57 48 13 64 37 27 63 56 17 67 53 33 50 18 7 49 54 11 20 2 39 62 61 3 66 6 70 43 46 30 38 36 45 10 42 60 19 58 52 34 51 29 55 16 23 40 9 59 26 65 24 35 5 32 14 25 44 4 28 68 15
c order 10 21 31 37 40 59 29 67 13 69 35 32 16 51 38 61 54 18 19 44 50 27 52 64 8 47 56 14 26 46 3 33 5 62 6 28 1 42 23 66 70 11 17 7 45 12 48 55 41 34 65 39 57 24 53 30 58 63 68 9 36 2 15 43 22 25 49 60 20 4
c order 10 37 27 16 41 53 4 42 54 20 6 44 26 46 60 25 38 64 7 12 57 22 66 45 29 51 15 2 30 11 43 21 18 49 28 23 61 36 58 62 65 14 32 63 33 1 47 3 13 59 31 39 40 24 67 35 69 34 50 8 68 55 52 56 17 5 19 70 48 9
c order 6 38 26 21 27 1 29 30 9 28 4 66 43 56 31 5 46 10 33 69 42 65 13 11 15 34 45 18 7 49 3 70 67 62 2 12 57 17 22 59 40 25 20 36 52 61 41 55 47 37 63 32 58 39 54 24 23 14 64 16 60 8 50 44 53 51 35 68 48 19
c order 27 22 46 57 12 43 11 39 37 47 9 70 23 10 13 58 16 67 5 18 61 69 24 14 6 41 65 54 26 68 49 21 33 52 28 64 20 66 8 59 1 56 35 29 63 4 38 31 45 19 55 51 60 3 50 53 44 15 40 48 34 42 25 7 30 62 2 17 32 36
c order 16 2 44 25 39 3 46 57 34 63 55 29 15 12 70 31 19 1 14 22 49 37 33 32 56 17 21 27 51 38 13 58 11 36 42 7 8 9 18 53 30 60 52 28 69 4 45 59 5 54 23 26 41 43 24 48 67 6 40 68 61 10 66 62 47 50 64 20 65 35
c order 63 26 42 50 69 29 48 7 62 9 35 65 30 21 31 39 43 33 10 3 18 11 32 47 16 55 37 4 28 1 44 2 67 38 60 68 61 52 46 56 17 34 23 70 8 15 49 20 24 41 19 13 22 40 27 14 25 58 57 66 45 5 54 64 36 53 12 6 59 51
c order 55 33 4 43 9 60 35 23 52 10 6 41 27 14 24 18 36 8 59 26 7 3 38 5 16 30 15 67 48 32 45 44 42 70 13 62 64 37 34 29 50 53 25 58 63 39 56 1 31 11 22 61 40 54 17 19 28 21 68 49 65 69 47 2 20 46 66 12 57 51
c order 29 28 35 51 1 59 62 44 7 18 10 20 53 31 32 45 33 50 49 55 46 52 58 30 42 40 65 12 43 6 60 4 26 70 38 68 64 66 69 13 9 16 21 24 15 5 27 47 63 41 67 56 39 14 19 34 25 57 54 36 48 3 23 37 17 61 2 11 8 22
p cnf 70 168
49 32 23 0
-49 -32 0
-49 -23 0
-32 -23 0
48 4 28 0
-48 -4 0
-48 -28 0
-4 -28 0
51 56 28 0
-51 -56 0
-51 -28 0
-56 -28 0
8 18 38 0
-8 -18 0
-8 -38 0
-18 -38 0
25 61 28 0
-25 -61 0
-25 -28 0
-61 -28 0
20 33 9 0
-20 -33 0
-20 -9 0
-33 -9 0
1 3 23 0
-1 -3 0
-1 -23 0
-3 -23 0
31 38 1 0
-31 -38 0
-31 -1 0
-38 -1 0
42 9 54 0
-42 -9 0
-42 -54 0
-9 -54 0
62 30 56 0
-62 -30 0
-62 -56 0
-30 -56 0
44 19 58 0
-44 -19 0
-44 -58 0
-19 -58 0
12 35 4 0
-12 -35 0
-12 -4 0
-35 -4 0
45 47 67 0
-45 -47 0
-45 -67 0
-47 -67 0
25 52 69 0
-25 -52 0
-25 -69 0
-52 -69 0
62 12 7 0
-62 -12 0
-62 -7 0
-12 -7 0
34 1 5 0
-34 -1 0
-34 -5 0
-1 -5 0
37 47 24 0
-37 -47 0
-37 -24 0
-47 -24 0
4 50 34 0
-4 -50 0
-4 -34 0
-50 -34 0
28 66 12 0
-28 -66 0
-28 -12 0
-66 -12 0
15 60 11 0
-15 -60 0
-15 -11 0
-60 -11 0
3 51 66 0
-3 -51 0
-3 -66 0
-51 -66 0
16 48 33 0
-16 -48 0
-16 -33 0
-48 -33 0
49 61 18 0
-49 -61 0
-49 -18 0
-61 -18 0
27 62 24 0
-27 -62 0
-27 -24 0
-62 -24 0
54 53 8 0
-54 -53 0
-54 -8 0
-53 -8 0
28 64 18 0
-28 -64 0
-28 -18 0
-64 -18 0
46 57 62 0
-46 -57 0
-46 -62 0
-57 -62 0
43 56 68 0
-43 -56 0
-43 -68 0
-56 -68 0
57 42 48 0
-57 -42 0
-57 -48 0
-42 -48 0
22 70 65 0
-22 -70 0
-22 -65 0
-70 -65 0
63 4 69 0
-63 -4 0
-63 -69 0
-4 -69 0
56 32 22 0
-56 -32 0
-56 -22 0
-32 -22 0
37 3 9 0
-37 -3 0
-37 -9 0
-3 -9 0
38 45 43 0
-38 -45 0
-38 -43 0
-45 -43 0
10 30 39 0
-10 -30 0
-10 -39 0
-30 -39 0
62 37 2 0
-62 -37 0
-62 -2 0
-37 -2 0
43 62 22 0
-43 -62 0
-43 -22 0
-62 -22 0
58 38 21 0
-58 -38 0
-58 -21 0
-38 -21 0
32 19 64 0
-32 -19 0
-32 -64 0
-19 -64 0
8 33 11 0
-8 -33 0
-8 -11 0
-33 -11 0
50 2 46 0
-50 -2 0
-50 -46 0
-2 -46 0
10 36 28 0
-10 -36 0
-10 -28 0
-36 -28 0
