c family=1-in-3-SAT n=70 instance=0 seed=3881676977 models=12288
c order 56 36 26 29 1 16 64 15 33 10 50 54 24 28 34 13 11 65 5 69 21 30 43 25 63 31 53 58 49 42 61 59 70 37 32 44 12 45 22 4 47 9 51 8 6 46 39 27 60 66 52 38 48 20 18 3 23 19 40 55 14 67 2 35 7 41 17 62 68 57
c order 16 12 2 6 39 28 43 69 45 52 29 40 66 19 57 5 63 54 48 38 41 31 35 21 67 49 42 47 46 30 64 62 9 56 7 13 55 18 4 24 20 53 34 32 68 14 27 50 58 26 51 1 17 23 15 33 11 3 25 8 44 61 36 10 65 37 60 22 70 59
c order 50 49 51 28 5 59 29 4 16 12 2 3 33 41 52 64 7 58 39 46 14 47 35 69 26 8 37 68 19 1 65 22 31 62 30 42 63 27 24 45 11 66 53 56 57 17 34 70 20 23 32 54 61 21 43 25 60 48 10 38 40 13 18 67 9 15 36 44 55 6
c order 7 67 70 54 30 57 10 5 45 40 18 37 56 24 28 68 64 3 32 1 51 48 31 53 63 39 38 11 6 16 65 46 17 4 60 19 22 8 55 41 49 25 69 20 12 23 35 27 61 9 2 26 14 15 33 13 29 34 50 66 52 58 21 42 59 43 47 36 44 62
c order 62 6 67 4 15 36 66 47 18 26 40 19 1 44 43 41 10 12 28 27 51 21 5 29 45 11 48 63 14 57 58 22 17 8 69 60 42 24 7 46 9 65 54 31 3 38 23 33 55 30 59 56 32 64 52 70 13 39 49 53 68 2 34 25 37 20 16 61 35 50
c order 56 36 63 4 7 22 51 8 69 43 38 37 13 12 29 45 16 2 19 25 46 40 55 14 17 61 53 15 66 20 39 26 68 3 62 64 57 1 59 9 30 70 10 24 5 33 32 48 23 58 60 44 52 54 47 49 28 65 50 42 41 67 21 18 35 6 11 27 31 34
c order 33 31 9 19 61 5 16 21 70 10 54 22 40 46 69 55 12 32 59 39 67 29 65 66 56 27 48 8 36 2 47 51 62 64 1 18 60 37 25 13 41 14 57 30 43 63 44 68 38 26 4 35 15 6 49 11 58 24 7 52 3 23 50 42 45 34 53 28 17 20
c order 62 67 53 45 15 24 35 39 37 29 7 28 58 34 65 48 42 54 60 17 41 21 12 64 27 18 1 46 59 26 51 52 56 69 6 30 13 33 4 19 47 50 2 43 23 9 3 38 57 63 11 68 14 36 44 49 25 66 5 16 40 31 32 70 61 10 55 20 22 8
c order 54 35 5 22 56 1 30 49 52 27 68 9 20 41 19 21 46 26 28 63 43 65 4 32 33 38 37 70 66 6 11 17 10 16 15 51 2 47 8 39 69 62 12 64 36 31 53 18 58 3 67 42 40 48 60 57 50 34 29 45 24 61 44 13 23 25 55 7 59 14
c order 41 29 66 12 5 31 56 19 48 63 50 27 43 70 59 2 40 33 57 62 69 15 6 32 45 17 38 1 53 55 42 58 8 49 22 68 64 13 30 24 20 7 28 52 21 25 16 39 60 36 23 35 26 37 44 9 61 4 10 65 3 67 51 34 11 18 54 46 14 47
p cnf 70 168
52 65 29 0
-52 -65 0
-52 -29 0
-65 -29 0
42 13 30 0
-42 -13 0
-42 -30 0
-13 -30 0
45 64 62 0
-45 -64 0
-45 -62 0
-64 -62 0
54 20 45 0
-54 -20 0
-54 -45 0
-20 -45 0
38 42 59 0
-38 -42 0
-38 -59 0
-42 -59 0
32 58 63 0
-32 -58 0
-32 -63 0
-58 -63 0
14 4 42 0
-14 -4 0
-14 -42 0
-4 -42 0
52 7 4 0
-52 -7 0
-52 -4 0
-7 -4 0
40 39 43 0
-40 -39 0
-40 -43 0
-39 -43 0
42 45 55 0
-42 -45 0
-42 -55 0
-45 -55 0
10 46 6 0
-10 -46 0
-10 -6 0
-46 -6 0
10 21 34 0
-10 -21 0
-10 -34 0
-21 -34 0
60 61 16 0
-60 -61 0
-60 -16 0
-61 -16 0
13 12 41 0
-13 -12 0
-13 -41 0
-12 -41 0
13 27 36 0
-13 -27 0
-13 -36 0
-27 -36 0
6 33 25 0
-6 -33 0
-6 -25 0
-33 -25 0
68 70 1 0
-68 -70 0
-68 -1 0
-70 -1 0
22 29 24 0
-22 -29 0
-22 -24 0
-29 -24 0
9 70 59 0
-9 -70 0
-9 -59 0
-70 -59 0
16 4 18 0
-16 -4 0
-16 -18 0
-4 -18 0
6 59 28 0
-6 -59 0
-6 -28 0
-59 -28 0
22 3 23 0
-22 -3 0
-22 -23 0
-3 -23 0
57 23 5 0
-57 -23 0
-57 -5 0
-23 -5 0
69 6 27 0
-69 -6 0
-69 -27 0
-6 -27 0
3 11 28 0
-3 -11 0
-3 -28 0
-11 -28 0
33 36 27 0
-33 -36 0
-33 -27 0
-36 -27 0
42 16 25 0
-42 -16 0
-42 -25 0
-16 -25 0
25 10 34 0
-25 -10 0
-25 -34 0
-10 -34 0
65 24 57 0
-65 -24 0
-65 -57 0
-24 -57 0
4 21 39 0
-4 -21 0
-4 -39 0
-21 -39 0
22 68 8 0
-22 -68 0
-22 -8 0
-68 -8 0
33 2 20 0
-33 -2 0
-33 -20 0
-2 -20 0
17 30 68 0
-17 -30 0
-17 -68 0
-30 -68 0
22 29 48 0
-22 -29 0
-22 -48 0
-29 -48 0
41 16 42 0
-41 -16 0
-41 -42 0
-16 -42 0
35 27 57 0
-35 -27 0
-35 -57 0
-27 -57 0
43 21 59 0
-43 -21 0
-43 -59 0
-21 -59 0
60 7 47 0
-60 -7 0
-60 -47 0
-7 -47 0
41 25 7 0
-41 -25 0
-41 -7 0
-25 -7 0
52 24 11 0
-52 -24 0
-52 -11 0
-24 -11 0
65 60 10 0
-65 -60 0
-65 -10 0
-60 -10 0
65 51 54 0
-65 -51 0
-65 -54 0
-51 -54 0
