c family=1-in-3-SAT n=70 instance=1 seed=3881676977 models=12288
c order 1 62 49 31 35 4 69 64 60 6 11 61 54 13 3 57 5 58 65 42 43 68 41 25 18 48 28 70 16 30 15 50 14 27 47 37 22 63 19 26 29 56 23 33 21 52 55 20 45 53 9 24 38 32 59 2 7 67 39 40 8 10 46 36 51 44 12 66 17 34
c order 64 39 50 6 18 45 9 25 24 40 27 31 38 28 19 14 16 70 26 65 37 41 56 67 4 22 3 43 47 42 69 54 51 66 7 12 10 58 61 15 23 48 33 60 68 30 8 34 11 5 2 17 44 32 57 55 59 21 53 52 29 20 36 62 63 13 46 35 1 49
c order 5 55 63 29 24 50 8 22 19 32 31 49 69 39 40 62 4 14 34 67 16 23 57 51 64 27 59 43 30 52 42 20 54 44 37 66 2 46 11 38 26 13 53 12 70 65 7 33 25 10 58 3 48 68 15 9 17 18 6 45 41 36 56 28 1 60 35 61 47 21
c order 34 44 9 59 1 43 18 58 67 37 26 45 28 50 31 12 70 40 19 32 65 61 41 5 30 53 6 25 2 69 10 14 36 24 56 55 66 42 7 13 49 15 62 21 20 54 29 22 4 57 63 60 23 39 33 3 68 46 47 38 16 35 27 11 17 52 8 51 64 48
c order 65 39 54 11 20 45 30 10 43 41 64 5 47 29 14 2 53 32 28 33 9 31 61 66 62 4 16 6 8 69 68 26 22 46 40 36 67 51 42 21 63 55 49 52 59 56 48 58 15 25 37 38 7 60 70 57 23 35 18 44 24 1 17 19 50 3 12 27 34 13
c order 6 28 63 48 2 52 67 51 4 11 14 47 56 59 70 26 5 9 58 60 66 46 34 57 32 23 43 50 62 3 30 12 65 31 16 18 29 22 24 20 27 55 7 13 37 25 39 21 68 49 53 64 61 54 44 10 36 17 15 8 42 45 40 38 1 41 69 35 19 33
c order 37 10 7 34 67 5 39 20 38 68 47 57 66 41 65 6 52 13 69 51 54 28 64 36 70 30 19 55 16 11 45 12 46 50 29 44 56 61 62 25 60 4 21 17 26 42 1 24 53 49 33 23 27 22 43 35 15 14 48 9 40 58 18 59 2 31 32 63 8 3
c order 69 46 17 10 9 7 12 65 8 21 55 43 56 13 47 70 30 66 52 22 29 67 45 23 42 63 64 35 5 28 26 41 16 4 1 34 36 15 62 38 2 32 37 25 50 57 59 58 54 49 24 18 33 60 48 31 44 11 20 6 19 27 51 68 3 61 14 53 39 40
c order 21 55 62 29 50 24 48 66 11 34 41 26 69 2 51 61 10 68 49 32 60 63 46 70 31 44 5 1 23 52 65 6 25 13 39 64 8 38 30 57 42 27 53 67 9 45 40 37 7 58 56 4 35 43 14 47 36 19 16 59 12 15 54 18 22 28 17 20 33 3
c order 61 5 35 48 1 16 45 33 56 47 58 59 53 38 27 46 6 25 39 64 22 31 15 11 40 13 20 23 8 24 18 2 10 43 70 36 37 3 65 14 60 4 66 7 29 41 57 9 54 49 30 67 55 42 44 17 51 50 28 12 26 62 21 63 34 52 69 19 68 32
p cnf 70 168
30 41 38 0
-30 -41 0
-30 -38 0
-41 -38 0
26 46 67 0
-26 -46 0
-26 -67 0
-46 -67 0
69 42 18 0
-69 -42 0
-69 -18 0
-42 -18 0
51 46 13 0
-51 -46 0
-51 -13 0
-46 -13 0
20 66 50 0
-20 -66 0
-20 -50 0
-66 -50 0
44 27 16 0
-44 -27 0
-44 -16 0
-27 -16 0
37 38 28 0
-37 -38 0
-37 -28 0
-38 -28 0
25 49 5 0
-25 -49 0
-25 -5 0
-49 -5 0
3 2 53 0
-3 -2 0
-3 -53 0
-2 -53 0
16 9 54 0
-16 -9 0
-16 -54 0
-9 -54 0
18 6 11 0
-18 -6 0
-18 -11 0
-6 -11 0
56 45 52 0
-56 -45 0
-56 -52 0
-45 -52 0
26 21 23 0
-26 -21 0
-26 -23 0
-21 -23 0
63 11 46 0
-63 -11 0
-63 -46 0
-11 -46 0
19 6 12 0
-19 -6 0
-19 -12 0
-6 -12 0
2 3 47 0
-2 -3 0
-2 -47 0
-3 -47 0
70 14 55 0
-70 -14 0
-70 -55 0
-14 -55 0
4 5 37 0
-4 -5 0
-4 -37 0
-5 -37 0
62 32 69 0
-62 -32 0
-62 -69 0
-32 -69 0
25 54 16 0
-25 -54 0
-25 -16 0
-54 -16 0
25 69 35 0
-25 -69 0
-25 -35 0
-69 -35 0
17 49 31 0
-17 -49 0
-17 -31 0
-49 -31 0
45 22 43 0
-45 -22 0
-45 -43 0
-22 -43 0
53 68 57 0
-53 -68 0
-53 -57 0
-68 -57 0
67 13 12 0
-67 -13 0
-67 -12 0
-13 -12 0
20 24 49 0
-20 -24 0
-20 -49 0
-24 -49 0
47 67 15 0
-47 -67 0
-47 -15 0
-67 -15 0
1 55 22 0
-1 -55 0
-1 -22 0
-55 -22 0
59 23 57 0
-59 -23 0
-59 -57 0
-23 -57 0
53 66 31 0
-53 -66 0
-53 -31 0
-66 -31 0
27 28 55 0
-27 -28 0
-27 -55 0
-28 -55 0
20 55 62 0
-20 -55 0
-20 -62 0
-55 -62 0
25 63 6 0
-25 -63 0
-25 -6 0
-63 -6 0
24 68 7 0
-24 -68 0
-24 -7 0
-68 -7 0
4 66 51 0
-4 -66 0
-4 -51 0
-66 -51 0
5 18 66 0
-5 -18 0
-5 -66 0
-18 -66 0
52 33 56 0
-52 -33 0
-52 -56 0
-33 -56 0
20 57 38 0
-20 -57 0
-20 -38 0
-57 -38 0
9 46 4 0
-9 -46 0
-9 -4 0
-46 -4 0
17 1 66 0
-17 -1 0
-17 -66 0
-1 -66 0
21 13 61 0
-21 -13 0
-21 -61 0
-13 -61 0
30 68 60 0
-30 -68 0
-30 -60 0
-68 -60 0
