c family=1-in-3-SAT n=70 instance=9 seed=3881676977 models=9216
c order 63 1 45 70 33 20 9 17 29 47 62 25 16 43 13 53 11 18 8 28 55 37 59 36 2 54 44 15 56 30 5 35 19 60 21 57 50 61 39 40 6 58 69 12 31 34 64 26 27 67 38 52 48 7 24 14 3 41 49 66 32 4 51 68 22 10 42 23 46 65
c order 18 9 19 70 44 42 32 5 36 47 48 25 50 20 60 67 65 1 7 30 29 24 16 64 56 26 27 68 52 23 55 38 21 57 49 33 6 2 28 40 22 45 11 10 13 66 8 61 63 37 46 62 12 4 43 53 54 41 3 15 69 39 35 31 17 58 34 59 51 14
c order 47 23 13 3 32 2 34 38 41 53 62 8 10 46 59 4 61 42 7 12 67 1 58 48 49 27 20 26 31 60 28 9 6 30 40 33 50 25 52 19 54 35 15 51 14 16 39 36 63 56 18 43 68 44 37 24 22 17 11 65 69 21 5 70 55 66 57 64 29 45
c order 48 22 12 40 36 9 29 38 50 18 35 41 17 44 3 65 37 21 15 57 28 5 24 63 31 10 34 53 45 69 66 30 67 49 68 32 62 61 26 16 2 11 59 54 55 42 8 27 6 23 33 25 43 52 1 20 60 47 58 39 56 64 4 13 14 51 70 19 46 7
c order 18 45 69 57 7 37 68 11 47 48 28 52 40 25 17 26 27 12 34 30 44 63 70 2 39 23 14 20 6 1 36 46 21 56 29 16 8 10 61 54 33 59 62 15 24 32 43 41 51 31 65 3 49 19 13 64 55 38 58 4 5 60 22 9 35 67 42 50 66 53
c order 15 18 33 34 26 1 8 2 10 51 19 68 49 24 3 23 66 29 16 40 46 45 35 14 69 63 17 38 4 52 54 9 30 62 67 22 58 41 36 70 61 55 59 21 65 56 25 60 11 48 53 57 28 6 50 20 7 37 43 27 64 42 12 39 31 44 5 13 32 47
c order 32 19 60 5 66 25 56 15 17 37 8 51 24 39 48 20 64 2 47 10 9 57 34 45 22 7 44 29 40 12 4 1 54 36 16 14 52 41 33 61 63 11 31 23 3 27 67 50 18 53 28 58 42 26 35 68 55 69 70 65 49 30 62 43 46 6 38 13 59 21
c order 8 47 19 35 18 28 20 15 17 50 37 41 58 1 29 27 2 64 25 69 10 16 53 12 31 48 32 43 4 38 9 26 14 67 7 51 3 22 55 65 39 68 61 45 56 59 24 30 70 36 6 44 13 52 49 40 46 60 34 42 23 5 54 66 63 11 62 57 21 33
c order 49 27 18 64 13 4 51 40 42 34 20 24 65 12 61 25 47 21 44 56 67 6 37 32 39 55 7 43 66 26 33 14 57 50 3 45 5 29 23 70 2 62 53 28 16 31 36 17 52 46 58 10 1 9 63 35 41 30 15 59 48 60 22 8 69 68 11 19 54 38
c order 7 69 38 11 27 15 31 26 13 37 30 28 36 50 39 10 48 40 20 46 60 55 4 1 68 67 9 54 5 63 12 8 41 58 53 32 66 2 56 70 51 59 18 61 16 29 6 22 34 42 35 21 3 62 64 24 14 57 47 52 19 49 45 23 25 44 33 65 17 43
p cnf 70 168
40 33 32 0
-40 -33 0
-40 -32 0
-33 -32 0
22 9 19 0
-22 -9 0
-22 -19 0
-9 -19 0
50 20 44 0
-50 -20 0
-50 -44 0
-20 -44 0
70 16 11 0
-70 -16 0
-70 -11 0
-16 -11 0
3 55 38 0
-3 -55 0
-3 -38 0
-55 -38 0
13 29 45 0
-13 -29 0
-13 -45 0
-29 -45 0
34 15 50 0
-34 -15 0
-34 -50 0
-15 -50 0
22 7 48 0
-22 -7 0
-22 -48 0
-7 -48 0
36 60 25 0
-36 -60 0
-36 -25 0
-60 -25 0
4 48 23 0
-4 -48 0
-4 -23 0
-48 -23 0
18 3 60 0
-18 -3 0
-18 -60 0
-3 -60 0
11 32 62 0
-11 -32 0
-11 -62 0
-32 -62 0
8 60 39 0
-8 -60 0
-8 -39 0
-60 -39 0
63 2 46 0
-63 -2 0
-63 -46 0
-2 -46 0
7 33 35 0
-7 -33 0
-7 -35 0
-33 -35 0
20 31 37 0
-20 -31 0
-20 -37 0
-31 -37 0
47 19 42 0
-47 -19 0
-47 -42 0
-19 -42 0
35 43 1 0
-35 -43 0
-35 -1 0
-43 -1 0
55 20 45 0
-55 -20 0
-55 -45 0
-20 -45 0
44 40 66 0
-44 -40 0
-44 -66 0
-40 -66 0
43 28 63 0
-43 -28 0
-43 -63 0
-28 -63 0
11 6 49 0
-11 -6 0
-11 -49 0
-6 -49 0
59 55 13 0
-59 -55 0
-59 -13 0
-55 -13 0
51 10 24 0
-51 -10 0
-51 -24 0
-10 -24 0
36 42 6 0
-36 -42 0
-36 -6 0
-42 -6 0
51 68 61 0
-51 -68 0
-51 -61 0
-68 -61 0
4 9 49 0
-4 -9 0
-4 -49 0
-9 -49 0
57 42 51 0
-57 -42 0
-57 -51 0
-42 -51 0
61 70 53 0
-61 -70 0
-61 -53 0
-70 -53 0
49 24 6 0
-49 -24 0
-49 -6 0
-24 -6 0
46 4 15 0
-46 -4 0
-46 -15 0
-4 -15 0
7 8 42 0
-7 -8 0
-7 -42 0
-8 -42 0
36 70 46 0
-36 -70 0
-36 -46 0
-70 -46 0
24 53 9 0
-24 -53 0
-24 -9 0
-53 -9 0
27 51 17 0
-27 -51 0
-27 -17 0
-51 -17 0
7 40 31 0
-7 -40 0
-7 -31 0
-40 -31 0
41 40 11 0
-41 -40 0
-41 -11 0
-40 -11 0
56 52 21 0
-56 -52 0
-56 -21 0
-52 -21 0
34 39 52 0
-34 -39 0
-34 -52 0
-39 -52 0
61 46 42 0
-61 -46 0
-61 -42 0
-46 -42 0
64 31 12 0
-64 -31 0
-64 -12 0
-31 -12 0
28 57 17 0
-28 -57 0
-28 -17 0
-57 -17 0
