c family=1-in-3-SAT n=70 instance=2 seed=3881676977 models=16384
c order 5 43 39 60 29 35 4 65 66 22 48 61 41 37 20 1 31 34 6 40 62 13 19 24 2 11 27 68 57 25 32 15 55 45 67 51 7 69 18 42 49 36 59 17 9 64 26 46 23 63 12 3 54 47 16 70 14 53 50 56 38 8 58 21 33 30 44 52 10 28
c order 12 16 57 41 49 22 37 10 9 44 60 42 11 19 2 58 40 23 39 34 68 7 55 64 21 45 63 43 50 36 48 5 13 25 32 46 14 66 29 51 26 20 62 61 70 17 52 31 30 27 35 53 47 18 4 24 56 59 28 3 54 38 15 1 67 65 8 33 6 69
c order 19 27 45 60 11 2 36 53 16 7 42 22 69 29 8 24 28 26 57 14 56 59 62 48 67 15 61 12 33 13 25 1 20 31 63 38 6 10 34 40 65 58 21 54 37 68 50 52 18 49 46 9 44 70 32 47 51 3 66 43 55 4 35 39 41 64 17 23 30 5
c order 12 28 6 55 33 23 4 25 14 16 68 59 52 24 39 13 29 56 53 63 17 49 36 51 38 7 5 22 37 30 67 21 31 57 44 35 47 2 40 27 50 9 45 8 42 64 46 60 43 11 58 26 10 15 54 69 61 65 3 34 20 32 62 66 18 19 48 41 70 1
c order 2 18 38 12 51 23 25 7 1 10 3 32 35 67 43 36 6 31 33 29 63 4 14 30 62 39 60 27 16 26 21 55 20 9 42 13 65 47 17 68 59 64 41 56 45 61 37 24 34 15 40 66 50 49 8 57 22 5 69 48 44 58 53 54 28 70 52 46 11 19
c order 49 4 46 47 58 25 24 67 2 27 21 30 14 50 10 43 36 31 11 9 28 44 6 48 62 5 60 40 37 19 12 69 52 59 42 54 17 8 32 66 55 51 65 61 53 22 13 41 34 7 56 23 33 20 45 35 70 3 64 15 57 18 16 29 68 63 26 1 39 38
c order 10 54 50 27 26 24 64 47 56 45 37 3 22 4 8 13 2 51 14 34 5 18 20 19 68 46 55 53 11 21 48 6 66 70 36 17 23 59 58 33 52 29 67 30 44 28 1 60 38 41 32 61 15 12 39 57 25 7 49 16 62 63 65 35 69 9 43 42 40 31
c order 4 40 21 49 17 26 36 12 28 41 69 52 2 34 7 19 47 55 33 66 5 46 51 62 70 37 30 42 65 59 15 63 45 38 13 20 10 53 11 31 60 3 58 35 24 14 27 67 25 1 44 48 64 8 57 9 29 56 50 68 6 22 43 39 61 32 16 18 23 54
c order 62 2 27 26 14 32 51 33 70 18 3 38 41 4 36 31 61 5 50 44 58 20 67 25 56 40 60 65 35 49 57 23 53 42 46 48 52 45 54 39 43 8 7 6 16 37 15 30 1 12 17 10 55 34 64 11 29 69 22 66 63 19 28 68 13 9 59 24 47 21
c order 48 56 27 53 60 15 69 12 22 45 38 63 41 28 32 61 50 57 5 23 4 29 18 46 55 19 39 26 66 24 34 62 16 30 35 52 51 20 33 7 13 14 8 31 70 9 6 42 47 44 58 59 25 54 21 64 3 43 40 2 11 49 37 1 68 65 36 17 10 67
p cnf 70 168
41 44 14 0
-41 -44 0
-41 -14 0
-44 -14 0
2 66 44 0
-2 -66 0
-2 -44 0
-66 -44 0
33 20 44 0
-33 -20 0
-33 -44 0
-20 -44 0
46 19 1 0
-46 -19 0
-46 -1 0
-19 -1 0
35 14 49 0
-35 -14 0
-35 -49 0
-14 -49 0
12 46 60 0
-12 -46 0
-12 -60 0
-46 -60 0
50 1 14 0
-50 -1 0
-50 -14 0
-1 -14 0
25 45 41 0
-25 -45 0
-25 -41 0
-45 -41 0
29 52 65 0
-29 -52 0
-29 -65 0
-52 -65 0
9 49 47 0
-9 -49 0
-9 -47 0
-49 -47 0
50 27 62 0
-50 -27 0
-50 -62 0
-27 -62 0
46 16 26 0
-46 -16 0
-46 -26 0
-16 -26 0
44 32 33 0
-44 -32 0
-44 -33 0
-32 -33 0
17 51 29 0
-17 -51 0
-17 -29 0
-51 -29 0
55 62 34 0
-55 -62 0
-55 -34 0
-62 -34 0
50 53 2 0
-50 -53 0
-50 -2 0
-53 -2 0
69 7 32 0
-69 -7 0
-69 -32 0
-7 -32 0
16 1 61 0
-16 -1 0
-16 -61 0
-1 -61 0
12 34 35 0
-12 -34 0
-12 -35 0
-34 -35 0
53 4 11 0
-53 -4 0
-53 -11 0
-4 -11 0
47 2 61 0
-47 -2 0
-47 -61 0
-2 -61 0
26 27 46 0
-26 -27 0
-26 -46 0
-27 -46 0
7 58 43 0
-7 -58 0
-7 -43 0
-58 -43 0
55 4 9 0
-55 -4 0
-55 -9 0
-4 -9 0
30 38 8 0
-30 -38 0
-30 -8 0
-38 -8 0
7 39 28 0
-7 -39 0
-7 -28 0
-39 -28 0
32 39 16 0
-32 -39 0
-32 -16 0
-39 -16 0
7 3 63 0
-7 -3 0
-7 -63 0
-3 -63 0
9 40 43 0
-9 -40 0
-9 -43 0
-40 -43 0
63 22 12 0
-63 -22 0
-63 -12 0
-22 -12 0
52 37 35 0
-52 -37 0
-52 -35 0
-37 -35 0
13 70 56 0
-13 -70 0
-13 -56 0
-70 -56 0
24 68 61 0
-24 -68 0
-24 -61 0
-68 -61 0
66 57 24 0
-66 -57 0
-66 -24 0
-57 -24 0
31 65 10 0
-31 -65 0
-31 -10 0
-65 -10 0
49 23 36 0
-49 -23 0
-49 -36 0
-23 -36 0
8 39 21 0
-8 -39 0
-8 -21 0
-39 -21 0
40 45 60 0
-40 -45 0
-40 -60 0
-45 -60 0
42 8 20 0
-42 -8 0
-42 -20 0
-8 -20 0
56 43 69 0
-56 -43 0
-56 -69 0
-43 -69 0
1 41 4 0
-1 -41 0
-1 -4 0
-41 -4 0
24 33 16 0
-24 -33 0
-24 -16 0
-33 -16 0
