c family=1-in-3-SAT n=70 instance=8 seed=3881676977 models=12288
c order 16 6 63 62 7 12 49 55 51 60 53 65 8 44 61 18 10 20 52 37 38 31 47 29 26 11 50 40 14 68 15 24 13 3 69 67 48 1 28 36 5 17 30 33 59 54 46 45 42 64 70 35 56 41 9 39 57 22 32 2 43 23 34 58 27 19 21 66 4 25
c order 59 12 34 21 60 45 47 49 2 19 58 8 52 67 64 22 42 38 3 6 24 39 35 23 62 40 11 32 20 30 13 37 33 51 4 70 41 68 50 44 17 56 18 43 10 65 36 28 48 5 16 61 55 29 15 54 1 9 69 53 63 7 14 46 25 57 31 66 26 27
c order 47 65 10 51 1 16 35 27 13 66 59 56 2 37 15 26 60 14 40 12 33 70 48 19 24 46 61 54 28 3 39 67 32 8 62 49 57 6 52 5 17 11 30 31 69 53 22 44 23 18 25 21 58 36 34 42 20 29 43 68 4 9 45 50 64 55 7 41 63 38
c order 26 39 1 52 36 47 20 12 48 5 54 13 23 44 15 50 14 58 57 59 46 9 28 69 31 61 70 22 49 43 42 60 34 8 19 35 63 55 68 53 41 51 64 67 37 6 21 7 2 65 24 66 4 10 16 56 27 17 45 33 32 18 3 40 38 25 62 30 11 29
c order 2 21 4 29 60 47 53 42 30 68 63 18 51 66 12 39 13 57 52 26 48 67 8 37 69 32 34 46 65 45 44 56 55 7 14 20 10 61 17 54 11 43 15 25 24 22 3 49 41 70 23 31 9 33 19 64 58 35 6 59 27 40 5 1 50 36 62 38 16 28
c order 11 50 33 25 31 65 30 24 10 53 61 49 9 3 43 62 64 44 17 23 35 58 19 59 34 16 45 41 21 20 29 1 12 22 69 39 15 37 55 67 68 57 56 28 54 51 66 7 42 18 13 48 38 26 70 52 63 6 8 4 27 2 46 47 32 36 14 40 60 5
c order 57 30 38 7 53 40 42 13 45 66 19 28 25 29 16 2 10 59 11 54 36 6 27 26 37 17 69 5 48 50 68 41 65 49 4 15 70 34 18 62 61 55 24 44 56 9 51 31 47 35 39 20 60 46 12 43 1 32 63 22 14 8 21 52 23 64 3 67 58 33
c order 53 40 37 15 32 51 69 46 66 17 45 58 67 24 8 61 50 44 70 60 62 12 55 31 6 20 9 33 38 35 7 68 22 18 52 5 14 54 30 43 64 56 2 39 11 19 48 21 4 10 34 63 42 29 65 27 23 47 36 59 1 16 41 57 49 26 25 28 3 13
c order 63 5 20 59 65 35 11 44 39 25 27 8 16 34 48 23 32 28 58 13 4 3 30 41 51 42 7 54 36 53 9 24 70 15 50 45 60 67 62 56 40 1 17 6 46 31 26 14 2 47 18 57 10 19 37 61 38 33 52 43 68 21 64 29 66 22 55 12 49 69
c order 42 59 34 31 1 70 62 14 38 52 66 67 32 50 12 18 11 47 4 10 40 56 5 44 16 17 20 53 57 41 58 3 43 55 24 39 60 61 35 27 25 29 13 22 8 7 30 23 28 69 9 48 49 37 15 51 46 19 45 64 63 68 6 21 54 36 65 33 2 26
p cnf 70 168
7 11 27 0
-7 -11 0
-7 -27 0
-11 -27 0
40 11 38 0
-40 -11 0
-40 -38 0
-11 -38 0
30 62 57 0
-30 -62 0
-30 -57 0
-62 -57 0
12 65 44 0
-12 -65 0
-12 -44 0
-65 -44 0
32 59 43 0
-32 -59 0
-32 -43 0
-59 -43 0
21 69 2 0
-21 -69 0
-21 -2 0
-69 -2 0
70 8 41 0
-70 -8 0
-70 -41 0
-8 -41 0
15 18 25 0
-15 -18 0
-15 -25 0
-18 -25 0
66 54 40 0
-66 -54 0
-66 -40 0
-54 -40 0
5 8 34 0
-5 -8 0
-5 -34 0
-8 -34 0
15 52 57 0
-15 -52 0
-15 -57 0
-52 -57 0
6 25 19 0
-6 -25 0
-6 -19 0
-25 -19 0
40 52 38 0
-40 -52 0
-40 -38 0
-52 -38 0
5 39 38 0
-5 -39 0
-5 -38 0
-39 -38 0
53 4 24 0
-53 -4 0
-53 -24 0
-4 -24 0
6 38 50 0
-6 -38 0
-6 -50 0
-38 -50 0
30 25 60 0
-30 -25 0
-30 -60 0
-25 -60 0
45 56 16 0
-45 -56 0
-45 -16 0
-56 -16 0
16 44 15 0
-16 -44 0
-16 -15 0
-44 -15 0
47 20 50 0
-47 -20 0
-47 -50 0
-20 -50 0
66 4 20 0
-66 -4 0
-66 -20 0
-4 -20 0
51 10 16 0
-51 -10 0
-51 -16 0
-10 -16 0
41 18 10 0
-41 -18 0
-41 -10 0
-18 -10 0
8 49 47 0
-8 -49 0
-8 -47 0
-49 -47 0
61 57 31 0
-61 -57 0
-61 -31 0
-57 -31 0
5 33 22 0
-5 -33 0
-5 -22 0
-33 -22 0
43 41 44 0
-43 -41 0
-43 -44 0
-41 -44 0
7 59 12 0
-7 -59 0
-7 -12 0
-59 -12 0
31 44 16 0
-31 -44 0
-31 -16 0
-44 -16 0
58 16 46 0
-58 -16 0
-58 -46 0
-16 -46 0
24 32 34 0
-24 -32 0
-24 -34 0
-32 -34 0
70 57 31 0
-70 -57 0
-70 -31 0
-57 -31 0
37 16 6 0
-37 -16 0
-37 -6 0
-16 -6 0
62 11 23 0
-62 -11 0
-62 -23 0
-11 -23 0
34 65 7 0
-34 -65 0
-34 -7 0
-65 -7 0
48 69 36 0
-48 -69 0
-48 -36 0
-69 -36 0
49 25 48 0
-49 -25 0
-49 -48 0
-25 -48 0
42 47 20 0
-42 -47 0
-42 -20 0
-47 -20 0
8 32 35 0
-8 -32 0
-8 -35 0
-32 -35 0
15 45 55 0
-15 -45 0
-15 -55 0
-45 -55 0
63 65 33 0
-63 -65 0
-63 -33 0
-65 -33 0
29 30 35 0
-29 -30 0
-29 -35 0
-30 -35 0
