c family=1-in-3-SAT n=70 instance=4 seed=3881676977 models=18432
c order 35 32 66 8 41 13 59 10 20 58 16 12 55 24 33 42 45 36 37 2 29 21 15 11 60 39 61 68 5 7 48 67 54 22 9 56 25 52 18 49 23 63 65 46 30 64 57 44 53 50 14 4 19 47 27 31 28 38 26 70 17 3 69 6 43 1 40 34 62 51
c order 31 16 7 65 4 1 64 68 6 59 37 28 26 52 61 14 70 45 58 10 57 36 53 34 27 23 67 33 24 55 49 60 2 12 40 5 3 54 48 32 18 51 41 20 39 44 43 69 38 35 63 50 30 15 13 47 46 56 29 9 8 17 66 25 21 11 19 22 42 62
c order 24 61 27 15 25 58 33 30 1 23 5 7 70 60 9 19 21 49 32 48 57 31 56 67 20 38 44 51 2 68 6 54 39 66 29 11 41 36 18 37 40 47 50 8 45 42 13 46 65 14 55 22 43 59 3 52 28 16 63 53 35 10 34 62 69 26 64 12 17 4
c order 50 70 13 30 4 59 31 66 25 12 48 36 55 41 2 60 35 32 49 22 8 68 6 29 42 58 14 54 33 5 7 11 38 43 26 47 3 20 64 52 1 57 61 18 67 40 24 17 9 46 69 65 53 39 10 23 44 27 21 45 56 51 16 63 37 15 28 19 34 62
c order 10 22 13 24 4 43 7 6 41 27 57 40 19 64 26 65 17 54 42 34 49 67 58 36 47 70 9 45 20 18 32 53 46 55 33 23 14 5 50 51 37 35 60 44 63 25 68 21 30 29 12 66 28 16 62 52 15 38 48 59 8 61 56 1 11 69 31 39 3 2
c order 26 59 16 33 44 41 8 4 5 9 20 23 32 7 15 60 10 12 21 29 1 63 17 69 48 37 52 58 25 51 42 14 56 11 34 67 65 36 68 57 3 66 13 30 47 28 38 40 24 50 61 46 53 62 35 43 22 27 54 45 70 2 31 18 49 55 39 19 64 6
c order 37 21 38 18 64 42 20 54 33 16 65 45 7 66 4 17 70 12 39 67 24 58 59 15 26 6 46 10 62 13 5 50 32 69 43 44 28 56 35 41 47 63 61 19 30 8 55 23 53 57 31 11 36 2 40 1 14 25 3 34 9 68 29 51 52 27 48 49 22 60
c order 38 8 48 44 5 53 52 25 15 64 32 7 63 67 27 9 42 56 66 41 12 50 36 14 1 28 54 58 49 18 30 13 51 60 23 21 61 65 26 68 59 10 20 33 19 24 34 47 39 43 6 57 55 45 17 69 46 40 70 29 22 16 3 4 35 11 37 62 2 31
c order 26 31 69 63 9 2 33 38 55 29 36 64 56 5 34 57 58 25 68 42 53 43 14 13 24 32 35 4 52 61 12 62 37 54 49 50 51 45 70 39 18 22 60 19 40 10 23 11 59 67 46 27 28 41 6 1 65 21 16 47 48 30 44 66 17 3 15 7 20 8
c order 24 48 19 23 58 68 16 34 28 55 35 65 8 37 3 30 59 12 42 63 33 1 7 41 4 31 49 66 39 14 29 45 38 6 44 17 47 27 15 13 46 57 60 25 43 22 56 64 9 69 5 61 20 32 53 67 70 50 26 54 11 51 10 36 62 40 52 21 18 2
p cnf 70 168
49 26 12 0
-49 -26 0
-49 -12 0
-26 -12 0
3 39 29 0
-3 -39 0
-3 -29 0
-39 -29 0
24 64 3 0
-24 -64 0
-24 -3 0
-64 -3 0
65 26 68 0
-65 -26 0
-65 -68 0
-26 -68 0
41 2 31 0
-41 -2 0
-41 -31 0
-2 -31 0
45 36 21 0
-45 -36 0
-45 -21 0
-36 -21 0
58 20 19 0
-58 -20 0
-58 -19 0
-20 -19 0
42 56 34 0
-42 -56 0
-42 -34 0
-56 -34 0
67 19 36 0
-67 -19 0
-67 -36 0
-19 -36 0
4 15 65 0
-4 -15 0
-4 -65 0
-15 -65 0
34 41 22 0
-34 -41 0
-34 -22 0
-41 -22 0
61 50 42 0
-61 -50 0
-61 -42 0
-50 -42 0
56 45 54 0
-56 -45 0
-56 -54 0
-45 -54 0
6 59 61 0
-6 -59 0
-6 -61 0
-59 -61 0
54 11 6 0
-54 -11 0
-54 -6 0
-11 -6 0
21 37 27 0
-21 -37 0
-21 -27 0
-37 -27 0
20 34 62 0
-20 -34 0
-20 -62 0
-34 -62 0
56 36 53 0
-56 -36 0
-56 -53 0
-36 -53 0
40 10 35 0
-40 -10 0
-40 -35 0
-10 -35 0
47 1 60 0
-47 -1 0
-47 -60 0
-1 -60 0
19 6 61 0
-19 -6 0
-19 -61 0
-6 -61 0
26 65 17 0
-26 -65 0
-26 -17 0
-65 -17 0
6 19 24 0
-6 -19 0
-6 -24 0
-19 -24 0
66 64 5 0
-66 -64 0
-66 -5 0
-64 -5 0
27 49 34 0
-27 -49 0
-27 -34 0
-49 -34 0
55 46 60 0
-55 -46 0
-55 -60 0
-46 -60 0
61 29 62 0
-61 -29 0
-61 -62 0
-29 -62 0
25 13 42 0
-25 -13 0
-25 -42 0
-13 -42 0
26 42 44 0
-26 -42 0
-26 -44 0
-42 -44 0
47 27 4 0
-47 -27 0
-47 -4 0
-27 -4 0
23 56 19 0
-23 -56 0
-23 -19 0
-56 -19 0
49 59 65 0
-49 -59 0
-49 -65 0
-59 -65 0
67 28 16 0
-67 -28 0
-67 -16 0
-28 -16 0
7 55 38 0
-7 -55 0
-7 -38 0
-55 -38 0
23 64 21 0
-23 -64 0
-23 -21 0
-64 -21 0
27 19 37 0
-27 -19 0
-27 -37 0
-19 -37 0
65 51 30 0
-65 -51 0
-65 -30 0
-51 -30 0
31 70 23 0
-31 -70 0
-31 -23 0
-70 -23 0
50 26 16 0
-50 -26 0
-50 -16 0
-26 -16 0
52 33 21 0
-52 -33 0
-52 -21 0
-33 -21 0
29 8 50 0
-29 -8 0
-29 -50 0
-8 -50 0
27 52 42 0
-27 -52 0
-27 -42 0
-52 -42 0
