c family=3-COL n=12 instance=7 seed=145502016 models=12
c order 12 2 6 5 7 9 11 4 3 8 1 10
c order 8 12 11 2 7 10 9 5 3 1 4 6
c order 7 9 12 1 10 3 6 8 11 2 5 4
c order 3 5 8 7 1 11 6 9 2 4 10 12
c order 11 1 2 5 9 8 6 10 7 3 12 4
c order 10 5 12 8 3 4 6 9 11 2 7 1
c order 7 5 8 1 12 6 9 3 2 11 4 10
c order 7 4 1 10 3 5 11 2 9 12 6 8
c order 6 3 11 2 10 1 8 5 12 7 9 4
c order 8 3 5 4 11 6 7 10 9 12 1 2
p cnf 12 33
-1 -2 0
-3 -4 0
-5 -6 0
-7 -8 0
-9 -10 0
-11 -12 0
1 2 5 6 0
-1 2 -5 6 0
1 -2 5 -6 0
1 2 7 8 0
-1 2 -7 8 0
1 -2 7 -8 0
3 4 5 6 0
-3 4 -5 6 0
3 -4 5 -6 0
3 4 7 8 0
-3 4 -7 8 0
3 -4 7 -8 0
3 4 9 10 0
-3 4 -9 10 0
3 -4 9 -10 0
5 6 7 8 0
-5 6 -7 8 0
5 -6 7 -8 0
5 6 11 12 0
-5 6 -11 12 0
5 -6 11 -12 0
7 8 9 10 0
-7 8 -9 10 0
7 -8 9 -10 0
9 10 11 12 0
-9 10 -11 12 0
9 -10 11 -12 0
