c family=3-COL n=12 instance=1 seed=145502016 models=12
c order 8 5 11 4 3 10 9 1 6 7 2 12
c order 1 7 9 12 4 3 2 8 6 10 5 11
c order 2 3 5 12 4 1 8 10 6 11 9 7
c order 5 6 7 4 8 3 2 1 11 10 12 9
c order 9 10 2 7 1 8 3 5 11 6 12 4
c order 7 10 4 2 8 3 12 9 1 11 6 5
c order 6 4 1 2 7 8 9 5 3 12 10 11
c order 4 6 3 2 7 10 12 8 9 5 1 11
c order 2 1 7 5 6 3 12 4 8 11 9 10
c order 2 11 3 4 9 8 10 12 1 7 6 5
p cnf 12 33
-1 -2 0
-3 -4 0
-5 -6 0
-7 -8 0
-9 -10 0
-11 -12 0
1 2 3 4 0
-1 2 -3 4 0
1 -2 3 -4 0
1 2 9 10 0
-1 2 -9 10 0
1 -2 9 -10 0
1 2 11 12 0
-1 2 -11 12 0
1 -2 11 -12 0
3 4 5 6 0
-3 4 -5 6 0
3 -4 5 -6 0
3 4 7 8 0
-3 4 -7 8 0
3 -4 7 -8 0
3 4 9 10 0
-3 4 -9 10 0
3 -4 9 -10 0
5 6 9 10 0
-5 6 -9 10 0
5 -6 9 -10 0
5 6 11 12 0
-5 6 -11 12 0
5 -6 11 -12 0
7 8 9 10 0
-7 8 -9 10 0
7 -8 9 -10 0
