c family=3-COL n=12 instance=0 seed=145502016 models=12
c order 7 9 5 8 10 4 6 11 2 3 12 1
c order 10 12 9 11 7 8 2 3 6 5 1 4
c order 7 1 5 8 9 2 12 11 3 6 10 4
c order 8 6 11 12 1 3 9 5 2 7 4 10
c order 10 9 8 4 5 6 1 3 2 11 12 7
c order 12 1 10 2 4 7 9 11 5 3 8 6
c order 6 10 1 11 8 5 9 2 4 7 12 3
c order 6 5 3 2 10 11 8 12 1 7 4 9
c order 10 6 4 7 8 12 5 11 9 2 1 3
c order 8 10 9 12 7 1 5 4 6 11 3 2
p cnf 12 33
-1 -2 0
-3 -4 0
-5 -6 0
-7 -8 0
-9 -10 0
-11 -12 0
1 2 5 6 0
-1 2 -5 6 0
1 -2 5 -6 0
1 2 7 8 0
-1 2 -7 8 0
1 -2 7 -8 0
1 2 9 10 0
-1 2 -9 10 0
1 -2 9 -10 0
1 2 11 12 0
-1 2 -11 12 0
1 -2 11 -12 0
3 4 5 6 0
-3 4 -5 6 0
3 -4 5 -6 0
3 4 7 8 0
-3 4 -7 8 0
3 -4 7 -8 0
3 4 9 10 0
-3 4 -9 10 0
3 -4 9 -10 0
7 8 9 10 0
-7 8 -9 10 0
7 -8 9 -10 0
9 10 11 12 0
-9 10 -11 12 0
9 -10 11 -12 0
