c family=3-COL n=12 instance=5 seed=145502016 models=6
c order 8 6 1 7 2 4 11 10 3 5 9 12
c order 12 2 4 11 9 8 1 10 7 6 3 5
c order 8 2 11 7 1 12 3 9 10 4 6 5
c order 9 10 1 7 8 4 11 3 12 5 6 2
c order 8 7 5 3 1 2 6 12 11 10 9 4
c order 12 7 9 10 11 4 1 3 6 2 8 5
c order 4 5 3 2 1 11 9 12 7 6 8 10
c order 4 5 3 12 8 6 10 11 9 2 1 7
c order 4 8 6 5 12 9 10 1 2 11 7 3
c order 4 2 5 12 6 1 9 11 7 8 3 10
p cnf 12 33
-1 -2 0
-3 -4 0
-5 -6 0
-7 -8 0
-9 -10 0
-11 -12 0
1 2 3 4 0
-1 2 -3 4 0
1 -2 3 -4 0
1 2 5 6 0
-1 2 -5 6 0
1 -2 5 -6 0
1 2 7 8 0
-1 2 -7 8 0
1 -2 7 -8 0
1 2 11 12 0
-1 2 -11 12 0
1 -2 11 -12 0
3 4 7 8 0
-3 4 -7 8 0
3 -4 7 -8 0
3 4 9 10 0
-3 4 -9 10 0
3 -4 9 -10 0
5 6 7 8 0
-5 6 -7 8 0
5 -6 7 -8 0
7 8 9 10 0
-7 8 -9 10 0
7 -8 9 -10 0
7 8 11 12 0
-7 8 -11 12 0
7 -8 11 -12 0
