c family=3-COL n=12 instance=8 seed=145502016 models=6
c order 1 2 11 5 4 8 3 9 12 10 6 7
c order 11 6 4 2 7 12 1 5 9 10 3 8
c order 1 4 9 8 3 11 12 2 5 6 10 7
c order 12 6 7 3 10 9 5 8 2 4 11 1
c order 6 12 1 2 7 3 8 9 11 10 5 4
c order 6 3 12 11 4 5 1 9 7 8 10 2
c order 4 10 8 7 2 11 5 3 6 12 1 9
c order 5 12 1 6 8 11 7 2 3 10 4 9
c order 8 6 10 7 2 4 11 12 9 3 5 1
c order 7 9 12 3 1 4 11 10 5 2 8 6
p cnf 12 33
-1 -2 0
-3 -4 0
-5 -6 0
-7 -8 0
-9 -10 0
-11 -12 0
1 2 5 6 0
-1 2 -5 6 0
1 -2 5 -6 0
1 2 7 8 0
-1 2 -7 8 0
1 -2 7 -8 0
3 4 5 6 0
-3 4 -5 6 0
3 -4 5 -6 0
3 4 7 8 0
-3 4 -7 8 0
3 -4 7 -8 0
3 4 11 12 0
-3 4 -11 12 0
3 -4 11 -12 0
5 6 7 8 0
-5 6 -7 8 0
5 -6 7 -8 0
5 6 9 10 0
-5 6 -9 10 0
5 -6 9 -10 0
5 6 11 12 0
-5 6 -11 12 0
5 -6 11 -12 0
9 10 11 12 0
-9 10 -11 12 0
9 -10 11 -12 0
