c family=3-COL n=12 instance=4 seed=145502016 models=12
c order 12 11 10 2 3 8 4 5 7 1 9 6
c order 7 4 5 6 11 12 10 8 9 2 3 1
c order 9 5 8 10 11 2 12 1 4 3 6 7
c order 4 7 10 8 3 11 5 1 12 9 6 2
c order 7 11 5 6 3 10 2 1 4 9 8 12
c order 6 8 1 5 9 3 2 12 7 4 11 10
c order 6 11 1 12 2 10 5 9 4 3 7 8
c order 2 9 12 8 10 4 7 5 3 6 11 1
c order 4 11 6 2 12 7 5 1 9 8 3 10
c order 2 10 6 4 5 3 11 9 8 7 1 12
p cnf 12 33
-1 -2 0
-3 -4 0
-5 -6 0
-7 -8 0
-9 -10 0
-11 -12 0
1 2 3 4 0
-1 2 -3 4 0
1 -2 3 -4 0
1 2 5 6 0
-1 2 -5 6 0
1 -2 5 -6 0
3 4 5 6 0
-3 4 -5 6 0
3 -4 5 -6 0
3 4 9 10 0
-3 4 -9 10 0
3 -4 9 -10 0
3 4 11 12 0
-3 4 -11 12 0
3 -4 11 -12 0
5 6 7 8 0
-5 6 -7 8 0
5 -6 7 -8 0
5 6 11 12 0
-5 6 -11 12 0
5 -6 11 -12 0
7 8 9 10 0
-7 8 -9 10 0
7 -8 9 -10 0
9 10 11 12 0
-9 10 -11 12 0
9 -10 11 -12 0
