c family=3-COL n=12 instance=6 seed=145502016 models=18
c order 11 4 2 1 12 10 5 7 3 6 8 9
c order 2 8 5 9 4 12 7 11 6 10 3 1
c order 8 7 2 6 1 3 5 9 10 4 11 12
c order 7 3 9 11 8 10 4 6 12 5 2 1
c order 1 3 9 8 6 2 5 7 12 11 4 10
c order 8 10 11 2 5 1 9 6 3 7 4 12
c order 12 6 9 5 10 3 1 11 2 7 8 4
c order 6 7 5 11 9 10 12 2 4 1 3 8
c order 1 9 8 5 6 3 7 2 10 12 11 4
c order 7 12 1 3 9 11 2 8 6 5 10 4
p cnf 12 33
-1 -2 0
-3 -4 0
-5 -6 0
-7 -8 0
-9 -10 0
-11 -12 0
1 2 3 4 0
-1 2 -3 4 0
1 -2 3 -4 0
1 2 5 6 0
-1 2 -5 6 0
1 -2 5 -6 0
1 2 11 12 0
-1 2 -11 12 0
1 -2 11 -12 0
3 4 5 6 0
-3 4 -5 6 0
3 -4 5 -6 0
3 4 9 10 0
-3 4 -9 10 0
3 -4 9 -10 0
5 6 7 8 0
-5 6 -7 8 0
5 -6 7 -8 0
5 6 9 10 0
-5 6 -9 10 0
5 -6 9 -10 0
7 8 11 12 0
-7 8 -11 12 0
7 -8 11 -12 0
9 10 11 12 0
-9 10 -11 12 0
9 -10 11 -12 0
