c family=3-COL n=12 instance=9 seed=145502016 models=12
c order 5 4 9 8 10 7 3 12 1 2 11 6
c order 11 1 12 8 10 9 3 5 6 2 7 4
c order 10 8 3 5 2 1 9 6 12 4 7 11
c order 6 11 4 7 5 9 2 10 12 8 3 1
c order 1 4 8 5 3 2 11 6 12 9 10 7
c order 9 8 2 6 5 1 10 12 3 11 7 4
c order 2 9 7 5 8 4 3 12 1 10 11 6
c order 1 4 2 8 11 9 7 12 3 5 6 10
c order 7 5 12 9 3 2 8 4 10 11 6 1
c order 4 1 5 7 2 9 8 11 10 3 12 6
p cnf 12 33
-1 -2 0
-3 -4 0
-5 -6 0
-7 -8 0
-9 -10 0
-11 -12 0
1 2 3 4 0
-1 2 -3 4 0
1 -2 3 -4 0
1 2 7 8 0
-1 2 -7 8 0
1 -2 7 -8 0
1 2 9 10 0
-1 2 -9 10 0
1 -2 9 -10 0
1 2 11 12 0
-1 2 -11 12 0
1 -2 11 -12 0
3 4 5 6 0
-3 4 -5 6 0
3 -4 5 -6 0
3 4 9 10 0
-3 4 -9 10 0
3 -4 9 -10 0
5 6 7 8 0
-5 6 -7 8 0
5 -6 7 -8 0
5 6 9 10 0
-5 6 -9 10 0
5 -6 9 -10 0
7 8 9 10 0
-7 8 -9 10 0
7 -8 9 -10 0
