c family=3-COL n=12 instance=3 seed=145502016 models=18
c order 11 2 4 9 8 10 7 6 1 3 12 5
c order 8 3 11 12 1 2 6 4 10 7 5 9
c order 10 12 7 8 3 1 2 11 6 9 5 4
c order 3 1 4 5 9 10 11 7 8 6 2 12
c order 12 9 7 3 8 1 11 4 10 6 2 5
c order 6 5 12 10 7 2 1 4 9 8 3 11
c order 3 7 1 6 4 10 11 5 9 12 2 8
c order 7 5 10 2 8 1 3 4 9 11 12 6
c order 4 8 7 2 12 1 3 10 9 6 5 11
c order 7 1 6 12 10 3 4 11 2 8 9 5
p cnf 12 33
-1 -2 0
-3 -4 0
-5 -6 0
-7 -8 0
-9 -10 0
-11 -12 0
1 2 7 8 0
-1 2 -7 8 0
1 -2 7 -8 0
1 2 9 10 0
-1 2 -9 10 0
1 -2 9 -10 0
3 4 7 8 0
-3 4 -7 8 0
3 -4 7 -8 0
3 4 9 10 0
-3 4 -9 10 0
3 -4 9 -10 0
3 4 11 12 0
-3 4 -11 12 0
3 -4 11 -12 0
5 6 7 8 0
-5 6 -7 8 0
5 -6 7 -8 0
5 6 9 10 0
-5 6 -9 10 0
5 -6 9 -10 0
5 6 11 12 0
-5 6 -11 12 0
5 -6 11 -12 0
9 10 11 12 0
-9 10 -11 12 0
9 -10 11 -12 0
