c family=3-COL n=12 instance=2 seed=145502016 models=12
c order 10 4 9 12 6 11 3 2 7 5 1 8
c order 6 5 12 8 2 3 7 11 4 1 9 10
c order 5 12 1 7 9 8 2 11 10 6 4 3
c order 11 12 5 2 6 8 9 1 4 7 3 10
c order 9 3 12 10 5 2 6 4 7 8 1 11
c order 10 11 7 12 8 6 3 1 2 5 4 9
c order 3 1 8 12 4 9 7 10 2 5 11 6
c order 3 6 5 12 4 10 1 2 7 9 11 8
c order 12 8 3 1 6 7 11 4 5 10 9 2
c order 3 7 6 10 12 9 5 8 4 11 1 2
p cnf 12 33
-1 -2 0
-3 -4 0
-5 -6 0
-7 -8 0
-9 -10 0
-11 -12 0
1 2 5 6 0
-1 2 -5 6 0
1 -2 5 -6 0
1 2 7 8 0
-1 2 -7 8 0
1 -2 7 -8 0
1 2 11 12 0
-1 2 -11 12 0
1 -2 11 -12 0
3 4 5 6 0
-3 4 -5 6 0
3 -4 5 -6 0
3 4 7 8 0
-3 4 -7 8 0
3 -4 7 -8 0
3 4 11 12 0
-3 4 -11 12 0
3 -4 11 -12 0
5 6 7 8 0
-5 6 -7 8 0
5 -6 7 -8 0
5 6 11 12 0
-5 6 -11 12 0
5 -6 11 -12 0
7 8 9 10 0
-7 8 -9 10 0
7 -8 9 -10 0
