c family=3-COL n=18 instance=5 seed=145502016 models=42
c order 5 17 14 8 2 16 9 6 18 15 7 3 10 13 11 1 12 4
c order 3 7 4 2 8 6 16 5 17 11 1 10 9 15 13 18 14 12
c order 12 2 5 16 13 10 8 6 4 9 3 7 11 17 18 1 15 14
c order 17 5 1 13 9 11 6 8 7 4 2 10 18 14 15 16 12 3
c order 12 10 2 7 13 5 16 1 4 11 17 18 3 8 14 15 9 6
c order 11 17 13 2 15 9 3 18 4 10 1 6 16 14 5 12 8 7
c order 8 5 14 4 6 2 1 10 13 12 3 18 15 16 7 17 9 11
c order 8 16 3 18 5 6 10 2 1 4 17 13 12 7 11 15 14 9
c order 17 3 10 15 13 6 4 8 11 12 1 5 9 2 7 18 16 14
c order 4 5 9 13 15 6 8 10 17 14 2 7 18 1 11 12 16 3
p cnf 18 51
-1 -2 0
-3 -4 0
-5 -6 0
-7 -8 0
-9 -10 0
-11 -12 0
-13 -14 0
-15 -16 0
-17 -18 0
1 2 9 10 0
-1 2 -9 10 0
1 -2 9 -10 0
1 2 11 12 0
-1 2 -11 12 0
1 -2 11 -12 0
1 2 13 14 0
-1 2 -13 14 0
1 -2 13 -14 0
3 4 9 10 0
-3 4 -9 10 0
3 -4 9 -10 0
3 4 11 12 0
-3 4 -11 12 0
3 -4 11 -12 0
3 4 15 16 0
-3 4 -15 16 0
3 -4 15 -16 0
5 6 9 10 0
-5 6 -9 10 0
5 -6 9 -10 0
5 6 17 18 0
-5 6 -17 18 0
5 -6 17 -18 0
7 8 9 10 0
-7 8 -9 10 0
7 -8 9 -10 0
7 8 15 16 0
-7 8 -15 16 0
7 -8 15 -16 0
9 10 13 14 0
-9 10 -13 14 0
9 -10 13 -14 0
9 10 17 18 0
-9 10 -17 18 0
9 -10 17 -18 0
13 14 15 16 0
-13 14 -15 16 0
13 -14 15 -16 0
13 14 17 18 0
-13 14 -17 18 0
13 -14 17 -18 0
