c family=3-COL n=18 instance=2 seed=145502016 models=12
c order 18 14 1 16 12 10 6 5 9 11 7 4 8 13 17 2 15 3
c order 6 17 12 18 9 15 5 11 10 16 14 1 13 7 8 4 3 2
c order 15 3 5 1 4 9 18 13 11 14 6 17 16 12 8 2 7 10
c order 5 9 2 7 12 6 13 4 17 1 15 18 16 3 11 10 8 14
c order 7 18 8 6 17 10 11 3 16 5 14 15 1 12 9 13 2 4
c order 6 13 15 10 14 7 16 17 12 9 5 18 8 3 2 1 11 4
c order 4 6 12 13 18 5 1 7 16 8 17 2 11 3 10 15 9 14
c order 12 9 6 11 4 10 14 3 18 8 17 5 13 2 15 1 7 16
c order 7 10 12 1 8 9 16 11 13 4 5 3 17 14 2 15 18 6
c order 14 13 4 5 12 8 3 15 1 18 9 2 6 17 16 7 11 10
p cnf 18 51
-1 -2 0
-3 -4 0
-5 -6 0
-7 -8 0
-9 -10 0
-11 -12 0
-13 -14 0
-15 -16 0
-17 -18 0
1 2 3 4 0
-1 2 -3 4 0
1 -2 3 -4 0
1 2 5 6 0
-1 2 -5 6 0
1 -2 5 -6 0
1 2 11 12 0
-1 2 -11 12 0
1 -2 11 -12 0
1 2 17 18 0
-1 2 -17 18 0
1 -2 17 -18 0
3 4 5 6 0
-3 4 -5 6 0
3 -4 5 -6 0
3 4 7 8 0
-3 4 -7 8 0
3 -4 7 -8 0
3 4 9 10 0
-3 4 -9 10 0
3 -4 9 -10 0
3 4 15 16 0
-3 4 -15 16 0
3 -4 15 -16 0
5 6 9 10 0
-5 6 -9 10 0
5 -6 9 -10 0
9 10 13 14 0
-9 10 -13 14 0
9 -10 13 -14 0
9 10 15 16 0
-9 10 -15 16 0
9 -10 15 -16 0
11 12 17 18 0
-11 12 -17 18 0
11 -12 17 -18 0
13 14 15 16 0
-13 14 -15 16 0
13 -14 15 -16 0
15 16 17 18 0
-15 16 -17 18 0
15 -16 17 -18 0
