c family=3-COL n=18 instance=8 seed=145502016 models=24
c order 10 12 8 3 9 4 2 5 11 13 1 16 18 14 15 17 6 7
c order 17 3 11 1 4 7 12 6 14 8 15 10 18 16 9 13 5 2
c order 14 10 18 5 15 7 17 12 16 9 4 6 1 8 11 13 3 2
c order 8 10 13 14 4 17 3 12 7 9 6 11 16 18 5 1 2 15
c order 6 1 13 17 15 14 7 12 9 18 16 3 10 2 8 4 11 5
c order 4 15 10 2 1 7 11 14 17 3 13 9 6 16 5 12 8 18
c order 8 14 17 13 2 16 18 1 4 9 5 12 10 11 15 6 7 3
c order 15 11 5 9 1 2 8 7 13 18 12 17 16 14 10 6 3 4
c order 14 15 5 9 18 4 13 1 11 7 10 2 12 17 3 16 8 6
c order 2 3 9 12 10 5 1 7 14 18 17 16 4 6 13 15 11 8
p cnf 18 51
-1 -2 0
-3 -4 0
-5 -6 0
-7 -8 0
-9 -10 0
-11 -12 0
-13 -14 0
-15 -16 0
-17 -18 0
1 2 5 6 0
-1 2 -5 6 0
1 -2 5 -6 0
1 2 13 14 0
-1 2 -13 14 0
1 -2 13 -14 0
1 2 15 16 0
-1 2 -15 16 0
1 -2 15 -16 0
3 4 9 10 0
-3 4 -9 10 0
3 -4 9 -10 0
3 4 11 12 0
-3 4 -11 12 0
3 -4 11 -12 0
3 4 15 16 0
-3 4 -15 16 0
3 -4 15 -16 0
5 6 7 8 0
-5 6 -7 8 0
5 -6 7 -8 0
5 6 9 10 0
-5 6 -9 10 0
5 -6 9 -10 0
5 6 13 14 0
-5 6 -13 14 0
5 -6 13 -14 0
5 6 17 18 0
-5 6 -17 18 0
5 -6 17 -18 0
7 8 11 12 0
-7 8 -11 12 0
7 -8 11 -12 0
9 10 11 12 0
-9 10 -11 12 0
9 -10 11 -12 0
9 10 17 18 0
-9 10 -17 18 0
9 -10 17 -18 0
13 14 15 16 0
-13 14 -15 16 0
13 -14 15 -16 0
