c family=3-COL n=18 instance=4 seed=145502016 models=36
c order 5 11 17 9 1 3 14 6 2 13 18 8 12 4 10 15 16 7
c order 10 18 5 1 17 6 9 13 14 8 3 12 7 2 11 16 15 4
c order 1 2 8 3 5 17 18 14 7 4 11 12 9 15 6 13 10 16
c order 8 5 11 7 13 15 1 18 14 2 4 3 10 9 12 6 16 17
c order 5 17 9 1 3 7 18 16 13 8 10 12 6 11 4 2 15 14
c order 13 17 10 9 18 12 8 16 7 14 3 2 5 4 6 11 1 15
c order 8 12 1 5 6 11 4 18 7 13 15 14 10 9 16 17 3 2
c order 9 4 14 10 3 15 8 13 7 5 1 6 18 12 17 2 11 16
c order 16 13 8 11 17 6 12 1 2 14 15 4 3 7 10 18 5 9
c order 6 5 3 8 11 12 13 17 10 1 7 16 15 2 4 9 14 18
p cnf 18 51
-1 -2 0
-3 -4 0
-5 -6 0
-7 -8 0
-9 -10 0
-11 -12 0
-13 -14 0
-15 -16 0
-17 -18 0
1 2 3 4 0
-1 2 -3 4 0
1 -2 3 -4 0
1 2 9 10 0
-1 2 -9 10 0
1 -2 9 -10 0
1 2 11 12 0
-1 2 -11 12 0
1 -2 11 -12 0
1 2 17 18 0
-1 2 -17 18 0
1 -2 17 -18 0
3 4 5 6 0
-3 4 -5 6 0
3 -4 5 -6 0
3 4 9 10 0
-3 4 -9 10 0
3 -4 9 -10 0
5 6 9 10 0
-5 6 -9 10 0
5 -6 9 -10 0
7 8 9 10 0
-7 8 -9 10 0
7 -8 9 -10 0
9 10 13 14 0
-9 10 -13 14 0
9 -10 13 -14 0
9 10 15 16 0
-9 10 -15 16 0
9 -10 15 -16 0
9 10 17 18 0
-9 10 -17 18 0
9 -10 17 -18 0
11 12 13 14 0
-11 12 -13 14 0
11 -12 13 -14 0
11 12 15 16 0
-11 12 -15 16 0
11 -12 15 -16 0
13 14 17 18 0
-13 14 -17 18 0
13 -14 17 -18 0
