c family=3-COL n=18 instance=7 seed=145502016 models=12
c order 9 16 10 13 7 14 18 6 15 11 2 5 1 12 8 17 3 4
c order 11 17 15 5 2 7 6 3 10 1 4 9 13 18 14 12 16 8
c order 1 2 5 11 6 15 12 4 14 9 13 17 18 10 16 8 7 3
c order 17 16 9 7 14 10 5 12 6 8 18 3 1 2 4 15 11 13
c order 12 9 1 16 14 8 13 2 15 7 5 18 3 17 6 11 4 10
c order 1 3 10 6 5 16 17 12 13 11 7 4 15 14 18 9 2 8
c order 18 10 15 9 17 14 6 4 12 7 16 3 13 1 11 5 2 8
c order 1 17 14 5 6 16 3 15 4 10 12 11 2 8 7 13 9 18
c order 15 3 7 5 8 18 11 6 4 13 16 14 12 17 10 2 9 1
c order 3 13 10 2 11 18 8 17 4 12 1 5 15 16 14 9 6 7
p cnf 18 51
-1 -2 0
-3 -4 0
-5 -6 0
-7 -8 0
-9 -10 0
-11 -12 0
-13 -14 0
-15 -16 0
-17 -18 0
1 2 5 6 0
-1 2 -5 6 0
1 -2 5 -6 0
1 2 9 10 0
-1 2 -9 10 0
1 -2 9 -10 0
1 2 17 18 0
-1 2 -17 18 0
1 -2 17 -18 0
3 4 15 16 0
-3 4 -15 16 0
3 -4 15 -16 0
5 6 13 14 0
-5 6 -13 14 0
5 -6 13 -14 0
5 6 15 16 0
-5 6 -15 16 0
5 -6 15 -16 0
7 8 9 10 0
-7 8 -9 10 0
7 -8 9 -10 0
7 8 11 12 0
-7 8 -11 12 0
7 -8 11 -12 0
7 8 15 16 0
-7 8 -15 16 0
7 -8 15 -16 0
7 8 17 18 0
-7 8 -17 18 0
7 -8 17 -18 0
9 10 11 12 0
-9 10 -11 12 0
9 -10 11 -12 0
9 10 13 14 0
-9 10 -13 14 0
9 -10 13 -14 0
9 10 17 18 0
-9 10 -17 18 0
9 -10 17 -18 0
15 16 17 18 0
-15 16 -17 18 0
15 -16 17 -18 0
