c family=3-COL n=18 instance=3 seed=145502016 models=36
c order 14 17 13 12 7 4 6 15 1 16 10 5 9 18 3 8 2 11
c order 7 12 17 6 5 18 16 1 15 9 13 14 4 10 8 3 2 11
c order 17 14 12 8 16 13 3 1 4 2 15 9 6 7 10 18 11 5
c order 10 1 5 18 7 16 6 12 9 11 2 13 3 4 17 15 14 8
c order 18 13 2 14 11 6 17 8 12 16 9 4 15 5 1 7 3 10
c order 9 4 1 2 12 16 7 3 14 8 13 5 17 15 18 10 11 6
c order 8 10 16 1 14 3 18 9 11 4 2 17 7 15 12 13 6 5
c order 2 9 15 16 7 8 12 13 17 10 3 1 11 6 18 4 5 14
c order 9 10 1 11 13 6 17 14 8 2 16 4 7 18 5 12 15 3
c order 16 14 6 5 17 7 1 9 11 12 13 15 18 3 8 10 4 2
p cnf 18 51
-1 -2 0
-3 -4 0
-5 -6 0
-7 -8 0
-9 -10 0
-11 -12 0
-13 -14 0
-15 -16 0
-17 -18 0
1 2 5 6 0
-1 2 -5 6 0
1 -2 5 -6 0
1 2 7 8 0
-1 2 -7 8 0
1 -2 7 -8 0
1 2 13 14 0
-1 2 -13 14 0
1 -2 13 -14 0
1 2 17 18 0
-1 2 -17 18 0
1 -2 17 -18 0
3 4 11 12 0
-3 4 -11 12 0
3 -4 11 -12 0
3 4 15 16 0
-3 4 -15 16 0
3 -4 15 -16 0
3 4 17 18 0
-3 4 -17 18 0
3 -4 17 -18 0
5 6 15 16 0
-5 6 -15 16 0
5 -6 15 -16 0
5 6 17 18 0
-5 6 -17 18 0
5 -6 17 -18 0
7 8 17 18 0
-7 8 -17 18 0
7 -8 17 -18 0
9 10 11 12 0
-9 10 -11 12 0
9 -10 11 -12 0
9 10 15 16 0
-9 10 -15 16 0
9 -10 15 -16 0
9 10 17 18 0
-9 10 -17 18 0
9 -10 17 -18 0
11 12 15 16 0
-11 12 -15 16 0
11 -12 15 -16 0
