c family=3-COL n=18 instance=6 seed=145502016 models=72
c order 12 8 3 15 7 17 10 18 6 11 9 5 1 14 13 4 16 2
c order 17 1 4 15 18 6 10 13 11 14 5 7 3 9 12 16 8 2
c order 1 18 15 11 10 17 2 8 6 13 14 16 9 4 7 5 12 3
c order 14 1 10 15 8 17 18 7 3 6 2 4 11 5 16 12 13 9
c order 4 13 15 6 14 9 11 12 8 18 17 2 16 7 10 1 5 3
c order 10 5 15 14 1 3 6 18 12 13 17 4 9 11 2 7 8 16
c order 14 8 17 11 13 18 12 7 16 4 6 1 15 9 5 2 10 3
c order 13 4 5 1 17 7 8 18 15 10 16 12 2 3 6 11 14 9
c order 7 4 18 2 9 6 15 1 10 16 12 3 13 5 14 8 17 11
c order 17 9 14 18 10 4 11 1 8 15 2 3 13 6 7 5 12 16
p cnf 18 51
-1 -2 0
-3 -4 0
-5 -6 0
-7 -8 0
-9 -10 0
-11 -12 0
-13 -14 0
-15 -16 0
-17 -18 0
1 2 3 4 0
-1 2 -3 4 0
1 -2 3 -4 0
1 2 5 6 0
-1 2 -5 6 0
1 -2 5 -6 0
1 2 11 12 0
-1 2 -11 12 0
1 -2 11 -12 0
3 4 9 10 0
-3 4 -9 10 0
3 -4 9 -10 0
5 6 7 8 0
-5 6 -7 8 0
5 -6 7 -8 0
5 6 9 10 0
-5 6 -9 10 0
5 -6 9 -10 0
5 6 15 16 0
-5 6 -15 16 0
5 -6 15 -16 0
7 8 11 12 0
-7 8 -11 12 0
7 -8 11 -12 0
7 8 13 14 0
-7 8 -13 14 0
7 -8 13 -14 0
7 8 17 18 0
-7 8 -17 18 0
7 -8 17 -18 0
9 10 11 12 0
-9 10 -11 12 0
9 -10 11 -12 0
9 10 15 16 0
-9 10 -15 16 0
9 -10 15 -16 0
11 12 13 14 0
-11 12 -13 14 0
11 -12 13 -14 0
11 12 15 16 0
-11 12 -15 16 0
11 -12 15 -16 0
