c family=3-COL n=18 instance=9 seed=145502016 models=24
c order 16 2 8 9 13 18 3 12 10 5 7 14 17 4 1 6 11 15
c order 17 10 8 3 1 7 4 5 11 15 9 14 16 6 13 18 12 2
c order 18 2 3 13 12 11 10 4 14 17 15 9 1 7 8 16 6 5
c order 17 12 18 1 5 6 4 8 14 7 11 3 16 15 9 13 10 2
c order 5 17 10 4 12 3 11 18 14 16 2 6 9 13 1 15 8 7
c order 16 2 6 9 17 11 1 14 8 3 13 10 15 4 18 7 5 12
c order 10 8 4 1 2 13 14 17 16 11 7 6 3 9 5 18 12 15
c order 18 6 7 3 8 5 2 13 1 10 14 4 17 12 15 16 11 9
c order 12 8 15 9 7 11 16 4 1 2 6 17 10 3 13 18 5 14
c order 3 17 16 9 18 2 13 11 6 4 7 15 10 12 1 8 14 5
p cnf 18 51
-1 -2 0
-3 -4 0
-5 -6 0
-7 -8 0
-9 -10 0
-11 -12 0
-13 -14 0
-15 -16 0
-17 -18 0
1 2 5 6 0
-1 2 -5 6 0
1 -2 5 -6 0
1 2 7 8 0
-1 2 -7 8 0
1 -2 7 -8 0
1 2 15 16 0
-1 2 -15 16 0
1 -2 15 -16 0
3 4 17 18 0
-3 4 -17 18 0
3 -4 17 -18 0
5 6 7 8 0
-5 6 -7 8 0
5 -6 7 -8 0
5 6 13 14 0
-5 6 -13 14 0
5 -6 13 -14 0
7 8 15 16 0
-7 8 -15 16 0
7 -8 15 -16 0
9 10 11 12 0
-9 10 -11 12 0
9 -10 11 -12 0
9 10 15 16 0
-9 10 -15 16 0
9 -10 15 -16 0
9 10 17 18 0
-9 10 -17 18 0
9 -10 17 -18 0
11 12 13 14 0
-11 12 -13 14 0
11 -12 13 -14 0
11 12 15 16 0
-11 12 -15 16 0
11 -12 15 -16 0
11 12 17 18 0
-11 12 -17 18 0
11 -12 17 -18 0
13 14 17 18 0
-13 14 -17 18 0
13 -14 17 -18 0
