c family=3-COL n=18 instance=1 seed=145502016 models=60
c order 15 5 8 3 6 13 12 2 7 9 4 16 11 1 10 18 14 17
c order 8 10 6 18 16 12 2 3 4 11 14 5 9 7 13 17 15 1
c order 1 15 13 6 8 14 10 17 16 2 7 5 3 9 12 11 4 18
c order 14 1 4 8 17 5 11 9 18 2 7 16 10 12 13 3 6 15
c order 5 12 2 10 6 15 14 11 9 3 1 18 8 4 16 17 7 13
c order 6 10 13 2 5 12 18 4 1 16 7 14 15 17 11 3 8 9
c order 13 18 7 16 6 10 5 11 1 12 14 17 3 8 15 9 4 2
c order 6 17 10 5 2 1 14 9 13 7 16 15 8 12 3 4 18 11
c order 2 10 1 17 9 15 18 16 7 8 12 14 5 4 6 3 11 13
c order 6 14 3 4 5 7 12 1 18 8 17 13 16 2 10 11 9 15
p cnf 18 51
-1 -2 0
-3 -4 0
-5 -6 0
-7 -8 0
-9 -10 0
-11 -12 0
-13 -14 0
-15 -16 0
-17 -18 0
1 2 5 6 0
-1 2 -5 6 0
1 -2 5 -6 0
1 2 15 16 0
-1 2 -15 16 0
1 -2 15 -16 0
3 4 5 6 0
-3 4 -5 6 0
3 -4 5 -6 0
3 4 9 10 0
-3 4 -9 10 0
3 -4 9 -10 0
3 4 13 14 0
-3 4 -13 14 0
3 -4 13 -14 0
3 4 17 18 0
-3 4 -17 18 0
3 -4 17 -18 0
5 6 9 10 0
-5 6 -9 10 0
5 -6 9 -10 0
5 6 13 14 0
-5 6 -13 14 0
5 -6 13 -14 0
7 8 11 12 0
-7 8 -11 12 0
7 -8 11 -12 0
7 8 13 14 0
-7 8 -13 14 0
7 -8 13 -14 0
7 8 15 16 0
-7 8 -15 16 0
7 -8 15 -16 0
7 8 17 18 0
-7 8 -17 18 0
7 -8 17 -18 0
9 10 15 16 0
-9 10 -15 16 0
9 -10 15 -16 0
13 14 15 16 0
-13 14 -15 16 0
13 -14 15 -16 0
