c family=3-COL n=18 instance=0 seed=145502016 models=30
c order 7 18 9 4 15 11 8 5 16 17 6 14 2 3 13 10 12 1
c order 15 16 17 4 11 12 10 9 1 5 8 3 2 6 13 18 7 14
c order 12 18 4 16 8 5 10 2 15 9 14 1 3 13 17 11 6 7
c order 7 12 11 16 9 1 2 17 15 13 4 3 10 8 18 5 6 14
c order 18 5 8 10 9 15 2 13 3 4 6 14 17 12 7 16 11 1
c order 8 16 14 17 3 12 13 2 10 5 7 4 6 9 11 1 15 18
c order 10 9 7 1 18 2 13 3 15 14 12 6 4 16 8 5 17 11
c order 6 17 9 12 10 13 18 4 15 5 16 3 1 11 14 7 2 8
c order 7 4 5 16 6 8 1 18 3 15 11 10 17 13 12 9 14 2
c order 13 14 2 10 18 8 11 7 4 3 1 16 6 5 9 15 12 17
p cnf 18 51
-1 -2 0
-3 -4 0
-5 -6 0
-7 -8 0
-9 -10 0
-11 -12 0
-13 -14 0
-15 -16 0
-17 -18 0
1 2 7 8 0
-1 2 -7 8 0
1 -2 7 -8 0
1 2 15 16 0
-1 2 -15 16 0
1 -2 15 -16 0
1 2 17 18 0
-1 2 -17 18 0
1 -2 17 -18 0
3 4 7 8 0
-3 4 -7 8 0
3 -4 7 -8 0
3 4 9 10 0
-3 4 -9 10 0
3 -4 9 -10 0
3 4 13 14 0
-3 4 -13 14 0
3 -4 13 -14 0
5 6 9 10 0
-5 6 -9 10 0
5 -6 9 -10 0
5 6 15 16 0
-5 6 -15 16 0
5 -6 15 -16 0
5 6 17 18 0
-5 6 -17 18 0
5 -6 17 -18 0
7 8 15 16 0
-7 8 -15 16 0
7 -8 15 -16 0
9 10 15 16 0
-9 10 -15 16 0
9 -10 15 -16 0
11 12 13 14 0
-11 12 -13 14 0
11 -12 13 -14 0
11 12 15 16 0
-11 12 -15 16 0
11 -12 15 -16 0
15 16 17 18 0
-15 16 -17 18 0
15 -16 17 -18 0
