c family=3-COL n=24 instance=9 seed=145502016 models=24
c order 16 1 22 9 23 3 13 10 2 7 4 14 24 21 11 18 19 12 17 8 5 15 6 20
c order 23 9 15 19 4 24 16 13 2 11 20 21 12 3 18 7 22 8 5 6 1 17 14 10
c order 15 18 12 13 5 19 4 9 8 24 23 17 7 3 22 11 2 6 10 20 14 1 16 21
c order 8 11 7 4 9 14 13 6 10 18 21 12 16 22 3 23 1 17 24 2 20 15 5 19
c order 19 1 16 3 18 7 17 22 2 4 9 10 21 15 8 20 12 24 6 5 14 13 11 23
c order 13 24 5 2 4 10 20 9 3 16 14 19 23 17 15 6 8 11 18 12 7 1 22 21
c order 6 2 8 14 16 4 18 10 23 9 20 3 11 24 21 17 13 5 19 7 22 12 15 1
c order 3 19 11 1 10 9 12 4 17 15 20 2 14 18 8 16 24 7 23 13 6 21 5 22
c order 1 3 19 12 14 24 2 7 10 21 9 8 4 5 17 23 16 11 18 20 22 6 15 13
c order 16 17 5 8 4 20 14 11 9 2 7 1 15 21 10 23 18 13 12 19 6 24 22 3
p cnf 24 87
-1 -2 0
-3 -4 0
-5 -6 0
-7 -8 0
-9 -10 0
-11 -12 0
-13 -14 0
-15 -16 0
-17 -18 0
-19 -20 0
-21 -22 0
-23 -24 0
1 2 3 4 0
-1 2 -3 4 0
1 -2 3 -4 0
1 2 5 6 0
-1 2 -5 6 0
1 -2 5 -6 0
1 2 17 18 0
-1 2 -17 18 0
1 -2 17 -18 0
1 2 23 24 0
-1 2 -23 24 0
1 -2 23 -24 0
3 4 9 10 0
-3 4 -9 10 0
3 -4 9 -10 0
3 4 15 16 0
-3 4 -15 16 0
3 -4 15 -16 0
3 4 23 24 0
-3 4 -23 24 0
3 -4 23 -24 0
5 6 9 10 0
-5 6 -9 10 0
5 -6 9 -10 0
5 6 11 12 0
-5 6 -11 12 0
5 -6 11 -12 0
5 6 23 24 0
-5 6 -23 24 0
5 -6 23 -24 0
7 8 17 18 0
-7 8 -17 18 0
7 -8 17 -18 0
7 8 19 20 0
-7 8 -19 20 0
7 -8 19 -20 0
7 8 23 24 0
-7 8 -23 24 0
7 -8 23 -24 0
9 10 13 14 0
-9 10 -13 14 0
9 -10 13 -14 0
9 10 23 24 0
-9 10 -23 24 0
9 -10 23 -24 0
11 12 13 14 0
-11 12 -13 14 0
11 -12 13 -14 0
11 12 23 24 0
-11 12 -23 24 0
11 -12 23 -24 0
13 14 15 16 0
-13 14 -15 16 0
13 -14 15 -16 0
15 16 17 18 0
-15 16 -17 18 0
15 -16 17 -18 0
15 16 23 24 0
-15 16 -23 24 0
15 -16 23 -24 0
17 18 19 20 0
-17 18 -19 20 0
17 -18 19 -20 0
17 18 21 22 0
-17 18 -21 22 0
17 -18 21 -22 0
19 20 21 22 0
-19 20 -21 22 0
19 -20 21 -22 0
19 20 23 24 0
-19 20 -23 24 0
19 -20 23 -24 0
21 22 23 24 0
-21 22 -23 24 0
21 -22 23 -24 0
