c family=3-COL n=24 instance=4 seed=145502016 models=18
c order 19 24 13 17 6 20 8 9 5 15 16 1 7 10 12 3 23 18 21 11 14 22 2 4
c order 19 17 7 23 18 22 11 20 13 21 9 5 2 1 16 10 24 15 14 8 4 12 3 6
c order 5 16 11 15 2 19 24 1 3 8 23 6 7 18 22 9 17 14 21 12 20 4 13 10
c order 22 16 23 15 19 18 12 17 7 4 14 1 24 8 20 10 5 3 9 11 2 21 13 6
c order 14 23 15 4 7 5 17 16 3 8 9 13 24 20 1 6 11 12 19 22 2 10 18 21
c order 15 14 8 22 13 23 1 18 10 7 19 4 11 20 24 21 5 17 9 6 12 3 2 16
c order 9 1 22 17 10 21 3 7 19 4 23 13 12 15 18 24 6 8 20 16 5 11 2 14
c order 18 14 3 2 1 5 24 15 12 4 22 17 11 9 13 6 20 8 23 10 21 16 19 7
c order 9 10 7 11 17 20 4 15 13 1 14 22 23 12 3 16 5 6 24 18 2 21 19 8
c order 19 9 21 10 8 18 11 3 24 4 22 12 20 5 1 17 13 23 15 2 16 7 14 6
p cnf 24 87
-1 -2 0
-3 -4 0
-5 -6 0
-7 -8 0
-9 -10 0
-11 -12 0
-13 -14 0
-15 -16 0
-17 -18 0
-19 -20 0
-21 -22 0
-23 -24 0
1 2 5 6 0
-1 2 -5 6 0
1 -2 5 -6 0
1 2 7 8 0
-1 2 -7 8 0
1 -2 7 -8 0
1 2 19 20 0
-1 2 -19 20 0
1 -2 19 -20 0
1 2 23 24 0
-1 2 -23 24 0
1 -2 23 -24 0
3 4 5 6 0
-3 4 -5 6 0
3 -4 5 -6 0
3 4 7 8 0
-3 4 -7 8 0
3 -4 7 -8 0
3 4 19 20 0
-3 4 -19 20 0
3 -4 19 -20 0
3 4 21 22 0
-3 4 -21 22 0
3 -4 21 -22 0
3 4 23 24 0
-3 4 -23 24 0
3 -4 23 -24 0
5 6 11 12 0
-5 6 -11 12 0
5 -6 11 -12 0
5 6 13 14 0
-5 6 -13 14 0
5 -6 13 -14 0
5 6 17 18 0
-5 6 -17 18 0
5 -6 17 -18 0
5 6 21 22 0
-5 6 -21 22 0
5 -6 21 -22 0
7 8 15 16 0
-7 8 -15 16 0
7 -8 15 -16 0
7 8 17 18 0
-7 8 -17 18 0
7 -8 17 -18 0
9 10 19 20 0
-9 10 -19 20 0
9 -10 19 -20 0
9 10 21 22 0
-9 10 -21 22 0
9 -10 21 -22 0
11 12 13 14 0
-11 12 -13 14 0
11 -12 13 -14 0
11 12 15 16 0
-11 12 -15 16 0
11 -12 15 -16 0
11 12 21 22 0
-11 12 -21 22 0
11 -12 21 -22 0
11 12 23 24 0
-11 12 -23 24 0
11 -12 23 -24 0
13 14 17 18 0
-13 14 -17 18 0
13 -14 17 -18 0
13 14 19 20 0
-13 14 -19 20 0
13 -14 19 -20 0
19 20 21 22 0
-19 20 -21 22 0
19 -20 21 -22 0
21 22 23 24 0
-21 22 -23 24 0
21 -22 23 -24 0
