c family=3-COL n=24 instance=8 seed=145502016 models=24
c order 23 20 4 12 11 15 17 14 22 18 21 16 9 1 3 2 8 10 6 19 5 13 24 7
c order 4 12 7 3 8 22 2 18 23 1 6 11 14 19 5 24 10 17 13 16 9 21 15 20
c order 16 20 19 22 5 24 10 18 3 15 1 11 13 9 14 8 7 6 21 4 2 17 12 23
c order 15 21 8 23 5 3 7 4 1 11 9 19 17 6 18 2 12 16 24 20 13 22 10 14
c order 14 3 10 17 21 15 4 16 20 18 1 8 13 12 7 11 2 23 19 9 22 6 24 5
c order 19 2 24 3 18 12 21 16 8 11 5 22 6 4 17 1 20 15 9 14 7 13 10 23
c order 6 4 8 18 2 19 22 23 9 14 24 11 15 17 13 16 5 7 21 20 12 1 3 10
c order 22 5 12 23 10 1 20 4 19 21 18 13 15 14 11 2 16 9 7 6 24 3 8 17
c order 4 6 15 20 23 18 14 9 2 24 22 17 3 13 5 1 16 21 8 11 19 7 10 12
c order 14 24 15 12 10 4 7 17 18 13 1 19 8 20 2 3 21 22 16 9 6 23 5 11
p cnf 24 87
-1 -2 0
-3 -4 0
-5 -6 0
-7 -8 0
-9 -10 0
-11 -12 0
-13 -14 0
-15 -16 0
-17 -18 0
-19 -20 0
-21 -22 0
-23 -24 0
1 2 7 8 0
-1 2 -7 8 0
1 -2 7 -8 0
1 2 9 10 0
-1 2 -9 10 0
1 -2 9 -10 0
1 2 13 14 0
-1 2 -13 14 0
1 -2 13 -14 0
1 2 21 22 0
-1 2 -21 22 0
1 -2 21 -22 0
3 4 9 10 0
-3 4 -9 10 0
3 -4 9 -10 0
3 4 13 14 0
-3 4 -13 14 0
3 -4 13 -14 0
3 4 15 16 0
-3 4 -15 16 0
3 -4 15 -16 0
3 4 21 22 0
-3 4 -21 22 0
3 -4 21 -22 0
3 4 23 24 0
-3 4 -23 24 0
3 -4 23 -24 0
5 6 11 12 0
-5 6 -11 12 0
5 -6 11 -12 0
5 6 19 20 0
-5 6 -19 20 0
5 -6 19 -20 0
5 6 21 22 0
-5 6 -21 22 0
5 -6 21 -22 0
7 8 15 16 0
-7 8 -15 16 0
7 -8 15 -16 0
9 10 15 16 0
-9 10 -15 16 0
9 -10 15 -16 0
9 10 19 20 0
-9 10 -19 20 0
9 -10 19 -20 0
9 10 21 22 0
-9 10 -21 22 0
9 -10 21 -22 0
9 10 23 24 0
-9 10 -23 24 0
9 -10 23 -24 0
11 12 13 14 0
-11 12 -13 14 0
11 -12 13 -14 0
13 14 19 20 0
-13 14 -19 20 0
13 -14 19 -20 0
13 14 23 24 0
-13 14 -23 24 0
13 -14 23 -24 0
15 16 17 18 0
-15 16 -17 18 0
15 -16 17 -18 0
15 16 19 20 0
-15 16 -19 20 0
15 -16 19 -20 0
17 18 23 24 0
-17 18 -23 24 0
17 -18 23 -24 0
19 20 21 22 0
-19 20 -21 22 0
19 -20 21 -22 0
19 20 23 24 0
-19 20 -23 24 0
19 -20 23 -24 0
