c family=3-COL n=24 instance=2 seed=145502016 models=6
c order 11 16 19 14 10 18 12 17 23 2 22 9 7 13 24 3 15 21 4 8 20 1 6 5
c order 3 8 2 7 22 16 1 5 21 4 6 23 14 17 15 19 11 13 18 12 9 10 24 20
c order 16 12 11 4 14 20 10 2 13 19 6 9 7 8 5 24 21 23 18 15 17 3 1 22
c order 22 13 4 9 21 16 5 24 18 1 10 14 12 11 15 2 20 3 8 6 19 23 17 7
c order 10 8 11 2 6 20 9 7 5 4 23 13 18 19 15 17 12 22 24 21 1 14 3 16
c order 7 6 20 24 1 10 12 5 13 3 19 18 17 2 22 21 9 8 4 11 16 14 15 23
c order 20 2 14 11 24 8 13 16 21 10 17 18 3 15 22 12 4 1 6 5 19 7 9 23
c order 23 13 14 12 8 20 4 7 21 19 17 9 10 5 15 24 16 11 2 6 3 1 18 22
c order 1 15 9 21 17 22 3 7 20 5 16 24 8 18 4 14 12 6 13 10 19 11 23 2
c order 7 16 17 6 12 4 1 13 14 5 22 24 3 18 9 23 20 21 8 2 10 19 11 15
p cnf 24 87
-1 -2 0
-3 -4 0
-5 -6 0
-7 -8 0
-9 -10 0
-11 -12 0
-13 -14 0
-15 -16 0
-17 -18 0
-19 -20 0
-21 -22 0
-23 -24 0
1 2 9 10 0
-1 2 -9 10 0
1 -2 9 -10 0
1 2 11 12 0
-1 2 -11 12 0
1 -2 11 -12 0
1 2 13 14 0
-1 2 -13 14 0
1 -2 13 -14 0
1 2 15 16 0
-1 2 -15 16 0
1 -2 15 -16 0
3 4 11 12 0
-3 4 -11 12 0
3 -4 11 -12 0
3 4 13 14 0
-3 4 -13 14 0
3 -4 13 -14 0
3 4 17 18 0
-3 4 -17 18 0
3 -4 17 -18 0
3 4 21 22 0
-3 4 -21 22 0
3 -4 21 -22 0
3 4 23 24 0
-3 4 -23 24 0
3 -4 23 -24 0
5 6 7 8 0
-5 6 -7 8 0
5 -6 7 -8 0
5 6 9 10 0
-5 6 -9 10 0
5 -6 9 -10 0
5 6 11 12 0
-5 6 -11 12 0
5 -6 11 -12 0
5 6 13 14 0
-5 6 -13 14 0
5 -6 13 -14 0
5 6 17 18 0
-5 6 -17 18 0
5 -6 17 -18 0
5 6 21 22 0
-5 6 -21 22 0
5 -6 21 -22 0
7 8 9 10 0
-7 8 -9 10 0
7 -8 9 -10 0
7 8 11 12 0
-7 8 -11 12 0
7 -8 11 -12 0
9 10 21 22 0
-9 10 -21 22 0
9 -10 21 -22 0
13 14 15 16 0
-13 14 -15 16 0
13 -14 15 -16 0
13 14 23 24 0
-13 14 -23 24 0
13 -14 23 -24 0
15 16 19 20 0
-15 16 -19 20 0
15 -16 19 -20 0
15 16 21 22 0
-15 16 -21 22 0
15 -16 21 -22 0
15 16 23 24 0
-15 16 -23 24 0
15 -16 23 -24 0
17 18 21 22 0
-17 18 -21 22 0
17 -18 21 -22 0
19 20 23 24 0
-19 20 -23 24 0
19 -20 23 -24 0
