c family=3-COL n=24 instance=5 seed=145502016 models=6
c order 4 20 22 10 7 12 9 18 2 17 1 15 23 19 13 8 3 14 24 11 6 16 21 5
c order 6 19 4 7 23 22 20 17 24 1 8 10 16 15 9 12 2 5 13 18 14 11 3 21
c order 12 21 24 19 15 1 16 22 4 7 14 9 18 6 5 3 2 23 10 17 13 11 8 20
c order 1 5 21 10 23 11 17 3 4 16 7 9 18 19 13 14 6 22 2 15 8 12 24 20
c order 5 4 19 22 11 7 18 12 21 9 16 14 1 10 2 23 13 3 20 17 6 24 8 15
c order 17 9 10 23 1 8 20 4 3 11 6 19 21 15 12 5 14 22 24 13 16 18 2 7
c order 12 8 10 15 17 13 20 6 4 9 14 3 21 19 23 1 7 2 24 22 11 16 5 18
c order 7 21 1 13 23 20 19 2 24 15 6 3 4 18 22 14 16 8 10 17 11 9 12 5
c order 15 2 4 8 13 9 22 16 11 21 23 14 3 7 6 12 18 24 20 5 10 19 1 17
c order 11 10 24 9 5 13 21 8 1 23 3 14 19 12 7 17 20 18 4 6 15 22 16 2
p cnf 24 87
-1 -2 0
-3 -4 0
-5 -6 0
-7 -8 0
-9 -10 0
-11 -12 0
-13 -14 0
-15 -16 0
-17 -18 0
-19 -20 0
-21 -22 0
-23 -24 0
1 2 11 12 0
-1 2 -11 12 0
1 -2 11 -12 0
1 2 13 14 0
-1 2 -13 14 0
1 -2 13 -14 0
1 2 17 18 0
-1 2 -17 18 0
1 -2 17 -18 0
3 4 9 10 0
-3 4 -9 10 0
3 -4 9 -10 0
3 4 13 14 0
-3 4 -13 14 0
3 -4 13 -14 0
3 4 21 22 0
-3 4 -21 22 0
3 -4 21 -22 0
3 4 23 24 0
-3 4 -23 24 0
3 -4 23 -24 0
5 6 7 8 0
-5 6 -7 8 0
5 -6 7 -8 0
5 6 9 10 0
-5 6 -9 10 0
5 -6 9 -10 0
5 6 15 16 0
-5 6 -15 16 0
5 -6 15 -16 0
5 6 19 20 0
-5 6 -19 20 0
5 -6 19 -20 0
5 6 21 22 0
-5 6 -21 22 0
5 -6 21 -22 0
7 8 9 10 0
-7 8 -9 10 0
7 -8 9 -10 0
7 8 15 16 0
-7 8 -15 16 0
7 -8 15 -16 0
9 10 17 18 0
-9 10 -17 18 0
9 -10 17 -18 0
9 10 21 22 0
-9 10 -21 22 0
9 -10 21 -22 0
9 10 23 24 0
-9 10 -23 24 0
9 -10 23 -24 0
11 12 15 16 0
-11 12 -15 16 0
11 -12 15 -16 0
11 12 19 20 0
-11 12 -19 20 0
11 -12 19 -20 0
11 12 21 22 0
-11 12 -21 22 0
11 -12 21 -22 0
13 14 21 22 0
-13 14 -21 22 0
13 -14 21 -22 0
13 14 23 24 0
-13 14 -23 24 0
13 -14 23 -24 0
15 16 17 18 0
-15 16 -17 18 0
15 -16 17 -18 0
15 16 19 20 0
-15 16 -19 20 0
15 -16 19 -20 0
17 18 19 20 0
-17 18 -19 20 0
17 -18 19 -20 0
