c family=3-COL n=24 instance=3 seed=145502016 models=30
c order 7 4 12 20 19 22 16 21 3 9 11 1 18 15 5 8 23 14 10 24 13 2 17 6
c order 1 21 4 17 5 18 13 3 23 19 15 22 16 2 6 10 24 9 11 12 20 7 14 8
c order 8 11 17 6 20 15 10 14 12 22 18 23 7 9 3 2 21 4 1 13 5 19 16 24
c order 23 9 1 22 15 16 12 7 3 18 10 6 19 13 2 8 11 21 4 20 14 17 24 5
c order 17 10 5 7 8 21 13 4 20 11 12 24 22 3 15 2 23 6 18 16 14 19 9 1
c order 9 6 22 15 13 10 12 16 14 19 1 24 7 20 21 3 8 2 4 17 23 5 11 18
c order 9 11 15 6 17 7 8 12 1 24 18 14 22 2 19 4 5 13 20 23 10 21 16 3
c order 17 1 6 7 21 16 20 4 5 9 19 24 8 23 3 14 15 10 13 2 11 18 12 22
c order 19 1 7 22 20 10 23 16 6 14 21 24 13 18 15 9 17 4 11 2 8 5 3 12
c order 6 22 24 17 21 10 15 4 19 5 9 1 11 23 8 14 13 3 2 18 20 16 7 12
p cnf 24 87
-1 -2 0
-3 -4 0
-5 -6 0
-7 -8 0
-9 -10 0
-11 -12 0
-13 -14 0
-15 -16 0
-17 -18 0
-19 -20 0
-21 -22 0
-23 -24 0
1 2 3 4 0
-1 2 -3 4 0
1 -2 3 -4 0
1 2 5 6 0
-1 2 -5 6 0
1 -2 5 -6 0
1 2 7 8 0
-1 2 -7 8 0
1 -2 7 -8 0
1 2 9 10 0
-1 2 -9 10 0
1 -2 9 -10 0
1 2 13 14 0
-1 2 -13 14 0
1 -2 13 -14 0
1 2 17 18 0
-1 2 -17 18 0
1 -2 17 -18 0
3 4 5 6 0
-3 4 -5 6 0
3 -4 5 -6 0
3 4 11 12 0
-3 4 -11 12 0
3 -4 11 -12 0
3 4 19 20 0
-3 4 -19 20 0
3 -4 19 -20 0
3 4 21 22 0
-3 4 -21 22 0
3 -4 21 -22 0
5 6 9 10 0
-5 6 -9 10 0
5 -6 9 -10 0
5 6 11 12 0
-5 6 -11 12 0
5 -6 11 -12 0
5 6 17 18 0
-5 6 -17 18 0
5 -6 17 -18 0
5 6 21 22 0
-5 6 -21 22 0
5 -6 21 -22 0
7 8 11 12 0
-7 8 -11 12 0
7 -8 11 -12 0
7 8 17 18 0
-7 8 -17 18 0
7 -8 17 -18 0
7 8 21 22 0
-7 8 -21 22 0
7 -8 21 -22 0
9 10 15 16 0
-9 10 -15 16 0
9 -10 15 -16 0
9 10 21 22 0
-9 10 -21 22 0
9 -10 21 -22 0
11 12 23 24 0
-11 12 -23 24 0
11 -12 23 -24 0
13 14 15 16 0
-13 14 -15 16 0
13 -14 15 -16 0
13 14 19 20 0
-13 14 -19 20 0
13 -14 19 -20 0
17 18 21 22 0
-17 18 -21 22 0
17 -18 21 -22 0
17 18 23 24 0
-17 18 -23 24 0
17 -18 23 -24 0
21 22 23 24 0
-21 22 -23 24 0
21 -22 23 -24 0
