c family=3-COL n=24 instance=0 seed=145502016 models=18
c order 15 13 7 18 14 16 12 2 11 5 17 23 10 21 4 22 20 3 9 1 19 6 8 24
c order 1 5 17 4 13 7 12 16 15 11 23 24 14 9 6 18 2 19 22 8 21 10 20 3
c order 22 17 10 19 14 24 23 18 7 8 12 13 21 1 5 16 4 6 15 11 3 2 20 9
c order 5 13 1 9 15 16 23 8 10 20 21 19 17 6 18 24 11 14 7 12 3 4 2 22
c order 22 19 15 1 7 18 2 5 6 8 12 14 10 16 21 13 11 17 3 9 24 4 20 23
c order 2 9 7 24 10 21 3 17 11 20 23 6 19 18 4 5 1 14 13 8 12 16 15 22
c order 1 2 17 12 7 5 21 13 23 6 9 8 22 11 20 15 18 14 16 24 4 19 3 10
c order 5 11 14 12 22 15 16 18 4 7 17 9 24 21 6 20 13 1 3 8 19 10 2 23
c order 21 11 20 23 9 18 1 22 4 24 7 13 15 14 2 16 3 12 5 6 19 10 17 8
c order 20 9 17 10 13 21 11 5 12 2 18 19 16 22 7 8 1 14 15 3 4 24 6 23
p cnf 24 87
-1 -2 0
-3 -4 0
-5 -6 0
-7 -8 0
-9 -10 0
-11 -12 0
-13 -14 0
-15 -16 0
-17 -18 0
-19 -20 0
-21 -22 0
-23 -24 0
1 2 3 4 0
-1 2 -3 4 0
1 -2 3 -4 0
1 2 9 10 0
-1 2 -9 10 0
1 -2 9 -10 0
1 2 11 12 0
-1 2 -11 12 0
1 -2 11 -12 0
1 2 17 18 0
-1 2 -17 18 0
1 -2 17 -18 0
3 4 9 10 0
-3 4 -9 10 0
3 -4 9 -10 0
3 4 11 12 0
-3 4 -11 12 0
3 -4 11 -12 0
3 4 13 14 0
-3 4 -13 14 0
3 -4 13 -14 0
3 4 19 20 0
-3 4 -19 20 0
3 -4 19 -20 0
5 6 15 16 0
-5 6 -15 16 0
5 -6 15 -16 0
5 6 21 22 0
-5 6 -21 22 0
5 -6 21 -22 0
5 6 23 24 0
-5 6 -23 24 0
5 -6 23 -24 0
7 8 11 12 0
-7 8 -11 12 0
7 -8 11 -12 0
7 8 15 16 0
-7 8 -15 16 0
7 -8 15 -16 0
7 8 17 18 0
-7 8 -17 18 0
7 -8 17 -18 0
7 8 19 20 0
-7 8 -19 20 0
7 -8 19 -20 0
9 10 15 16 0
-9 10 -15 16 0
9 -10 15 -16 0
9 10 17 18 0
-9 10 -17 18 0
9 -10 17 -18 0
9 10 21 22 0
-9 10 -21 22 0
9 -10 21 -22 0
11 12 15 16 0
-11 12 -15 16 0
11 -12 15 -16 0
11 12 17 18 0
-11 12 -17 18 0
11 -12 17 -18 0
13 14 21 22 0
-13 14 -21 22 0
13 -14 21 -22 0
13 14 23 24 0
-13 14 -23 24 0
13 -14 23 -24 0
15 16 23 24 0
-15 16 -23 24 0
15 -16 23 -24 0
17 18 19 20 0
-17 18 -19 20 0
17 -18 19 -20 0
17 18 23 24 0
-17 18 -23 24 0
17 -18 23 -24 0
