c family=3-COL n=24 instance=7 seed=145502016 models=6
c order 21 15 10 12 17 22 6 16 14 5 7 19 24 18 20 23 3 2 13 8 11 1 4 9
c order 7 19 1 23 18 12 16 17 20 22 6 24 14 4 8 11 10 21 15 2 3 9 13 5
c order 23 21 6 7 10 17 12 8 11 18 5 13 15 20 9 14 1 4 19 3 24 2 16 22
c order 22 1 17 8 21 13 5 3 24 4 18 23 12 11 10 20 14 6 9 2 7 16 15 19
c order 13 16 14 10 24 15 22 18 11 19 8 1 7 9 3 12 6 2 23 5 20 4 17 21
c order 11 2 8 15 24 14 20 4 3 19 18 5 22 17 23 9 7 21 6 16 10 1 12 13
c order 23 1 8 18 4 3 12 10 7 19 6 21 2 9 15 17 20 13 14 22 5 24 16 11
c order 12 3 2 1 4 7 24 17 14 19 10 23 5 21 22 8 20 13 15 18 16 9 11 6
c order 7 22 21 10 15 4 11 20 12 23 19 5 9 6 17 1 2 24 8 3 14 16 13 18
c order 7 8 16 23 11 18 21 5 10 6 9 3 4 20 14 2 19 24 13 15 12 1 17 22
p cnf 24 87
-1 -2 0
-3 -4 0
-5 -6 0
-7 -8 0
-9 -10 0
-11 -12 0
-13 -14 0
-15 -16 0
-17 -18 0
-19 -20 0
-21 -22 0
-23 -24 0
1 2 17 18 0
-1 2 -17 18 0
1 -2 17 -18 0
1 2 19 20 0
-1 2 -19 20 0
1 -2 19 -20 0
1 2 23 24 0
-1 2 -23 24 0
1 -2 23 -24 0
3 4 5 6 0
-3 4 -5 6 0
3 -4 5 -6 0
3 4 7 8 0
-3 4 -7 8 0
3 -4 7 -8 0
3 4 15 16 0
-3 4 -15 16 0
3 -4 15 -16 0
3 4 19 20 0
-3 4 -19 20 0
3 -4 19 -20 0
3 4 23 24 0
-3 4 -23 24 0
3 -4 23 -24 0
5 6 21 22 0
-5 6 -21 22 0
5 -6 21 -22 0
5 6 23 24 0
-5 6 -23 24 0
5 -6 23 -24 0
7 8 9 10 0
-7 8 -9 10 0
7 -8 9 -10 0
7 8 13 14 0
-7 8 -13 14 0
7 -8 13 -14 0
7 8 21 22 0
-7 8 -21 22 0
7 -8 21 -22 0
9 10 11 12 0
-9 10 -11 12 0
9 -10 11 -12 0
9 10 15 16 0
-9 10 -15 16 0
9 -10 15 -16 0
9 10 17 18 0
-9 10 -17 18 0
9 -10 17 -18 0
11 12 13 14 0
-11 12 -13 14 0
11 -12 13 -14 0
11 12 21 22 0
-11 12 -21 22 0
11 -12 21 -22 0
13 14 17 18 0
-13 14 -17 18 0
13 -14 17 -18 0
13 14 21 22 0
-13 14 -21 22 0
13 -14 21 -22 0
15 16 17 18 0
-15 16 -17 18 0
15 -16 17 -18 0
17 18 19 20 0
-17 18 -19 20 0
17 -18 19 -20 0
19 20 21 22 0
-19 20 -21 22 0
19 -20 21 -22 0
19 20 23 24 0
-19 20 -23 24 0
19 -20 23 -24 0
21 22 23 24 0
-21 22 -23 24 0
21 -22 23 -24 0
