c family=3-COL n=24 instance=1 seed=145502016 models=6
c order 2 24 15 6 22 10 9 5 18 11 20 7 4 12 14 3 17 13 23 21 16 1 8 19
c order 11 21 13 9 4 7 6 10 17 3 8 23 24 20 12 14 18 15 19 5 16 2 1 22
c order 19 8 20 3 16 6 9 1 23 14 22 11 13 7 24 4 17 15 18 21 12 2 10 5
c order 9 18 6 21 14 22 2 20 16 17 13 19 15 5 1 24 10 3 11 12 8 23 4 7
c order 22 18 11 13 12 10 20 23 7 19 5 1 8 6 17 21 24 3 2 9 4 14 15 16
c order 24 13 20 10 1 2 7 8 14 11 12 22 6 15 18 17 19 3 5 16 21 4 23 9
c order 16 24 6 5 19 23 12 7 22 14 4 1 3 8 18 13 17 15 20 11 2 10 21 9
c order 17 14 13 10 5 15 6 19 3 12 9 7 22 8 2 1 24 4 11 21 16 23 20 18
c order 15 19 22 23 9 13 17 7 2 3 24 5 11 14 10 1 16 12 6 21 20 8 4 18
c order 18 7 4 10 19 6 15 12 1 16 22 2 5 14 24 20 11 21 9 23 8 17 13 3
p cnf 24 87
-1 -2 0
-3 -4 0
-5 -6 0
-7 -8 0
-9 -10 0
-11 -12 0
-13 -14 0
-15 -16 0
-17 -18 0
-19 -20 0
-21 -22 0
-23 -24 0
1 2 3 4 0
-1 2 -3 4 0
1 -2 3 -4 0
1 2 5 6 0
-1 2 -5 6 0
1 -2 5 -6 0
1 2 9 10 0
-1 2 -9 10 0
1 -2 9 -10 0
1 2 13 14 0
-1 2 -13 14 0
1 -2 13 -14 0
3 4 5 6 0
-3 4 -5 6 0
3 -4 5 -6 0
3 4 15 16 0
-3 4 -15 16 0
3 -4 15 -16 0
3 4 19 20 0
-3 4 -19 20 0
3 -4 19 -20 0
5 6 9 10 0
-5 6 -9 10 0
5 -6 9 -10 0
5 6 15 16 0
-5 6 -15 16 0
5 -6 15 -16 0
5 6 17 18 0
-5 6 -17 18 0
5 -6 17 -18 0
5 6 19 20 0
-5 6 -19 20 0
5 -6 19 -20 0
5 6 21 22 0
-5 6 -21 22 0
5 -6 21 -22 0
7 8 9 10 0
-7 8 -9 10 0
7 -8 9 -10 0
7 8 13 14 0
-7 8 -13 14 0
7 -8 13 -14 0
7 8 21 22 0
-7 8 -21 22 0
7 -8 21 -22 0
9 10 13 14 0
-9 10 -13 14 0
9 -10 13 -14 0
9 10 19 20 0
-9 10 -19 20 0
9 -10 19 -20 0
11 12 19 20 0
-11 12 -19 20 0
11 -12 19 -20 0
11 12 21 22 0
-11 12 -21 22 0
11 -12 21 -22 0
11 12 23 24 0
-11 12 -23 24 0
11 -12 23 -24 0
13 14 19 20 0
-13 14 -19 20 0
13 -14 19 -20 0
13 14 21 22 0
-13 14 -21 22 0
13 -14 21 -22 0
15 16 17 18 0
-15 16 -17 18 0
15 -16 17 -18 0
19 20 21 22 0
-19 20 -21 22 0
19 -20 21 -22 0
19 20 23 24 0
-19 20 -23 24 0
19 -20 23 -24 0
