c family=3-COL n=24 instance=6 seed=145502016 models=12
c order 4 12 9 21 10 19 22 16 3 7 17 1 13 20 24 18 2 5 8 6 15 14 11 23
c order 5 14 15 9 10 21 7 3 12 2 22 19 4 18 17 1 11 24 6 13 16 20 8 23
c order 3 22 19 13 14 1 5 7 24 20 4 6 21 11 18 12 10 2 16 8 15 9 17 23
c order 16 7 21 19 12 5 8 10 3 4 6 15 14 9 18 11 17 20 24 23 1 2 22 13
c order 17 23 15 3 12 18 7 16 19 20 22 8 2 11 5 13 9 24 10 4 14 1 6 21
c order 1 22 23 15 4 10 11 3 21 12 17 5 19 20 24 9 2 13 6 16 8 14 18 7
c order 16 9 13 17 19 10 18 7 8 24 6 1 2 20 23 4 11 5 12 14 22 3 21 15
c order 23 9 4 24 10 1 21 8 5 22 13 16 14 6 20 19 7 17 3 11 2 15 18 12
c order 17 16 5 22 8 23 7 13 1 9 15 11 2 18 3 19 6 21 24 10 12 14 4 20
c order 13 16 20 22 21 23 24 2 19 4 17 5 12 3 1 9 18 14 11 7 6 8 15 10
p cnf 24 87
-1 -2 0
-3 -4 0
-5 -6 0
-7 -8 0
-9 -10 0
-11 -12 0
-13 -14 0
-15 -16 0
-17 -18 0
-19 -20 0
-21 -22 0
-23 -24 0
1 2 9 10 0
-1 2 -9 10 0
1 -2 9 -10 0
1 2 13 14 0
-1 2 -13 14 0
1 -2 13 -14 0
1 2 17 18 0
-1 2 -17 18 0
1 -2 17 -18 0
1 2 21 22 0
-1 2 -21 22 0
1 -2 21 -22 0
1 2 23 24 0
-1 2 -23 24 0
1 -2 23 -24 0
3 4 5 6 0
-3 4 -5 6 0
3 -4 5 -6 0
3 4 9 10 0
-3 4 -9 10 0
3 -4 9 -10 0
3 4 15 16 0
-3 4 -15 16 0
3 -4 15 -16 0
3 4 19 20 0
-3 4 -19 20 0
3 -4 19 -20 0
3 4 21 22 0
-3 4 -21 22 0
3 -4 21 -22 0
3 4 23 24 0
-3 4 -23 24 0
3 -4 23 -24 0
5 6 7 8 0
-5 6 -7 8 0
5 -6 7 -8 0
5 6 17 18 0
-5 6 -17 18 0
5 -6 17 -18 0
7 8 9 10 0
-7 8 -9 10 0
7 -8 9 -10 0
7 8 13 14 0
-7 8 -13 14 0
7 -8 13 -14 0
7 8 19 20 0
-7 8 -19 20 0
7 -8 19 -20 0
7 8 23 24 0
-7 8 -23 24 0
7 -8 23 -24 0
9 10 21 22 0
-9 10 -21 22 0
9 -10 21 -22 0
11 12 13 14 0
-11 12 -13 14 0
11 -12 13 -14 0
11 12 17 18 0
-11 12 -17 18 0
11 -12 17 -18 0
11 12 21 22 0
-11 12 -21 22 0
11 -12 21 -22 0
13 14 17 18 0
-13 14 -17 18 0
13 -14 17 -18 0
13 14 21 22 0
-13 14 -21 22 0
13 -14 21 -22 0
15 16 19 20 0
-15 16 -19 20 0
15 -16 19 -20 0
19 20 23 24 0
-19 20 -23 24 0
19 -20 23 -24 0
