c family=3-COL n=30 instance=0 seed=145502016 models=36
c order 7 13 14 4 16 19 28 21 12 25 1 11 2 8 30 24 5 18 27 22 3 20 26 29 6 9 17 10 23 15
c order 3 9 30 14 13 12 19 15 25 20 7 4 10 8 6 16 11 17 27 1 21 18 29 24 2 28 22 5 23 26
c order 23 21 11 8 13 28 7 15 2 20 22 1 3 6 25 9 5 24 16 12 14 17 27 18 4 19 26 29 10 30
c order 12 9 4 8 16 3 30 20 13 5 22 10 6 28 24 25 2 21 19 27 29 23 26 7 17 1 11 15 14 18
c order 3 6 1 25 9 7 4 28 18 2 20 23 16 19 15 26 22 11 17 14 5 8 29 30 27 10 21 12 24 13
c order 30 15 14 13 10 20 23 8 22 6 7 28 26 5 11 12 27 17 29 3 25 16 4 1 19 24 18 9 21 2
c order 8 25 9 5 30 12 6 11 17 15 14 27 28 1 21 26 18 19 29 24 20 13 2 16 23 4 10 22 7 3
c order 15 25 18 1 7 23 8 30 11 28 19 29 14 21 10 17 4 22 26 12 6 20 3 24 9 2 27 5 13 16
c order 8 6 27 4 12 18 29 24 7 19 25 17 20 21 3 28 10 11 13 15 26 16 14 1 5 22 9 2 23 30
c order 30 29 18 4 23 3 19 6 12 14 21 15 25 17 8 22 1 10 5 16 2 9 7 27 26 11 20 13 28 24
p cnf 30 111
-1 -2 0
-3 -4 0
-5 -6 0
-7 -8 0
-9 -10 0
-11 -12 0
-13 -14 0
-15 -16 0
-17 -18 0
-19 -20 0
-21 -22 0
-23 -24 0
-25 -26 0
-27 -28 0
-29 -30 0
1 2 5 6 0
-1 2 -5 6 0
1 -2 5 -6 0
1 2 7 8 0
-1 2 -7 8 0
1 -2 7 -8 0
1 2 9 10 0
-1 2 -9 10 0
1 -2 9 -10 0
1 2 13 14 0
-1 2 -13 14 0
1 -2 13 -14 0
3 4 5 6 0
-3 4 -5 6 0
3 -4 5 -6 0
3 4 9 10 0
-3 4 -9 10 0
3 -4 9 -10 0
3 4 17 18 0
-3 4 -17 18 0
3 -4 17 -18 0
3 4 25 26 0
-3 4 -25 26 0
3 -4 25 -26 0
3 4 27 28 0
-3 4 -27 28 0
3 -4 27 -28 0
5 6 21 22 0
-5 6 -21 22 0
5 -6 21 -22 0
5 6 25 26 0
-5 6 -25 26 0
5 -6 25 -26 0
7 8 9 10 0
-7 8 -9 10 0
7 -8 9 -10 0
7 8 15 16 0
-7 8 -15 16 0
7 -8 15 -16 0
7 8 21 22 0
-7 8 -21 22 0
7 -8 21 -22 0
7 8 23 24 0
-7 8 -23 24 0
7 -8 23 -24 0
7 8 29 30 0
-7 8 -29 30 0
7 -8 29 -30 0
9 10 13 14 0
-9 10 -13 14 0
9 -10 13 -14 0
9 10 19 20 0
-9 10 -19 20 0
9 -10 19 -20 0
11 12 13 14 0
-11 12 -13 14 0
11 -12 13 -14 0
11 12 15 16 0
-11 12 -15 16 0
11 -12 15 -16 0
11 12 19 20 0
-11 12 -19 20 0
11 -12 19 -20 0
11 12 23 24 0
-11 12 -23 24 0
11 -12 23 -24 0
13 14 21 22 0
-13 14 -21 22 0
13 -14 21 -22 0
15 16 29 30 0
-15 16 -29 30 0
15 -16 29 -30 0
17 18 19 20 0
-17 18 -19 20 0
17 -18 19 -20 0
17 18 21 22 0
-17 18 -21 22 0
17 -18 21 -22 0
17 18 25 26 0
-17 18 -25 26 0
17 -18 25 -26 0
19 20 27 28 0
-19 20 -27 28 0
19 -20 27 -28 0
21 22 25 26 0
-21 22 -25 26 0
21 -22 25 -26 0
21 22 27 28 0
-21 22 -27 28 0
21 -22 27 -28 0
23 24 25 26 0
-23 24 -25 26 0
23 -24 25 -26 0
23 24 29 30 0
-23 24 -29 30 0
23 -24 29 -30 0
