c family=3-COL n=30 instance=1 seed=145502016 models=24
c order 27 1 6 4 16 21 23 19 22 13 25 17 20 11 2 9 28 10 7 29 24 14 12 26 3 5 18 15 8 30
c order 9 5 29 3 20 28 17 21 11 4 22 6 13 23 19 8 15 2 12 7 10 18 24 25 14 30 16 27 26 1
c order 1 12 2 20 27 10 21 19 5 24 3 29 28 16 25 17 9 13 23 26 14 6 22 15 7 4 18 11 8 30
c order 21 22 13 12 14 19 23 20 10 27 3 18 26 30 16 2 17 4 24 6 11 25 8 15 9 5 29 7 1 28
c order 29 22 3 15 20 1 25 12 7 4 10 26 27 24 2 28 14 23 21 13 18 19 9 8 6 11 5 17 16 30
c order 10 28 12 14 16 23 6 18 9 8 21 17 15 2 1 11 30 3 25 27 19 29 5 20 22 4 7 13 26 24
c order 14 3 20 28 19 24 2 26 25 7 18 8 16 12 5 10 29 21 23 11 30 22 27 1 13 9 17 15 6 4
c order 24 30 2 11 5 18 7 4 15 29 20 27 22 13 1 3 8 12 19 6 14 25 28 21 16 23 17 10 9 26
c order 6 9 3 20 11 16 19 14 10 1 28 13 26 25 27 29 4 2 30 17 5 22 15 23 12 8 21 24 7 18
c order 25 5 18 12 22 6 16 30 3 23 29 27 11 8 24 21 10 14 4 19 26 15 17 20 7 28 13 2 1 9
p cnf 30 111
-1 -2 0
-3 -4 0
-5 -6 0
-7 -8 0
-9 -10 0
-11 -12 0
-13 -14 0
-15 -16 0
-17 -18 0
-19 -20 0
-21 -22 0
-23 -24 0
-25 -26 0
-27 -28 0
-29 -30 0
1 2 7 8 0
-1 2 -7 8 0
1 -2 7 -8 0
1 2 13 14 0
-1 2 -13 14 0
1 -2 13 -14 0
1 2 19 20 0
-1 2 -19 20 0
1 -2 19 -20 0
1 2 21 22 0
-1 2 -21 22 0
1 -2 21 -22 0
1 2 25 26 0
-1 2 -25 26 0
1 -2 25 -26 0
3 4 21 22 0
-3 4 -21 22 0
3 -4 21 -22 0
3 4 25 26 0
-3 4 -25 26 0
3 -4 25 -26 0
5 6 13 14 0
-5 6 -13 14 0
5 -6 13 -14 0
5 6 17 18 0
-5 6 -17 18 0
5 -6 17 -18 0
5 6 25 26 0
-5 6 -25 26 0
5 -6 25 -26 0
5 6 27 28 0
-5 6 -27 28 0
5 -6 27 -28 0
5 6 29 30 0
-5 6 -29 30 0
5 -6 29 -30 0
7 8 9 10 0
-7 8 -9 10 0
7 -8 9 -10 0
7 8 11 12 0
-7 8 -11 12 0
7 -8 11 -12 0
7 8 13 14 0
-7 8 -13 14 0
7 -8 13 -14 0
7 8 15 16 0
-7 8 -15 16 0
7 -8 15 -16 0
7 8 25 26 0
-7 8 -25 26 0
7 -8 25 -26 0
7 8 29 30 0
-7 8 -29 30 0
7 -8 29 -30 0
9 10 21 22 0
-9 10 -21 22 0
9 -10 21 -22 0
11 12 13 14 0
-11 12 -13 14 0
11 -12 13 -14 0
13 14 19 20 0
-13 14 -19 20 0
13 -14 19 -20 0
13 14 23 24 0
-13 14 -23 24 0
13 -14 23 -24 0
13 14 29 30 0
-13 14 -29 30 0
13 -14 29 -30 0
15 16 21 22 0
-15 16 -21 22 0
15 -16 21 -22 0
17 18 19 20 0
-17 18 -19 20 0
17 -18 19 -20 0
17 18 23 24 0
-17 18 -23 24 0
17 -18 23 -24 0
19 20 23 24 0
-19 20 -23 24 0
19 -20 23 -24 0
19 20 25 26 0
-19 20 -25 26 0
19 -20 25 -26 0
19 20 27 28 0
-19 20 -27 28 0
19 -20 27 -28 0
21 22 25 26 0
-21 22 -25 26 0
21 -22 25 -26 0
23 24 27 28 0
-23 24 -27 28 0
23 -24 27 -28 0
25 26 29 30 0
-25 26 -29 30 0
25 -26 29 -30 0
