c family=3-COL n=30 instance=9 seed=145502016 models=36
c order 19 17 10 29 4 5 24 30 3 20 14 9 16 18 7 13 28 23 25 26 6 12 15 2 11 22 27 21 1 8
c order 7 19 28 29 25 18 24 6 23 5 20 3 9 11 22 15 13 21 2 12 14 1 8 10 16 27 17 4 30 26
c order 3 29 13 15 12 26 8 24 18 9 23 30 7 21 6 27 28 25 2 16 22 19 5 4 14 11 20 17 10 1
c order 13 29 14 1 25 26 20 10 19 30 4 15 11 2 12 5 24 18 16 6 3 22 8 7 28 27 17 23 9 21
c order 12 6 4 17 8 5 20 13 28 27 16 1 9 11 22 23 24 3 25 10 30 15 2 7 14 26 29 21 19 18
c order 15 14 7 5 16 3 21 9 27 13 1 25 12 6 24 20 29 22 11 28 18 10 4 30 26 19 8 23 2 17
c order 10 18 9 13 28 3 1 16 6 14 15 30 8 19 24 4 29 11 20 27 26 21 23 12 25 5 17 7 2 22
c order 4 15 7 2 25 10 24 11 18 1 3 5 20 14 21 12 8 6 22 30 23 27 13 9 29 28 16 19 17 26
c order 9 5 13 30 21 27 4 19 6 7 29 24 26 3 23 20 28 2 12 15 16 8 18 1 25 22 10 11 14 17
c order 5 27 29 10 12 25 18 20 23 19 30 9 1 16 28 11 17 13 26 2 3 7 4 22 6 15 21 14 8 24
p cnf 30 111
-1 -2 0
-3 -4 0
-5 -6 0
-7 -8 0
-9 -10 0
-11 -12 0
-13 -14 0
-15 -16 0
-17 -18 0
-19 -20 0
-21 -22 0
-23 -24 0
-25 -26 0
-27 -28 0
-29 -30 0
1 2 3 4 0
-1 2 -3 4 0
1 -2 3 -4 0
1 2 11 12 0
-1 2 -11 12 0
1 -2 11 -12 0
1 2 17 18 0
-1 2 -17 18 0
1 -2 17 -18 0
1 2 29 30 0
-1 2 -29 30 0
1 -2 29 -30 0
3 4 11 12 0
-3 4 -11 12 0
3 -4 11 -12 0
3 4 15 16 0
-3 4 -15 16 0
3 -4 15 -16 0
3 4 17 18 0
-3 4 -17 18 0
3 -4 17 -18 0
3 4 23 24 0
-3 4 -23 24 0
3 -4 23 -24 0
5 6 9 10 0
-5 6 -9 10 0
5 -6 9 -10 0
5 6 23 24 0
-5 6 -23 24 0
5 -6 23 -24 0
5 6 27 28 0
-5 6 -27 28 0
5 -6 27 -28 0
5 6 29 30 0
-5 6 -29 30 0
5 -6 29 -30 0
7 8 9 10 0
-7 8 -9 10 0
7 -8 9 -10 0
7 8 13 14 0
-7 8 -13 14 0
7 -8 13 -14 0
7 8 15 16 0
-7 8 -15 16 0
7 -8 15 -16 0
7 8 23 24 0
-7 8 -23 24 0
7 -8 23 -24 0
9 10 19 20 0
-9 10 -19 20 0
9 -10 19 -20 0
9 10 27 28 0
-9 10 -27 28 0
9 -10 27 -28 0
9 10 29 30 0
-9 10 -29 30 0
9 -10 29 -30 0
11 12 21 22 0
-11 12 -21 22 0
11 -12 21 -22 0
11 12 23 24 0
-11 12 -23 24 0
11 -12 23 -24 0
11 12 27 28 0
-11 12 -27 28 0
11 -12 27 -28 0
13 14 15 16 0
-13 14 -15 16 0
13 -14 15 -16 0
13 14 27 28 0
-13 14 -27 28 0
13 -14 27 -28 0
15 16 21 22 0
-15 16 -21 22 0
15 -16 21 -22 0
15 16 29 30 0
-15 16 -29 30 0
15 -16 29 -30 0
17 18 19 20 0
-17 18 -19 20 0
17 -18 19 -20 0
17 18 23 24 0
-17 18 -23 24 0
17 -18 23 -24 0
17 18 29 30 0
-17 18 -29 30 0
17 -18 29 -30 0
19 20 23 24 0
-19 20 -23 24 0
19 -20 23 -24 0
23 24 29 30 0
-23 24 -29 30 0
23 -24 29 -30 0
25 26 29 30 0
-25 26 -29 30 0
25 -26 29 -30 0
