c family=3-COL n=30 instance=7 seed=145502016 models=12
c order 22 16 15 23 13 11 1 9 24 26 29 14 6 17 8 19 10 30 3 27 18 2 25 21 28 4 12 7 5 20
c order 29 1 25 13 7 11 19 21 5 15 17 23 6 4 28 14 9 22 12 2 20 8 16 30 18 10 26 3 27 24
c order 6 26 17 11 15 30 5 1 4 14 2 23 12 20 22 21 29 18 19 24 28 25 13 8 10 7 9 16 27 3
c order 15 19 20 5 3 13 14 8 12 18 22 29 11 2 23 24 26 4 17 28 27 7 25 1 6 21 10 9 30 16
c order 19 23 30 3 15 27 7 9 8 17 16 28 26 24 2 13 4 21 12 6 22 11 18 10 1 14 29 20 25 5
c order 1 16 2 19 18 15 22 29 9 8 25 17 24 13 4 23 7 3 11 28 5 10 21 14 26 20 12 30 27 6
c order 3 14 15 10 21 12 18 30 24 17 19 6 8 13 5 7 26 2 20 29 4 25 27 9 11 23 16 28 1 22
c order 27 13 3 30 29 5 20 24 1 16 10 7 2 12 8 15 25 6 11 18 28 23 17 22 21 19 26 14 9 4
c order 9 23 12 20 14 19 7 29 24 25 4 8 30 27 1 28 5 17 26 11 15 21 6 10 2 18 13 22 3 16
c order 29 19 16 2 6 12 26 11 14 28 23 1 7 17 27 21 4 24 3 5 8 25 10 13 30 18 15 9 22 20
p cnf 30 111
-1 -2 0
-3 -4 0
-5 -6 0
-7 -8 0
-9 -10 0
-11 -12 0
-13 -14 0
-15 -16 0
-17 -18 0
-19 -20 0
-21 -22 0
-23 -24 0
-25 -26 0
-27 -28 0
-29 -30 0
1 2 3 4 0
-1 2 -3 4 0
1 -2 3 -4 0
1 2 9 10 0
-1 2 -9 10 0
1 -2 9 -10 0
1 2 19 20 0
-1 2 -19 20 0
1 -2 19 -20 0
1 2 21 22 0
-1 2 -21 22 0
1 -2 21 -22 0
1 2 23 24 0
-1 2 -23 24 0
1 -2 23 -24 0
1 2 29 30 0
-1 2 -29 30 0
1 -2 29 -30 0
3 4 7 8 0
-3 4 -7 8 0
3 -4 7 -8 0
3 4 23 24 0
-3 4 -23 24 0
3 -4 23 -24 0
3 4 27 28 0
-3 4 -27 28 0
3 -4 27 -28 0
5 6 11 12 0
-5 6 -11 12 0
5 -6 11 -12 0
5 6 13 14 0
-5 6 -13 14 0
5 -6 13 -14 0
5 6 17 18 0
-5 6 -17 18 0
5 -6 17 -18 0
5 6 19 20 0
-5 6 -19 20 0
5 -6 19 -20 0
5 6 29 30 0
-5 6 -29 30 0
5 -6 29 -30 0
7 8 9 10 0
-7 8 -9 10 0
7 -8 9 -10 0
7 8 11 12 0
-7 8 -11 12 0
7 -8 11 -12 0
7 8 13 14 0
-7 8 -13 14 0
7 -8 13 -14 0
7 8 19 20 0
-7 8 -19 20 0
7 -8 19 -20 0
9 10 11 12 0
-9 10 -11 12 0
9 -10 11 -12 0
9 10 21 22 0
-9 10 -21 22 0
9 -10 21 -22 0
11 12 27 28 0
-11 12 -27 28 0
11 -12 27 -28 0
13 14 15 16 0
-13 14 -15 16 0
13 -14 15 -16 0
13 14 19 20 0
-13 14 -19 20 0
13 -14 19 -20 0
13 14 23 24 0
-13 14 -23 24 0
13 -14 23 -24 0
13 14 29 30 0
-13 14 -29 30 0
13 -14 29 -30 0
17 18 23 24 0
-17 18 -23 24 0
17 -18 23 -24 0
17 18 27 28 0
-17 18 -27 28 0
17 -18 27 -28 0
19 20 21 22 0
-19 20 -21 22 0
19 -20 21 -22 0
21 22 29 30 0
-21 22 -29 30 0
21 -22 29 -30 0
23 24 25 26 0
-23 24 -25 26 0
23 -24 25 -26 0
23 24 27 28 0
-23 24 -27 28 0
23 -24 27 -28 0
25 26 27 28 0
-25 26 -27 28 0
25 -26 27 -28 0
