c family=3-COL n=30 instance=5 seed=145502016 models=18
c order 24 2 20 29 25 21 4 1 18 15 30 11 3 12 10 19 26 23 6 14 17 5 13 16 9 8 22 27 7 28
c order 26 10 15 14 6 12 1 30 28 13 18 27 24 3 25 7 9 16 20 11 5 2 17 29 19 22 8 23 4 21
c order 26 17 28 22 10 9 5 29 7 24 18 25 23 6 14 19 8 16 12 20 3 27 11 15 21 2 4 13 1 30
c order 20 26 1 28 24 2 22 8 25 23 14 19 12 27 29 21 13 18 11 15 9 3 7 5 30 6 17 16 4 10
c order 3 17 14 22 15 10 25 30 2 11 5 8 29 26 27 1 12 16 24 19 23 9 13 7 28 6 21 18 4 20
c order 19 23 8 7 16 13 6 17 18 3 29 30 14 26 5 20 21 12 10 11 15 27 9 24 28 22 4 2 1 25
c order 2 6 5 24 26 19 9 15 27 7 1 18 13 14 29 12 25 3 8 22 11 23 20 4 10 30 17 16 28 21
c order 13 2 19 17 1 30 6 9 23 27 16 28 20 29 18 4 26 21 10 24 25 3 7 14 11 12 8 15 5 22
c order 7 26 1 23 20 8 24 9 16 3 15 22 28 4 19 17 6 30 5 18 11 14 29 13 12 10 21 2 25 27
c order 1 14 15 16 21 26 23 11 8 20 2 3 24 30 4 29 13 9 18 5 6 27 28 17 10 25 12 7 19 22
p cnf 30 111
-1 -2 0
-3 -4 0
-5 -6 0
-7 -8 0
-9 -10 0
-11 -12 0
-13 -14 0
-15 -16 0
-17 -18 0
-19 -20 0
-21 -22 0
-23 -24 0
-25 -26 0
-27 -28 0
-29 -30 0
1 2 3 4 0
-1 2 -3 4 0
1 -2 3 -4 0
1 2 9 10 0
-1 2 -9 10 0
1 -2 9 -10 0
1 2 13 14 0
-1 2 -13 14 0
1 -2 13 -14 0
1 2 17 18 0
-1 2 -17 18 0
1 -2 17 -18 0
3 4 11 12 0
-3 4 -11 12 0
3 -4 11 -12 0
3 4 13 14 0
-3 4 -13 14 0
3 -4 13 -14 0
3 4 15 16 0
-3 4 -15 16 0
3 -4 15 -16 0
3 4 21 22 0
-3 4 -21 22 0
3 -4 21 -22 0
3 4 23 24 0
-3 4 -23 24 0
3 -4 23 -24 0
5 6 9 10 0
-5 6 -9 10 0
5 -6 9 -10 0
5 6 13 14 0
-5 6 -13 14 0
5 -6 13 -14 0
5 6 27 28 0
-5 6 -27 28 0
5 -6 27 -28 0
5 6 29 30 0
-5 6 -29 30 0
5 -6 29 -30 0
7 8 13 14 0
-7 8 -13 14 0
7 -8 13 -14 0
7 8 17 18 0
-7 8 -17 18 0
7 -8 17 -18 0
9 10 13 14 0
-9 10 -13 14 0
9 -10 13 -14 0
11 12 13 14 0
-11 12 -13 14 0
11 -12 13 -14 0
11 12 17 18 0
-11 12 -17 18 0
11 -12 17 -18 0
11 12 19 20 0
-11 12 -19 20 0
11 -12 19 -20 0
13 14 15 16 0
-13 14 -15 16 0
13 -14 15 -16 0
13 14 19 20 0
-13 14 -19 20 0
13 -14 19 -20 0
13 14 21 22 0
-13 14 -21 22 0
13 -14 21 -22 0
15 16 23 24 0
-15 16 -23 24 0
15 -16 23 -24 0
15 16 29 30 0
-15 16 -29 30 0
15 -16 29 -30 0
17 18 21 22 0
-17 18 -21 22 0
17 -18 21 -22 0
19 20 21 22 0
-19 20 -21 22 0
19 -20 21 -22 0
19 20 27 28 0
-19 20 -27 28 0
19 -20 27 -28 0
21 22 25 26 0
-21 22 -25 26 0
21 -22 25 -26 0
21 22 29 30 0
-21 22 -29 30 0
21 -22 29 -30 0
23 24 25 26 0
-23 24 -25 26 0
23 -24 25 -26 0
23 24 29 30 0
-23 24 -29 30 0
23 -24 29 -30 0
27 28 29 30 0
-27 28 -29 30 0
27 -28 29 -30 0
