c family=3-COL n=30 instance=4 seed=145502016 models=6
c order 4 18 3 26 16 30 23 14 1 15 6 13 25 17 11 19 8 9 12 29 27 21 2 7 20 5 10 24 28 22
c order 5 7 9 19 30 15 23 21 2 27 26 14 1 3 28 6 29 25 10 24 12 22 4 11 16 20 17 18 13 8
c order 30 24 25 8 29 6 21 22 12 26 18 16 11 13 23 1 2 20 27 3 15 28 14 4 10 19 5 17 7 9
c order 13 2 17 21 16 24 26 22 1 12 18 10 19 11 25 4 7 23 9 3 15 14 27 29 8 28 5 20 6 30
c order 26 6 15 11 21 17 29 18 13 2 5 30 19 8 27 22 9 1 25 16 14 10 28 23 7 20 12 4 3 24
c order 23 15 27 8 5 1 10 3 28 18 2 24 6 7 17 22 21 29 25 26 4 30 16 14 11 12 13 9 20 19
c order 19 11 7 8 28 23 5 20 1 16 2 26 6 3 21 22 17 30 29 27 24 9 18 13 14 15 12 10 25 4
c order 28 2 13 17 27 20 7 19 29 1 10 21 16 9 24 6 25 22 30 8 18 11 15 14 3 12 4 23 5 26
c order 26 12 15 19 30 14 1 4 25 20 22 23 10 28 27 16 6 11 2 17 29 7 24 18 21 9 13 5 3 8
c order 4 20 22 2 23 29 6 7 1 19 26 25 14 3 10 24 8 18 11 17 21 13 16 30 5 12 9 15 27 28
p cnf 30 111
-1 -2 0
-3 -4 0
-5 -6 0
-7 -8 0
-9 -10 0
-11 -12 0
-13 -14 0
-15 -16 0
-17 -18 0
-19 -20 0
-21 -22 0
-23 -24 0
-25 -26 0
-27 -28 0
-29 -30 0
1 2 3 4 0
-1 2 -3 4 0
1 -2 3 -4 0
1 2 5 6 0
-1 2 -5 6 0
1 -2 5 -6 0
1 2 13 14 0
-1 2 -13 14 0
1 -2 13 -14 0
1 2 27 28 0
-1 2 -27 28 0
1 -2 27 -28 0
3 4 17 18 0
-3 4 -17 18 0
3 -4 17 -18 0
3 4 19 20 0
-3 4 -19 20 0
3 -4 19 -20 0
5 6 7 8 0
-5 6 -7 8 0
5 -6 7 -8 0
5 6 11 12 0
-5 6 -11 12 0
5 -6 11 -12 0
5 6 17 18 0
-5 6 -17 18 0
5 -6 17 -18 0
7 8 15 16 0
-7 8 -15 16 0
7 -8 15 -16 0
7 8 27 28 0
-7 8 -27 28 0
7 -8 27 -28 0
7 8 29 30 0
-7 8 -29 30 0
7 -8 29 -30 0
9 10 11 12 0
-9 10 -11 12 0
9 -10 11 -12 0
9 10 13 14 0
-9 10 -13 14 0
9 -10 13 -14 0
9 10 15 16 0
-9 10 -15 16 0
9 -10 15 -16 0
9 10 21 22 0
-9 10 -21 22 0
9 -10 21 -22 0
11 12 19 20 0
-11 12 -19 20 0
11 -12 19 -20 0
13 14 15 16 0
-13 14 -15 16 0
13 -14 15 -16 0
13 14 19 20 0
-13 14 -19 20 0
13 -14 19 -20 0
13 14 21 22 0
-13 14 -21 22 0
13 -14 21 -22 0
13 14 23 24 0
-13 14 -23 24 0
13 -14 23 -24 0
13 14 25 26 0
-13 14 -25 26 0
13 -14 25 -26 0
13 14 29 30 0
-13 14 -29 30 0
13 -14 29 -30 0
15 16 23 24 0
-15 16 -23 24 0
15 -16 23 -24 0
17 18 19 20 0
-17 18 -19 20 0
17 -18 19 -20 0
17 18 21 22 0
-17 18 -21 22 0
17 -18 21 -22 0
19 20 23 24 0
-19 20 -23 24 0
19 -20 23 -24 0
19 20 29 30 0
-19 20 -29 30 0
19 -20 29 -30 0
21 22 23 24 0
-21 22 -23 24 0
21 -22 23 -24 0
21 22 29 30 0
-21 22 -29 30 0
21 -22 29 -30 0
25 26 29 30 0
-25 26 -29 30 0
25 -26 29 -30 0
27 28 29 30 0
-27 28 -29 30 0
27 -28 29 -30 0
