c family=3-COL n=30 instance=6 seed=145502016 models=42
c order 15 14 16 29 2 4 12 8 27 26 25 21 22 30 10 9 28 20 13 1 23 17 24 7 19 6 3 11 18 5
c order 5 15 18 23 4 28 30 16 2 11 8 19 25 1 7 27 22 29 21 9 14 6 3 13 20 24 12 26 17 10
c order 1 11 6 9 21 2 15 18 16 8 17 14 3 22 4 26 7 27 10 23 30 12 19 5 24 29 20 28 25 13
c order 7 27 11 26 20 1 12 2 8 18 13 17 23 24 21 28 9 5 10 25 15 16 29 3 19 4 14 6 30 22
c order 6 19 11 24 4 18 13 26 5 7 14 30 1 10 27 21 2 3 15 9 17 23 16 29 25 8 22 28 20 12
c order 27 19 24 30 17 28 23 15 9 18 13 16 29 21 5 12 4 1 3 22 8 25 11 14 6 20 10 26 7 2
c order 29 23 19 1 17 16 10 30 11 27 25 12 22 14 8 21 6 9 28 20 24 13 4 18 15 5 7 2 3 26
c order 26 2 28 29 1 6 4 22 21 23 5 15 27 24 10 14 3 16 20 17 25 7 9 8 18 12 13 30 11 19
c order 13 23 6 24 18 2 17 27 26 30 7 4 11 8 16 12 20 14 15 29 22 10 5 25 1 28 3 21 19 9
c order 4 23 18 30 25 20 16 27 24 8 1 7 3 2 28 6 21 5 15 9 13 12 17 29 11 26 14 22 19 10
p cnf 30 111
-1 -2 0
-3 -4 0
-5 -6 0
-7 -8 0
-9 -10 0
-11 -12 0
-13 -14 0
-15 -16 0
-17 -18 0
-19 -20 0
-21 -22 0
-23 -24 0
-25 -26 0
-27 -28 0
-29 -30 0
1 2 17 18 0
-1 2 -17 18 0
1 -2 17 -18 0
1 2 23 24 0
-1 2 -23 24 0
1 -2 23 -24 0
1 2 25 26 0
-1 2 -25 26 0
1 -2 25 -26 0
1 2 27 28 0
-1 2 -27 28 0
1 -2 27 -28 0
1 2 29 30 0
-1 2 -29 30 0
1 -2 29 -30 0
3 4 7 8 0
-3 4 -7 8 0
3 -4 7 -8 0
3 4 15 16 0
-3 4 -15 16 0
3 -4 15 -16 0
3 4 19 20 0
-3 4 -19 20 0
3 -4 19 -20 0
3 4 21 22 0
-3 4 -21 22 0
3 -4 21 -22 0
5 6 15 16 0
-5 6 -15 16 0
5 -6 15 -16 0
5 6 17 18 0
-5 6 -17 18 0
5 -6 17 -18 0
5 6 21 22 0
-5 6 -21 22 0
5 -6 21 -22 0
5 6 27 28 0
-5 6 -27 28 0
5 -6 27 -28 0
7 8 15 16 0
-7 8 -15 16 0
7 -8 15 -16 0
7 8 27 28 0
-7 8 -27 28 0
7 -8 27 -28 0
7 8 29 30 0
-7 8 -29 30 0
7 -8 29 -30 0
9 10 15 16 0
-9 10 -15 16 0
9 -10 15 -16 0
9 10 21 22 0
-9 10 -21 22 0
9 -10 21 -22 0
9 10 23 24 0
-9 10 -23 24 0
9 -10 23 -24 0
9 10 29 30 0
-9 10 -29 30 0
9 -10 29 -30 0
11 12 15 16 0
-11 12 -15 16 0
11 -12 15 -16 0
11 12 23 24 0
-11 12 -23 24 0
11 -12 23 -24 0
11 12 25 26 0
-11 12 -25 26 0
11 -12 25 -26 0
11 12 29 30 0
-11 12 -29 30 0
11 -12 29 -30 0
13 14 17 18 0
-13 14 -17 18 0
13 -14 17 -18 0
13 14 19 20 0
-13 14 -19 20 0
13 -14 19 -20 0
13 14 29 30 0
-13 14 -29 30 0
13 -14 29 -30 0
15 16 23 24 0
-15 16 -23 24 0
15 -16 23 -24 0
17 18 25 26 0
-17 18 -25 26 0
17 -18 25 -26 0
19 20 23 24 0
-19 20 -23 24 0
19 -20 23 -24 0
21 22 27 28 0
-21 22 -27 28 0
21 -22 27 -28 0
23 24 29 30 0
-23 24 -29 30 0
23 -24 29 -30 0
