c family=3-COL n=30 instance=3 seed=145502016 models=18
c order 6 10 5 27 23 18 13 2 25 20 17 3 14 26 16 15 8 1 19 9 7 12 24 22 28 30 29 21 11 4
c order 14 23 2 24 18 8 11 6 1 29 19 3 4 17 5 15 7 26 25 20 22 10 21 27 28 9 30 16 13 12
c order 20 9 19 3 23 15 28 26 25 27 1 29 30 16 13 21 7 10 14 18 11 12 6 2 24 17 4 8 22 5
c order 20 13 22 26 2 1 24 30 12 29 18 27 16 25 5 11 8 3 4 14 10 28 15 6 17 23 21 19 7 9
c order 24 6 22 21 9 25 3 13 20 2 16 29 12 27 23 15 26 11 19 17 14 1 30 7 8 18 28 10 4 5
c order 8 7 11 4 6 18 16 29 22 13 21 27 15 10 26 19 9 24 5 3 1 28 12 30 20 25 23 2 17 14
c order 10 19 7 1 21 8 22 4 27 25 20 24 16 3 23 29 14 12 17 15 9 11 26 6 2 30 5 28 13 18
c order 24 12 1 3 21 28 5 9 22 15 29 8 18 26 4 17 6 10 23 16 2 13 7 19 20 11 14 30 25 27
c order 4 20 10 22 2 16 26 6 17 28 5 8 23 15 25 14 18 24 11 19 13 29 12 1 21 3 30 7 9 27
c order 11 13 8 14 20 4 22 28 27 2 29 15 24 19 10 12 7 25 26 23 1 3 16 17 9 6 5 30 21 18
p cnf 30 111
-1 -2 0
-3 -4 0
-5 -6 0
-7 -8 0
-9 -10 0
-11 -12 0
-13 -14 0
-15 -16 0
-17 -18 0
-19 -20 0
-21 -22 0
-23 -24 0
-25 -26 0
-27 -28 0
-29 -30 0
1 2 9 10 0
-1 2 -9 10 0
1 -2 9 -10 0
1 2 11 12 0
-1 2 -11 12 0
1 -2 11 -12 0
1 2 25 26 0
-1 2 -25 26 0
1 -2 25 -26 0
3 4 25 26 0
-3 4 -25 26 0
3 -4 25 -26 0
3 4 27 28 0
-3 4 -27 28 0
3 -4 27 -28 0
5 6 9 10 0
-5 6 -9 10 0
5 -6 9 -10 0
5 6 11 12 0
-5 6 -11 12 0
5 -6 11 -12 0
5 6 13 14 0
-5 6 -13 14 0
5 -6 13 -14 0
5 6 15 16 0
-5 6 -15 16 0
5 -6 15 -16 0
5 6 21 22 0
-5 6 -21 22 0
5 -6 21 -22 0
7 8 15 16 0
-7 8 -15 16 0
7 -8 15 -16 0
7 8 21 22 0
-7 8 -21 22 0
7 -8 21 -22 0
7 8 27 28 0
-7 8 -27 28 0
7 -8 27 -28 0
7 8 29 30 0
-7 8 -29 30 0
7 -8 29 -30 0
9 10 15 16 0
-9 10 -15 16 0
9 -10 15 -16 0
9 10 19 20 0
-9 10 -19 20 0
9 -10 19 -20 0
9 10 27 28 0
-9 10 -27 28 0
9 -10 27 -28 0
11 12 15 16 0
-11 12 -15 16 0
11 -12 15 -16 0
11 12 17 18 0
-11 12 -17 18 0
11 -12 17 -18 0
11 12 25 26 0
-11 12 -25 26 0
11 -12 25 -26 0
11 12 29 30 0
-11 12 -29 30 0
11 -12 29 -30 0
13 14 17 18 0
-13 14 -17 18 0
13 -14 17 -18 0
13 14 19 20 0
-13 14 -19 20 0
13 -14 19 -20 0
13 14 21 22 0
-13 14 -21 22 0
13 -14 21 -22 0
13 14 27 28 0
-13 14 -27 28 0
13 -14 27 -28 0
13 14 29 30 0
-13 14 -29 30 0
13 -14 29 -30 0
15 16 19 20 0
-15 16 -19 20 0
15 -16 19 -20 0
17 18 19 20 0
-17 18 -19 20 0
17 -18 19 -20 0
17 18 27 28 0
-17 18 -27 28 0
17 -18 27 -28 0
17 18 29 30 0
-17 18 -29 30 0
17 -18 29 -30 0
19 20 21 22 0
-19 20 -21 22 0
19 -20 21 -22 0
25 26 29 30 0
-25 26 -29 30 0
25 -26 29 -30 0
