c family=3-COL n=30 instance=8 seed=145502016 models=18
c order 15 21 17 5 12 27 10 16 4 30 2 7 3 6 18 14 11 9 8 23 19 20 28 29 26 24 22 25 1 13
c order 11 13 27 17 8 16 12 1 25 7 6 10 20 23 2 26 3 19 14 4 15 22 29 30 21 24 5 28 18 9
c order 1 26 6 28 13 5 16 19 21 29 2 23 24 22 4 25 30 18 10 17 14 15 7 9 27 8 3 11 20 12
c order 1 19 5 6 23 4 29 11 30 25 15 24 21 12 7 28 3 9 26 17 16 18 10 2 27 20 14 13 22 8
c order 5 28 22 9 19 17 25 23 1 13 24 14 11 26 12 2 4 21 20 29 15 3 16 18 30 10 8 6 7 27
c order 12 26 30 29 17 18 13 15 2 6 5 22 25 16 7 11 21 8 19 9 1 14 20 3 4 27 24 10 28 23
c order 4 8 1 2 21 14 6 27 7 3 24 9 10 29 18 30 19 28 16 20 17 11 13 22 15 5 23 25 26 12
c order 28 29 21 13 22 5 3 20 25 11 26 18 15 19 30 8 1 7 24 9 12 17 10 6 27 23 14 2 16 4
c order 27 9 18 26 17 20 8 24 21 11 6 25 5 13 15 14 28 1 30 29 16 19 4 12 22 7 10 2 3 23
c order 24 22 25 9 15 29 14 6 27 10 7 19 28 18 21 16 12 23 11 8 26 1 4 13 20 17 3 30 5 2
p cnf 30 111
-1 -2 0
-3 -4 0
-5 -6 0
-7 -8 0
-9 -10 0
-11 -12 0
-13 -14 0
-15 -16 0
-17 -18 0
-19 -20 0
-21 -22 0
-23 -24 0
-25 -26 0
-27 -28 0
-29 -30 0
1 2 7 8 0
-1 2 -7 8 0
1 -2 7 -8 0
1 2 9 10 0
-1 2 -9 10 0
1 -2 9 -10 0
1 2 13 14 0
-1 2 -13 14 0
1 -2 13 -14 0
1 2 15 16 0
-1 2 -15 16 0
1 -2 15 -16 0
1 2 19 20 0
-1 2 -19 20 0
1 -2 19 -20 0
1 2 23 24 0
-1 2 -23 24 0
1 -2 23 -24 0
1 2 25 26 0
-1 2 -25 26 0
1 -2 25 -26 0
3 4 9 10 0
-3 4 -9 10 0
3 -4 9 -10 0
3 4 15 16 0
-3 4 -15 16 0
3 -4 15 -16 0
3 4 19 20 0
-3 4 -19 20 0
3 -4 19 -20 0
3 4 25 26 0
-3 4 -25 26 0
3 -4 25 -26 0
5 6 15 16 0
-5 6 -15 16 0
5 -6 15 -16 0
5 6 17 18 0
-5 6 -17 18 0
5 -6 17 -18 0
7 8 17 18 0
-7 8 -17 18 0
7 -8 17 -18 0
7 8 21 22 0
-7 8 -21 22 0
7 -8 21 -22 0
7 8 25 26 0
-7 8 -25 26 0
7 -8 25 -26 0
9 10 17 18 0
-9 10 -17 18 0
9 -10 17 -18 0
9 10 19 20 0
-9 10 -19 20 0
9 -10 19 -20 0
9 10 21 22 0
-9 10 -21 22 0
9 -10 21 -22 0
9 10 27 28 0
-9 10 -27 28 0
9 -10 27 -28 0
11 12 13 14 0
-11 12 -13 14 0
11 -12 13 -14 0
11 12 25 26 0
-11 12 -25 26 0
11 -12 25 -26 0
11 12 29 30 0
-11 12 -29 30 0
11 -12 29 -30 0
13 14 15 16 0
-13 14 -15 16 0
13 -14 15 -16 0
13 14 21 22 0
-13 14 -21 22 0
13 -14 21 -22 0
13 14 27 28 0
-13 14 -27 28 0
13 -14 27 -28 0
19 20 25 26 0
-19 20 -25 26 0
19 -20 25 -26 0
19 20 27 28 0
-19 20 -27 28 0
19 -20 27 -28 0
19 20 29 30 0
-19 20 -29 30 0
19 -20 29 -30 0
21 22 23 24 0
-21 22 -23 24 0
21 -22 23 -24 0
21 22 29 30 0
-21 22 -29 30 0
21 -22 29 -30 0
23 24 25 26 0
-23 24 -25 26 0
23 -24 25 -26 0
