c family=3-COL n=30 instance=2 seed=145502016 models=24
c order 14 27 3 26 19 11 25 1 18 15 2 23 30 4 6 28 12 5 16 24 29 13 20 8 17 22 7 9 10 21
c order 23 30 10 19 5 2 22 15 6 20 1 3 12 16 9 29 8 13 26 4 18 7 14 24 11 21 27 25 28 17
c order 18 13 15 25 29 1 26 30 23 20 9 6 24 8 2 17 14 4 16 28 7 27 12 19 21 11 3 22 10 5
c order 21 29 9 17 30 10 6 19 4 8 28 27 15 5 7 20 16 2 14 25 1 13 22 3 23 18 24 26 12 11
c order 14 19 21 7 17 26 15 12 28 4 13 10 23 29 25 11 16 5 1 27 2 24 6 18 30 22 8 3 20 9
c order 25 23 22 16 10 9 26 29 17 3 20 11 30 18 24 6 15 21 14 28 8 12 2 5 4 7 27 1 13 19
c order 9 20 25 3 18 13 1 7 26 24 12 21 8 30 6 29 28 14 16 27 23 17 19 2 5 11 22 10 15 4
c order 5 27 14 8 18 21 20 10 24 16 26 3 11 4 28 7 23 29 9 15 12 19 6 1 25 17 2 13 22 30
c order 14 4 26 21 19 30 9 24 13 29 5 8 25 18 1 23 16 28 2 20 6 10 22 11 27 12 3 15 17 7
c order 3 29 5 2 11 10 6 18 23 9 21 26 24 15 19 7 8 1 13 27 25 4 14 16 20 22 12 28 17 30
p cnf 30 111
-1 -2 0
-3 -4 0
-5 -6 0
-7 -8 0
-9 -10 0
-11 -12 0
-13 -14 0
-15 -16 0
-17 -18 0
-19 -20 0
-21 -22 0
-23 -24 0
-25 -26 0
-27 -28 0
-29 -30 0
1 2 5 6 0
-1 2 -5 6 0
1 -2 5 -6 0
1 2 19 20 0
-1 2 -19 20 0
1 -2 19 -20 0
1 2 23 24 0
-1 2 -23 24 0
1 -2 23 -24 0
1 2 25 26 0
-1 2 -25 26 0
1 -2 25 -26 0
1 2 29 30 0
-1 2 -29 30 0
1 -2 29 -30 0
3 4 7 8 0
-3 4 -7 8 0
3 -4 7 -8 0
3 4 11 12 0
-3 4 -11 12 0
3 -4 11 -12 0
3 4 21 22 0
-3 4 -21 22 0
3 -4 21 -22 0
3 4 29 30 0
-3 4 -29 30 0
3 -4 29 -30 0
5 6 11 12 0
-5 6 -11 12 0
5 -6 11 -12 0
5 6 15 16 0
-5 6 -15 16 0
5 -6 15 -16 0
5 6 17 18 0
-5 6 -17 18 0
5 -6 17 -18 0
5 6 21 22 0
-5 6 -21 22 0
5 -6 21 -22 0
5 6 27 28 0
-5 6 -27 28 0
5 -6 27 -28 0
5 6 29 30 0
-5 6 -29 30 0
5 -6 29 -30 0
7 8 9 10 0
-7 8 -9 10 0
7 -8 9 -10 0
7 8 19 20 0
-7 8 -19 20 0
7 -8 19 -20 0
7 8 27 28 0
-7 8 -27 28 0
7 -8 27 -28 0
7 8 29 30 0
-7 8 -29 30 0
7 -8 29 -30 0
9 10 13 14 0
-9 10 -13 14 0
9 -10 13 -14 0
9 10 17 18 0
-9 10 -17 18 0
9 -10 17 -18 0
11 12 23 24 0
-11 12 -23 24 0
11 -12 23 -24 0
11 12 25 26 0
-11 12 -25 26 0
11 -12 25 -26 0
13 14 17 18 0
-13 14 -17 18 0
13 -14 17 -18 0
13 14 23 24 0
-13 14 -23 24 0
13 -14 23 -24 0
13 14 27 28 0
-13 14 -27 28 0
13 -14 27 -28 0
13 14 29 30 0
-13 14 -29 30 0
13 -14 29 -30 0
15 16 29 30 0
-15 16 -29 30 0
15 -16 29 -30 0
17 18 23 24 0
-17 18 -23 24 0
17 -18 23 -24 0
17 18 25 26 0
-17 18 -25 26 0
17 -18 25 -26 0
19 20 27 28 0
-19 20 -27 28 0
19 -20 27 -28 0
21 22 29 30 0
-21 22 -29 30 0
21 -22 29 -30 0
