c family=3-COL n=36 instance=3 seed=145502016 models=12
c order 25 11 21 29 5 4 27 10 22 32 2 20 12 30 9 13 28 36 3 14 35 15 16 34 17 26 1 31 18 6 24 19 23 33 7 8
c order 30 8 21 14 35 22 16 18 12 29 26 28 27 33 17 15 7 3 13 11 5 34 23 24 4 9 20 2 1 19 32 10 36 31 25 6
c order 6 26 34 33 28 12 31 18 21 32 29 36 24 25 27 4 7 1 30 35 23 16 9 19 22 8 13 2 15 20 5 11 10 17 3 14
c order 34 3 20 35 33 32 19 30 11 25 4 16 12 24 1 22 28 26 27 18 23 14 2 10 6 15 29 7 5 8 31 36 13 17 9 21
c order 27 4 5 28 11 33 9 6 30 32 7 31 2 15 19 12 23 3 1 8 35 16 13 22 18 14 26 36 20 17 29 25 10 24 34 21
c order 14 10 31 25 19 30 12 3 1 35 29 36 27 2 17 23 6 16 15 26 18 21 22 20 34 11 32 13 9 33 5 7 24 4 8 28
c order 8 5 27 16 33 26 6 31 13 34 25 20 36 2 4 19 18 30 22 24 35 10 11 14 15 17 9 7 21 3 29 1 28 12 32 23
c order 28 14 20 1 15 6 18 31 9 5 29 13 36 21 11 23 8 2 17 22 16 19 35 26 3 34 24 30 33 27 10 25 32 4 12 7
c order 24 36 9 31 6 15 34 11 21 28 10 16 14 26 1 33 25 2 27 23 18 7 20 4 32 17 3 8 13 35 5 19 12 22 30 29
c order 5 22 2 18 30 14 34 13 31 33 36 15 12 32 21 27 8 29 9 7 6 28 3 11 17 1 4 26 25 23 16 35 24 10 19 20
p cnf 36 132
-1 -2 0
-3 -4 0
-5 -6 0
-7 -8 0
-9 -10 0
-11 -12 0
-13 -14 0
-15 -16 0
-17 -18 0
-19 -20 0
-21 -22 0
-23 -24 0
-25 -26 0
-27 -28 0
-29 -30 0
-31 -32 0
-33 -34 0
-35 -36 0
1 2 9 10 0
-1 2 -9 10 0
1 -2 9 -10 0
1 2 13 14 0
-1 2 -13 14 0
1 -2 13 -14 0
1 2 19 20 0
-1 2 -19 20 0
1 -2 19 -20 0
1 2 29 30 0
-1 2 -29 30 0
1 -2 29 -30 0
3 4 5 6 0
-3 4 -5 6 0
3 -4 5 -6 0
3 4 7 8 0
-3 4 -7 8 0
3 -4 7 -8 0
3 4 19 20 0
-3 4 -19 20 0
3 -4 19 -20 0
3 4 25 26 0
-3 4 -25 26 0
3 -4 25 -26 0
3 4 35 36 0
-3 4 -35 36 0
3 -4 35 -36 0
5 6 9 10 0
-5 6 -9 10 0
5 -6 9 -10 0
5 6 35 36 0
-5 6 -35 36 0
5 -6 35 -36 0
7 8 21 22 0
-7 8 -21 22 0
7 -8 21 -22 0
7 8 27 28 0
-7 8 -27 28 0
7 -8 27 -28 0
7 8 31 32 0
-7 8 -31 32 0
7 -8 31 -32 0
7 8 35 36 0
-7 8 -35 36 0
7 -8 35 -36 0
9 10 19 20 0
-9 10 -19 20 0
9 -10 19 -20 0
9 10 21 22 0
-9 10 -21 22 0
9 -10 21 -22 0
9 10 35 36 0
-9 10 -35 36 0
9 -10 35 -36 0
11 12 13 14 0
-11 12 -13 14 0
11 -12 13 -14 0
11 12 19 20 0
-11 12 -19 20 0
11 -12 19 -20 0
11 12 21 22 0
-11 12 -21 22 0
11 -12 21 -22 0
13 14 19 20 0
-13 14 -19 20 0
13 -14 19 -20 0
13 14 35 36 0
-13 14 -35 36 0
13 -14 35 -36 0
15 16 17 18 0
-15 16 -17 18 0
15 -16 17 -18 0
15 16 23 24 0
-15 16 -23 24 0
15 -16 23 -24 0
17 18 19 20 0
-17 18 -19 20 0
17 -18 19 -20 0
17 18 23 24 0
-17 18 -23 24 0
17 -18 23 -24 0
17 18 25 26 0
-17 18 -25 26 0
17 -18 25 -26 0
17 18 27 28 0
-17 18 -27 28 0
17 -18 27 -28 0
19 20 25 26 0
-19 20 -25 26 0
19 -20 25 -26 0
19 20 31 32 0
-19 20 -31 32 0
19 -20 31 -32 0
19 20 33 34 0
-19 20 -33 34 0
19 -20 33 -34 0
21 22 31 32 0
-21 22 -31 32 0
21 -22 31 -32 0
23 24 31 32 0
-23 24 -31 32 0
23 -24 31 -32 0
23 24 33 34 0
-23 24 -33 34 0
23 -24 33 -34 0
23 24 35 36 0
-23 24 -35 36 0
23 -24 35 -36 0
25 26 27 28 0
-25 26 -27 28 0
25 -26 27 -28 0
31 32 35 36 0
-31 32 -35 36 0
31 -32 35 -36 0
