c family=3-COL n=36 instance=1 seed=145502016 models=102
c order 23 26 20 25 4 5 24 9 36 6 18 27 32 1 3 11 7 31 15 19 14 29 10 13 28 33 30 17 2 22 16 34 35 21 12 8
c order 8 26 18 27 3 30 7 33 2 23 25 15 36 17 16 21 13 35 12 22 20 34 24 5 9 28 31 32 6 11 10 19 1 4 29 14
c order 7 13 28 17 8 2 5 3 15 36 9 23 30 32 31 21 14 34 27 24 26 25 12 18 22 6 33 16 35 10 4 11 29 19 20 1
c order 11 18 4 2 16 3 25 7 6 26 17 15 33 13 24 8 10 31 34 5 20 1 29 12 22 19 30 35 32 9 28 23 36 27 21 14
c order 9 19 20 6 17 5 22 13 10 34 8 3 15 1 24 27 25 36 32 21 33 18 26 2 11 14 4 16 29 28 12 31 30 7 23 35
c order 29 13 30 25 26 34 33 4 31 23 22 19 9 2 7 24 32 28 21 36 10 8 6 27 12 20 35 16 17 18 14 11 3 1 5 15
c order 29 35 19 21 26 6 2 17 32 28 14 31 13 25 22 9 10 18 5 36 7 3 4 1 33 27 16 15 30 12 8 11 23 20 34 24
c order 12 6 7 11 9 32 15 34 23 14 8 26 30 2 29 20 16 3 18 21 36 1 4 22 5 31 10 17 27 35 28 13 24 25 33 19
c order 8 10 21 32 2 29 17 27 25 28 36 31 15 24 12 34 14 6 11 9 13 4 20 33 30 19 1 16 26 22 23 3 7 35 5 18
c order 36 10 24 30 16 3 22 1 23 34 18 13 4 12 26 20 28 8 31 5 6 27 14 15 32 19 29 25 21 9 17 35 7 33 2 11
p cnf 36 132
-1 -2 0
-3 -4 0
-5 -6 0
-7 -8 0
-9 -10 0
-11 -12 0
-13 -14 0
-15 -16 0
-17 -18 0
-19 -20 0
-21 -22 0
-23 -24 0
-25 -26 0
-27 -28 0
-29 -30 0
-31 -32 0
-33 -34 0
-35 -36 0
1 2 5 6 0
-1 2 -5 6 0
1 -2 5 -6 0
1 2 11 12 0
-1 2 -11 12 0
1 -2 11 -12 0
1 2 31 32 0
-1 2 -31 32 0
1 -2 31 -32 0
3 4 13 14 0
-3 4 -13 14 0
3 -4 13 -14 0
3 4 15 16 0
-3 4 -15 16 0
3 -4 15 -16 0
3 4 23 24 0
-3 4 -23 24 0
3 -4 23 -24 0
3 4 25 26 0
-3 4 -25 26 0
3 -4 25 -26 0
3 4 27 28 0
-3 4 -27 28 0
3 -4 27 -28 0
3 4 29 30 0
-3 4 -29 30 0
3 -4 29 -30 0
5 6 13 14 0
-5 6 -13 14 0
5 -6 13 -14 0
5 6 17 18 0
-5 6 -17 18 0
5 -6 17 -18 0
5 6 23 24 0
-5 6 -23 24 0
5 -6 23 -24 0
7 8 9 10 0
-7 8 -9 10 0
7 -8 9 -10 0
7 8 13 14 0
-7 8 -13 14 0
7 -8 13 -14 0
7 8 29 30 0
-7 8 -29 30 0
7 -8 29 -30 0
9 10 17 18 0
-9 10 -17 18 0
9 -10 17 -18 0
9 10 21 22 0
-9 10 -21 22 0
9 -10 21 -22 0
9 10 35 36 0
-9 10 -35 36 0
9 -10 35 -36 0
11 12 15 16 0
-11 12 -15 16 0
11 -12 15 -16 0
11 12 27 28 0
-11 12 -27 28 0
11 -12 27 -28 0
11 12 29 30 0
-11 12 -29 30 0
11 -12 29 -30 0
13 14 15 16 0
-13 14 -15 16 0
13 -14 15 -16 0
13 14 29 30 0
-13 14 -29 30 0
13 -14 29 -30 0
15 16 23 24 0
-15 16 -23 24 0
15 -16 23 -24 0
15 16 33 34 0
-15 16 -33 34 0
15 -16 33 -34 0
15 16 35 36 0
-15 16 -35 36 0
15 -16 35 -36 0
17 18 19 20 0
-17 18 -19 20 0
17 -18 19 -20 0
17 18 31 32 0
-17 18 -31 32 0
17 -18 31 -32 0
19 20 27 28 0
-19 20 -27 28 0
19 -20 27 -28 0
21 22 23 24 0
-21 22 -23 24 0
21 -22 23 -24 0
21 22 33 34 0
-21 22 -33 34 0
21 -22 33 -34 0
21 22 35 36 0
-21 22 -35 36 0
21 -22 35 -36 0
25 26 27 28 0
-25 26 -27 28 0
25 -26 27 -28 0
25 26 35 36 0
-25 26 -35 36 0
25 -26 35 -36 0
27 28 33 34 0
-27 28 -33 34 0
27 -28 33 -34 0
27 28 35 36 0
-27 28 -35 36 0
27 -28 35 -36 0
29 30 35 36 0
-29 30 -35 36 0
29 -30 35 -36 0
31 32 33 34 0
-31 32 -33 34 0
31 -32 33 -34 0
