c family=3-COL n=36 instance=7 seed=145502016 models=12
c order 14 30 10 34 25 24 21 19 22 16 36 32 27 3 29 4 17 23 15 33 12 26 13 6 8 9 20 5 28 18 2 35 1 31 11 7
c order 33 3 1 11 4 14 7 9 6 21 12 25 13 17 36 32 31 5 10 19 26 22 28 34 2 20 30 27 18 8 15 35 16 24 29 23
c order 2 21 16 34 25 8 31 13 18 1 10 30 11 29 23 4 9 27 3 15 33 12 17 36 7 14 28 5 20 22 19 24 32 35 6 26
c order 16 2 26 11 17 27 23 3 29 13 19 6 15 20 25 35 33 14 9 28 5 21 18 1 34 22 36 24 10 30 4 31 12 7 32 8
c order 2 29 30 13 17 23 3 22 35 1 9 19 6 33 15 25 27 4 11 14 10 26 7 31 8 5 34 16 12 20 36 32 18 21 28 24
c order 2 11 12 20 25 10 13 19 8 14 26 5 27 31 21 17 30 1 36 22 3 32 34 24 33 7 4 15 35 28 29 18 16 6 23 9
c order 10 15 2 27 20 8 11 32 31 28 5 23 29 3 30 35 22 16 13 24 21 7 12 18 25 17 34 4 33 9 6 1 36 26 19 14
c order 6 23 28 3 19 16 2 5 27 25 26 31 8 1 32 30 22 7 21 36 9 29 18 14 15 11 24 4 35 33 13 20 34 17 12 10
c order 13 21 9 12 17 6 29 22 19 24 10 34 30 23 32 27 16 15 33 8 11 2 3 5 4 35 14 1 36 18 28 20 31 7 26 25
c order 24 20 6 13 33 23 4 35 18 10 21 30 22 19 8 3 25 1 27 28 15 31 2 17 36 11 34 16 9 7 26 32 5 29 12 14
p cnf 36 132
-1 -2 0
-3 -4 0
-5 -6 0
-7 -8 0
-9 -10 0
-11 -12 0
-13 -14 0
-15 -16 0
-17 -18 0
-19 -20 0
-21 -22 0
-23 -24 0
-25 -26 0
-27 -28 0
-29 -30 0
-31 -32 0
-33 -34 0
-35 -36 0
1 2 5 6 0
-1 2 -5 6 0
1 -2 5 -6 0
1 2 11 12 0
-1 2 -11 12 0
1 -2 11 -12 0
1 2 13 14 0
-1 2 -13 14 0
1 -2 13 -14 0
1 2 19 20 0
-1 2 -19 20 0
1 -2 19 -20 0
1 2 23 24 0
-1 2 -23 24 0
1 -2 23 -24 0
1 2 33 34 0
-1 2 -33 34 0
1 -2 33 -34 0
3 4 7 8 0
-3 4 -7 8 0
3 -4 7 -8 0
3 4 27 28 0
-3 4 -27 28 0
3 -4 27 -28 0
3 4 35 36 0
-3 4 -35 36 0
3 -4 35 -36 0
5 6 19 20 0
-5 6 -19 20 0
5 -6 19 -20 0
7 8 13 14 0
-7 8 -13 14 0
7 -8 13 -14 0
7 8 21 22 0
-7 8 -21 22 0
7 -8 21 -22 0
7 8 29 30 0
-7 8 -29 30 0
7 -8 29 -30 0
9 10 15 16 0
-9 10 -15 16 0
9 -10 15 -16 0
9 10 21 22 0
-9 10 -21 22 0
9 -10 21 -22 0
9 10 29 30 0
-9 10 -29 30 0
9 -10 29 -30 0
11 12 13 14 0
-11 12 -13 14 0
11 -12 13 -14 0
11 12 15 16 0
-11 12 -15 16 0
11 -12 15 -16 0
11 12 17 18 0
-11 12 -17 18 0
11 -12 17 -18 0
11 12 23 24 0
-11 12 -23 24 0
11 -12 23 -24 0
11 12 25 26 0
-11 12 -25 26 0
11 -12 25 -26 0
13 14 15 16 0
-13 14 -15 16 0
13 -14 15 -16 0
13 14 17 18 0
-13 14 -17 18 0
13 -14 17 -18 0
13 14 21 22 0
-13 14 -21 22 0
13 -14 21 -22 0
13 14 35 36 0
-13 14 -35 36 0
13 -14 35 -36 0
15 16 21 22 0
-15 16 -21 22 0
15 -16 21 -22 0
15 16 27 28 0
-15 16 -27 28 0
15 -16 27 -28 0
19 20 21 22 0
-19 20 -21 22 0
19 -20 21 -22 0
19 20 31 32 0
-19 20 -31 32 0
19 -20 31 -32 0
19 20 35 36 0
-19 20 -35 36 0
19 -20 35 -36 0
21 22 23 24 0
-21 22 -23 24 0
21 -22 23 -24 0
21 22 25 26 0
-21 22 -25 26 0
21 -22 25 -26 0
21 22 31 32 0
-21 22 -31 32 0
21 -22 31 -32 0
21 22 33 34 0
-21 22 -33 34 0
21 -22 33 -34 0
21 22 35 36 0
-21 22 -35 36 0
21 -22 35 -36 0
23 24 29 30 0
-23 24 -29 30 0
23 -24 29 -30 0
25 26 33 34 0
-25 26 -33 34 0
25 -26 33 -34 0
27 28 35 36 0
-27 28 -35 36 0
27 -28 35 -36 0
