c family=3-COL n=36 instance=9 seed=145502016 models=72
c order 2 19 28 15 26 24 27 3 11 7 6 5 12 22 32 23 33 18 35 20 16 14 17 21 34 25 29 8 9 31 10 30 1 4 13 36
c order 31 20 6 7 8 15 32 34 4 18 13 30 29 5 11 23 24 27 28 10 26 12 36 1 33 19 25 22 17 3 9 14 21 16 35 2
c order 20 35 32 2 8 16 29 11 19 15 33 13 34 23 21 27 9 18 14 30 26 1 17 22 31 5 12 7 25 6 28 3 10 4 24 36
c order 25 6 29 32 30 27 18 35 33 12 10 20 4 34 9 1 24 7 3 13 5 22 15 17 16 28 2 23 21 19 11 31 14 8 26 36
c order 16 7 4 9 36 8 11 27 1 14 29 17 19 32 33 15 25 20 28 35 22 24 34 10 18 5 31 30 12 6 21 26 2 23 13 3
c order 20 17 6 15 29 16 36 8 1 25 32 33 34 2 35 7 22 13 18 26 12 5 28 31 4 21 10 27 30 9 11 23 19 24 14 3
c order 35 11 24 27 31 15 19 36 26 6 22 5 9 30 3 1 32 2 34 17 25 33 20 29 4 28 23 13 12 16 8 7 18 10 14 21
c order 1 31 26 4 12 33 17 8 9 16 19 14 13 22 30 27 18 23 24 29 28 34 15 25 5 36 20 2 10 21 32 6 7 11 3 35
c order 3 6 2 33 15 12 4 22 11 35 21 23 32 24 31 7 20 29 28 26 16 36 9 27 19 13 1 8 25 18 5 34 30 14 17 10
c order 20 3 30 2 5 1 25 29 32 19 17 13 33 31 22 26 16 7 24 9 6 35 12 8 28 15 27 4 14 10 23 18 36 11 21 34
p cnf 36 132
-1 -2 0
-3 -4 0
-5 -6 0
-7 -8 0
-9 -10 0
-11 -12 0
-13 -14 0
-15 -16 0
-17 -18 0
-19 -20 0
-21 -22 0
-23 -24 0
-25 -26 0
-27 -28 0
-29 -30 0
-31 -32 0
-33 -34 0
-35 -36 0
1 2 7 8 0
-1 2 -7 8 0
1 -2 7 -8 0
1 2 11 12 0
-1 2 -11 12 0
1 -2 11 -12 0
3 4 11 12 0
-3 4 -11 12 0
3 -4 11 -12 0
3 4 13 14 0
-3 4 -13 14 0
3 -4 13 -14 0
3 4 25 26 0
-3 4 -25 26 0
3 -4 25 -26 0
3 4 27 28 0
-3 4 -27 28 0
3 -4 27 -28 0
5 6 7 8 0
-5 6 -7 8 0
5 -6 7 -8 0
5 6 23 24 0
-5 6 -23 24 0
5 -6 23 -24 0
5 6 27 28 0
-5 6 -27 28 0
5 -6 27 -28 0
5 6 29 30 0
-5 6 -29 30 0
5 -6 29 -30 0
7 8 9 10 0
-7 8 -9 10 0
7 -8 9 -10 0
7 8 11 12 0
-7 8 -11 12 0
7 -8 11 -12 0
7 8 13 14 0
-7 8 -13 14 0
7 -8 13 -14 0
7 8 15 16 0
-7 8 -15 16 0
7 -8 15 -16 0
7 8 19 20 0
-7 8 -19 20 0
7 -8 19 -20 0
7 8 27 28 0
-7 8 -27 28 0
7 -8 27 -28 0
7 8 33 34 0
-7 8 -33 34 0
7 -8 33 -34 0
9 10 11 12 0
-9 10 -11 12 0
9 -10 11 -12 0
9 10 31 32 0
-9 10 -31 32 0
9 -10 31 -32 0
11 12 15 16 0
-11 12 -15 16 0
11 -12 15 -16 0
11 12 27 28 0
-11 12 -27 28 0
11 -12 27 -28 0
11 12 35 36 0
-11 12 -35 36 0
11 -12 35 -36 0
13 14 15 16 0
-13 14 -15 16 0
13 -14 15 -16 0
13 14 27 28 0
-13 14 -27 28 0
13 -14 27 -28 0
13 14 31 32 0
-13 14 -31 32 0
13 -14 31 -32 0
13 14 35 36 0
-13 14 -35 36 0
13 -14 35 -36 0
15 16 21 22 0
-15 16 -21 22 0
15 -16 21 -22 0
15 16 23 24 0
-15 16 -23 24 0
15 -16 23 -24 0
15 16 29 30 0
-15 16 -29 30 0
15 -16 29 -30 0
15 16 31 32 0
-15 16 -31 32 0
15 -16 31 -32 0
17 18 21 22 0
-17 18 -21 22 0
17 -18 21 -22 0
17 18 33 34 0
-17 18 -33 34 0
17 -18 33 -34 0
19 20 29 30 0
-19 20 -29 30 0
19 -20 29 -30 0
21 22 29 30 0
-21 22 -29 30 0
21 -22 29 -30 0
21 22 31 32 0
-21 22 -31 32 0
21 -22 31 -32 0
23 24 33 34 0
-23 24 -33 34 0
23 -24 33 -34 0
27 28 31 32 0
-27 28 -31 32 0
27 -28 31 -32 0
29 30 35 36 0
-29 30 -35 36 0
29 -30 35 -36 0
