c family=3-COL n=36 instance=2 seed=145502016 models=24
c order 18 4 32 1 31 23 19 27 33 29 6 28 13 15 34 11 24 26 8 14 36 2 12 5 3 21 20 17 35 10 25 7 22 16 9 30
c order 25 30 24 15 26 33 19 14 10 5 4 7 3 18 17 1 20 6 22 28 2 9 8 34 29 23 31 36 27 13 32 16 21 11 12 35
c order 33 5 32 14 30 31 18 13 6 34 1 35 15 10 12 23 8 25 21 2 9 29 4 27 26 28 36 19 24 3 16 20 17 7 22 11
c order 31 22 10 30 7 2 11 33 17 4 36 18 23 25 28 13 24 6 29 16 20 26 35 21 15 14 3 34 1 27 8 19 32 5 9 12
c order 27 26 31 28 14 4 18 11 9 22 20 19 17 3 36 35 12 16 33 34 2 10 13 24 23 6 5 30 25 15 8 21 32 1 29 7
c order 13 18 23 14 36 21 24 16 22 29 12 15 32 35 2 27 10 30 25 34 5 17 26 19 28 9 8 31 20 11 7 33 4 1 3 6
c order 5 34 13 31 1 18 36 19 26 17 21 9 20 3 24 35 33 4 11 28 30 2 12 27 23 29 8 14 32 7 10 22 25 16 6 15
c order 28 22 35 36 5 16 25 11 21 8 20 6 30 1 27 13 2 24 3 18 9 26 31 14 33 34 12 19 7 15 29 10 17 32 23 4
c order 35 2 1 9 36 6 22 15 3 26 11 29 34 21 14 12 19 25 30 10 32 31 33 20 16 13 4 17 5 18 27 28 7 8 23 24
c order 34 12 9 16 25 4 29 23 8 33 14 10 1 19 2 36 17 31 18 20 22 26 30 32 3 24 6 11 7 35 5 13 15 21 28 27
p cnf 36 132
-1 -2 0
-3 -4 0
-5 -6 0
-7 -8 0
-9 -10 0
-11 -12 0
-13 -14 0
-15 -16 0
-17 -18 0
-19 -20 0
-21 -22 0
-23 -24 0
-25 -26 0
-27 -28 0
-29 -30 0
-31 -32 0
-33 -34 0
-35 -36 0
1 2 9 10 0
-1 2 -9 10 0
1 -2 9 -10 0
1 2 11 12 0
-1 2 -11 12 0
1 -2 11 -12 0
1 2 31 32 0
-1 2 -31 32 0
1 -2 31 -32 0
1 2 35 36 0
-1 2 -35 36 0
1 -2 35 -36 0
3 4 7 8 0
-3 4 -7 8 0
3 -4 7 -8 0
3 4 17 18 0
-3 4 -17 18 0
3 -4 17 -18 0
3 4 23 24 0
-3 4 -23 24 0
3 -4 23 -24 0
3 4 27 28 0
-3 4 -27 28 0
3 -4 27 -28 0
5 6 9 10 0
-5 6 -9 10 0
5 -6 9 -10 0
5 6 15 16 0
-5 6 -15 16 0
5 -6 15 -16 0
5 6 31 32 0
-5 6 -31 32 0
5 -6 31 -32 0
5 6 33 34 0
-5 6 -33 34 0
5 -6 33 -34 0
5 6 35 36 0
-5 6 -35 36 0
5 -6 35 -36 0
9 10 15 16 0
-9 10 -15 16 0
9 -10 15 -16 0
9 10 23 24 0
-9 10 -23 24 0
9 -10 23 -24 0
11 12 13 14 0
-11 12 -13 14 0
11 -12 13 -14 0
11 12 35 36 0
-11 12 -35 36 0
11 -12 35 -36 0
13 14 17 18 0
-13 14 -17 18 0
13 -14 17 -18 0
13 14 19 20 0
-13 14 -19 20 0
13 -14 19 -20 0
13 14 29 30 0
-13 14 -29 30 0
13 -14 29 -30 0
13 14 31 32 0
-13 14 -31 32 0
13 -14 31 -32 0
15 16 19 20 0
-15 16 -19 20 0
15 -16 19 -20 0
15 16 25 26 0
-15 16 -25 26 0
15 -16 25 -26 0
15 16 27 28 0
-15 16 -27 28 0
15 -16 27 -28 0
15 16 35 36 0
-15 16 -35 36 0
15 -16 35 -36 0
17 18 23 24 0
-17 18 -23 24 0
17 -18 23 -24 0
17 18 29 30 0
-17 18 -29 30 0
17 -18 29 -30 0
19 20 21 22 0
-19 20 -21 22 0
19 -20 21 -22 0
19 20 31 32 0
-19 20 -31 32 0
19 -20 31 -32 0
21 22 25 26 0
-21 22 -25 26 0
21 -22 25 -26 0
21 22 31 32 0
-21 22 -31 32 0
21 -22 31 -32 0
23 24 29 30 0
-23 24 -29 30 0
23 -24 29 -30 0
23 24 31 32 0
-23 24 -31 32 0
23 -24 31 -32 0
25 26 29 30 0
-25 26 -29 30 0
25 -26 29 -30 0
25 26 31 32 0
-25 26 -31 32 0
25 -26 31 -32 0
25 26 33 34 0
-25 26 -33 34 0
25 -26 33 -34 0
27 28 33 34 0
-27 28 -33 34 0
27 -28 33 -34 0
29 30 35 36 0
-29 30 -35 36 0
29 -30 35 -36 0
