c family=3-COL n=36 instance=4 seed=145502016 models=60
c order 26 35 3 16 11 33 12 22 27 18 4 20 36 28 32 34 29 10 24 23 19 5 21 9 6 15 13 1 2 8 14 7 30 31 17 25
c order 31 34 29 16 17 26 36 22 7 13 24 14 15 10 20 11 27 12 5 23 1 9 35 30 6 32 33 8 25 3 28 19 2 4 21 18
c order 24 8 6 5 7 21 2 33 15 9 28 11 16 34 10 35 36 12 27 4 17 29 30 31 18 25 26 1 13 22 20 14 23 32 3 19
c order 15 27 3 34 16 19 31 6 20 35 13 1 33 2 17 32 8 9 11 4 14 22 12 30 29 36 5 28 23 18 21 7 25 10 26 24
c order 24 29 18 13 30 12 22 3 1 15 10 4 6 17 2 21 28 8 34 35 14 7 23 27 32 36 19 26 20 31 5 25 9 11 16 33
c order 11 1 17 16 30 12 27 28 33 31 9 25 29 22 21 10 4 13 19 32 34 26 2 23 8 14 5 36 3 6 35 7 15 24 20 18
c order 22 1 27 32 20 33 6 18 25 5 17 26 7 11 19 2 3 16 13 23 34 8 24 21 14 10 4 15 30 31 36 9 12 29 28 35
c order 21 26 35 15 18 4 36 33 16 1 19 13 10 12 24 29 7 9 17 31 30 5 32 8 27 14 28 23 2 25 22 3 20 6 11 34
c order 4 30 27 17 3 14 18 29 32 9 8 33 13 28 20 19 6 1 21 2 10 23 22 12 11 24 26 16 34 36 15 25 35 5 7 31
c order 2 33 20 12 4 36 3 5 21 24 7 30 13 25 31 16 23 27 14 34 22 17 28 26 19 18 6 9 15 29 8 35 32 10 11 1
p cnf 36 132
-1 -2 0
-3 -4 0
-5 -6 0
-7 -8 0
-9 -10 0
-11 -12 0
-13 -14 0
-15 -16 0
-17 -18 0
-19 -20 0
-21 -22 0
-23 -24 0
-25 -26 0
-27 -28 0
-29 -30 0
-31 -32 0
-33 -34 0
-35 -36 0
1 2 11 12 0
-1 2 -11 12 0
1 -2 11 -12 0
1 2 19 20 0
-1 2 -19 20 0
1 -2 19 -20 0
1 2 33 34 0
-1 2 -33 34 0
1 -2 33 -34 0
3 4 13 14 0
-3 4 -13 14 0
3 -4 13 -14 0
3 4 17 18 0
-3 4 -17 18 0
3 -4 17 -18 0
3 4 21 22 0
-3 4 -21 22 0
3 -4 21 -22 0
5 6 7 8 0
-5 6 -7 8 0
5 -6 7 -8 0
5 6 11 12 0
-5 6 -11 12 0
5 -6 11 -12 0
5 6 13 14 0
-5 6 -13 14 0
5 -6 13 -14 0
5 6 29 30 0
-5 6 -29 30 0
5 -6 29 -30 0
5 6 33 34 0
-5 6 -33 34 0
5 -6 33 -34 0
7 8 9 10 0
-7 8 -9 10 0
7 -8 9 -10 0
7 8 11 12 0
-7 8 -11 12 0
7 -8 11 -12 0
7 8 15 16 0
-7 8 -15 16 0
7 -8 15 -16 0
7 8 23 24 0
-7 8 -23 24 0
7 -8 23 -24 0
9 10 13 14 0
-9 10 -13 14 0
9 -10 13 -14 0
9 10 25 26 0
-9 10 -25 26 0
9 -10 25 -26 0
9 10 29 30 0
-9 10 -29 30 0
9 -10 29 -30 0
11 12 13 14 0
-11 12 -13 14 0
11 -12 13 -14 0
11 12 17 18 0
-11 12 -17 18 0
11 -12 17 -18 0
11 12 19 20 0
-11 12 -19 20 0
11 -12 19 -20 0
11 12 31 32 0
-11 12 -31 32 0
11 -12 31 -32 0
13 14 21 22 0
-13 14 -21 22 0
13 -14 21 -22 0
13 14 33 34 0
-13 14 -33 34 0
13 -14 33 -34 0
15 16 17 18 0
-15 16 -17 18 0
15 -16 17 -18 0
15 16 27 28 0
-15 16 -27 28 0
15 -16 27 -28 0
17 18 21 22 0
-17 18 -21 22 0
17 -18 21 -22 0
17 18 23 24 0
-17 18 -23 24 0
17 -18 23 -24 0
19 20 27 28 0
-19 20 -27 28 0
19 -20 27 -28 0
19 20 35 36 0
-19 20 -35 36 0
19 -20 35 -36 0
21 22 25 26 0
-21 22 -25 26 0
21 -22 25 -26 0
21 22 29 30 0
-21 22 -29 30 0
21 -22 29 -30 0
23 24 25 26 0
-23 24 -25 26 0
23 -24 25 -26 0
23 24 35 36 0
-23 24 -35 36 0
23 -24 35 -36 0
25 26 29 30 0
-25 26 -29 30 0
25 -26 29 -30 0
27 28 35 36 0
-27 28 -35 36 0
27 -28 35 -36 0
29 30 31 32 0
-29 30 -31 32 0
29 -30 31 -32 0
29 30 35 36 0
-29 30 -35 36 0
29 -30 35 -36 0
