c family=3-COL n=36 instance=5 seed=145502016 models=54
c order 32 2 7 25 21 34 23 33 30 4 12 16 36 6 17 19 20 5 31 8 9 3 27 26 24 18 28 35 10 13 22 29 15 14 1 11
c order 1 15 9 19 17 3 8 13 11 12 10 23 28 29 24 4 18 31 36 6 7 25 32 22 26 2 34 35 5 30 16 33 21 14 27 20
c order 7 21 15 8 24 4 33 5 17 29 25 16 28 9 18 27 12 34 22 3 1 36 6 2 19 11 32 10 20 14 13 26 30 35 23 31
c order 23 2 14 17 32 31 8 10 5 18 34 6 20 24 33 26 30 11 3 1 9 29 16 28 12 4 21 25 7 22 36 19 13 35 27 15
c order 10 32 20 33 31 7 6 8 22 19 23 35 24 4 5 29 9 11 30 27 15 21 25 34 2 1 18 13 17 26 12 14 36 3 16 28
c order 15 35 6 24 8 18 23 27 29 16 26 13 31 25 33 4 36 17 10 12 1 7 30 9 14 22 2 3 28 34 20 21 11 32 5 19
c order 5 21 36 31 14 4 24 1 33 7 26 35 22 12 6 11 30 19 13 2 16 3 28 23 29 10 15 17 20 25 18 32 34 9 27 8
c order 29 16 36 11 32 18 31 30 1 9 3 6 25 21 14 34 4 20 15 19 28 35 23 10 26 7 24 12 13 33 17 8 27 2 5 22
c order 34 4 8 31 9 17 14 18 20 1 16 23 30 19 11 2 7 26 21 13 35 36 6 32 10 25 24 28 15 27 3 22 29 33 5 12
c order 16 35 12 13 33 20 7 3 34 28 32 31 10 15 21 22 26 19 1 14 30 2 9 27 4 8 36 25 17 5 29 24 6 18 23 11
p cnf 36 132
-1 -2 0
-3 -4 0
-5 -6 0
-7 -8 0
-9 -10 0
-11 -12 0
-13 -14 0
-15 -16 0
-17 -18 0
-19 -20 0
-21 -22 0
-23 -24 0
-25 -26 0
-27 -28 0
-29 -30 0
-31 -32 0
-33 -34 0
-35 -36 0
1 2 9 10 0
-1 2 -9 10 0
1 -2 9 -10 0
1 2 13 14 0
-1 2 -13 14 0
1 -2 13 -14 0
1 2 19 20 0
-1 2 -19 20 0
1 -2 19 -20 0
1 2 23 24 0
-1 2 -23 24 0
1 -2 23 -24 0
1 2 25 26 0
-1 2 -25 26 0
1 -2 25 -26 0
3 4 21 22 0
-3 4 -21 22 0
3 -4 21 -22 0
3 4 23 24 0
-3 4 -23 24 0
3 -4 23 -24 0
3 4 25 26 0
-3 4 -25 26 0
3 -4 25 -26 0
3 4 31 32 0
-3 4 -31 32 0
3 -4 31 -32 0
3 4 33 34 0
-3 4 -33 34 0
3 -4 33 -34 0
3 4 35 36 0
-3 4 -35 36 0
3 -4 35 -36 0
5 6 7 8 0
-5 6 -7 8 0
5 -6 7 -8 0
5 6 25 26 0
-5 6 -25 26 0
5 -6 25 -26 0
5 6 29 30 0
-5 6 -29 30 0
5 -6 29 -30 0
7 8 9 10 0
-7 8 -9 10 0
7 -8 9 -10 0
7 8 11 12 0
-7 8 -11 12 0
7 -8 11 -12 0
7 8 13 14 0
-7 8 -13 14 0
7 -8 13 -14 0
7 8 23 24 0
-7 8 -23 24 0
7 -8 23 -24 0
7 8 25 26 0
-7 8 -25 26 0
7 -8 25 -26 0
7 8 29 30 0
-7 8 -29 30 0
7 -8 29 -30 0
9 10 15 16 0
-9 10 -15 16 0
9 -10 15 -16 0
9 10 19 20 0
-9 10 -19 20 0
9 -10 19 -20 0
9 10 33 34 0
-9 10 -33 34 0
9 -10 33 -34 0
9 10 35 36 0
-9 10 -35 36 0
9 -10 35 -36 0
11 12 25 26 0
-11 12 -25 26 0
11 -12 25 -26 0
11 12 29 30 0
-11 12 -29 30 0
11 -12 29 -30 0
13 14 15 16 0
-13 14 -15 16 0
13 -14 15 -16 0
13 14 27 28 0
-13 14 -27 28 0
13 -14 27 -28 0
15 16 17 18 0
-15 16 -17 18 0
15 -16 17 -18 0
15 16 21 22 0
-15 16 -21 22 0
15 -16 21 -22 0
15 16 25 26 0
-15 16 -25 26 0
15 -16 25 -26 0
15 16 31 32 0
-15 16 -31 32 0
15 -16 31 -32 0
15 16 35 36 0
-15 16 -35 36 0
15 -16 35 -36 0
17 18 31 32 0
-17 18 -31 32 0
17 -18 31 -32 0
17 18 33 34 0
-17 18 -33 34 0
17 -18 33 -34 0
21 22 23 24 0
-21 22 -23 24 0
21 -22 23 -24 0
23 24 35 36 0
-23 24 -35 36 0
23 -24 35 -36 0
27 28 33 34 0
-27 28 -33 34 0
27 -28 33 -34 0
