c family=3-COL n=36 instance=0 seed=145502016 models=42
c order 9 36 2 7 34 4 13 5 33 21 25 3 20 8 19 29 28 24 1 10 15 30 18 22 31 11 27 32 14 12 16 6 23 17 35 26
c order 33 28 29 15 21 23 19 5 11 30 25 3 12 10 18 7 27 17 26 9 14 6 31 24 2 22 4 36 13 32 8 35 34 16 20 1
c order 16 7 11 17 10 5 18 33 19 6 12 8 23 25 30 14 31 26 28 21 24 20 34 13 32 3 27 36 35 1 29 4 22 9 15 2
c order 24 1 27 36 4 30 2 26 13 20 14 16 31 12 25 7 17 28 35 18 22 6 34 32 10 23 3 5 19 8 9 33 15 21 29 11
c order 27 24 7 20 34 19 25 5 35 11 1 23 2 12 17 16 29 15 13 26 18 33 3 9 30 6 10 36 28 14 8 21 4 32 22 31
c order 34 12 23 9 8 28 10 7 35 14 3 18 13 31 17 11 1 16 32 27 21 29 24 2 30 33 6 20 36 26 19 25 22 5 4 15
c order 3 5 17 21 31 29 15 14 20 33 36 25 13 18 27 24 26 8 12 1 28 23 11 35 7 4 34 22 9 19 10 30 16 32 2 6
c order 11 8 26 7 18 16 20 27 2 25 15 17 24 19 22 12 6 14 13 33 9 31 36 34 23 28 1 32 35 3 10 4 21 5 30 29
c order 30 7 29 25 13 1 9 28 11 5 8 2 19 22 6 31 23 34 35 12 14 24 18 3 27 33 4 15 21 36 26 20 16 17 10 32
c order 4 9 25 19 15 30 13 28 5 26 21 33 1 35 20 27 31 6 2 7 34 16 18 11 8 29 17 23 36 22 10 14 32 24 12 3
p cnf 36 132
-1 -2 0
-3 -4 0
-5 -6 0
-7 -8 0
-9 -10 0
-11 -12 0
-13 -14 0
-15 -16 0
-17 -18 0
-19 -20 0
-21 -22 0
-23 -24 0
-25 -26 0
-27 -28 0
-29 -30 0
-31 -32 0
-33 -34 0
-35 -36 0
1 2 5 6 0
-1 2 -5 6 0
1 -2 5 -6 0
1 2 11 12 0
-1 2 -11 12 0
1 -2 11 -12 0
1 2 17 18 0
-1 2 -17 18 0
1 -2 17 -18 0
1 2 21 22 0
-1 2 -21 22 0
1 -2 21 -22 0
1 2 27 28 0
-1 2 -27 28 0
1 -2 27 -28 0
3 4 9 10 0
-3 4 -9 10 0
3 -4 9 -10 0
3 4 15 16 0
-3 4 -15 16 0
3 -4 15 -16 0
3 4 19 20 0
-3 4 -19 20 0
3 -4 19 -20 0
3 4 27 28 0
-3 4 -27 28 0
3 -4 27 -28 0
3 4 29 30 0
-3 4 -29 30 0
3 -4 29 -30 0
5 6 13 14 0
-5 6 -13 14 0
5 -6 13 -14 0
5 6 19 20 0
-5 6 -19 20 0
5 -6 19 -20 0
5 6 31 32 0
-5 6 -31 32 0
5 -6 31 -32 0
7 8 15 16 0
-7 8 -15 16 0
7 -8 15 -16 0
7 8 21 22 0
-7 8 -21 22 0
7 -8 21 -22 0
7 8 27 28 0
-7 8 -27 28 0
7 -8 27 -28 0
7 8 29 30 0
-7 8 -29 30 0
7 -8 29 -30 0
7 8 31 32 0
-7 8 -31 32 0
7 -8 31 -32 0
7 8 33 34 0
-7 8 -33 34 0
7 -8 33 -34 0
7 8 35 36 0
-7 8 -35 36 0
7 -8 35 -36 0
9 10 11 12 0
-9 10 -11 12 0
9 -10 11 -12 0
9 10 35 36 0
-9 10 -35 36 0
9 -10 35 -36 0
13 14 15 16 0
-13 14 -15 16 0
13 -14 15 -16 0
13 14 27 28 0
-13 14 -27 28 0
13 -14 27 -28 0
13 14 31 32 0
-13 14 -31 32 0
13 -14 31 -32 0
15 16 21 22 0
-15 16 -21 22 0
15 -16 21 -22 0
15 16 31 32 0
-15 16 -31 32 0
15 -16 31 -32 0
15 16 33 34 0
-15 16 -33 34 0
15 -16 33 -34 0
17 18 25 26 0
-17 18 -25 26 0
17 -18 25 -26 0
17 18 27 28 0
-17 18 -27 28 0
17 -18 27 -28 0
19 20 21 22 0
-19 20 -21 22 0
19 -20 21 -22 0
19 20 25 26 0
-19 20 -25 26 0
19 -20 25 -26 0
19 20 29 30 0
-19 20 -29 30 0
19 -20 29 -30 0
19 20 33 34 0
-19 20 -33 34 0
19 -20 33 -34 0
21 22 25 26 0
-21 22 -25 26 0
21 -22 25 -26 0
23 24 29 30 0
-23 24 -29 30 0
23 -24 29 -30 0
23 24 35 36 0
-23 24 -35 36 0
23 -24 35 -36 0
27 28 31 32 0
-27 28 -31 32 0
27 -28 31 -32 0
