c family=3-COL n=36 instance=6 seed=145502016 models=48
c order 12 7 23 28 1 24 31 21 17 30 3 5 29 25 8 13 26 18 11 4 19 35 32 6 16 33 14 27 10 9 36 22 34 15 20 2
c order 15 26 3 34 33 14 10 20 4 36 29 6 13 27 18 12 23 8 24 35 11 17 9 31 1 30 7 5 22 19 16 32 2 21 28 25
c order 2 21 26 25 34 15 27 6 23 30 24 31 29 28 9 4 5 12 22 19 10 7 35 32 3 17 20 13 14 16 11 8 18 1 36 33
c order 31 11 7 6 27 5 19 34 25 12 16 33 32 13 29 2 8 17 26 30 10 20 21 9 3 1 18 35 28 15 14 23 22 4 36 24
c order 12 13 26 18 1 2 5 3 14 32 31 11 7 15 28 10 33 17 27 19 21 16 35 4 6 25 24 29 36 9 20 23 8 22 30 34
c order 19 23 12 25 31 34 22 13 15 18 4 24 36 30 32 29 28 20 6 11 2 5 21 16 14 27 10 3 33 8 35 1 9 26 7 17
c order 9 28 5 15 30 22 3 26 24 1 34 8 25 32 36 21 19 29 13 16 10 14 31 33 18 20 6 17 7 4 23 12 35 2 27 11
c order 18 11 29 3 33 25 28 17 36 14 9 31 26 22 19 6 23 27 7 12 20 1 15 34 32 10 35 4 21 5 2 24 16 13 8 30
c order 23 35 10 17 15 33 22 36 20 28 31 7 30 12 2 25 5 9 19 21 6 4 16 27 14 32 26 29 18 24 3 1 11 13 34 8
c order 15 24 1 10 32 13 19 17 30 3 29 9 21 12 5 2 11 28 35 4 20 31 8 6 18 33 22 23 27 34 16 25 26 36 14 7
p cnf 36 132
-1 -2 0
-3 -4 0
-5 -6 0
-7 -8 0
-9 -10 0
-11 -12 0
-13 -14 0
-15 -16 0
-17 -18 0
-19 -20 0
-21 -22 0
-23 -24 0
-25 -26 0
-27 -28 0
-29 -30 0
-31 -32 0
-33 -34 0
-35 -36 0
1 2 3 4 0
-1 2 -3 4 0
1 -2 3 -4 0
1 2 27 28 0
-1 2 -27 28 0
1 -2 27 -28 0
3 4 19 20 0
-3 4 -19 20 0
3 -4 19 -20 0
3 4 21 22 0
-3 4 -21 22 0
3 -4 21 -22 0
3 4 25 26 0
-3 4 -25 26 0
3 -4 25 -26 0
3 4 35 36 0
-3 4 -35 36 0
3 -4 35 -36 0
5 6 7 8 0
-5 6 -7 8 0
5 -6 7 -8 0
5 6 11 12 0
-5 6 -11 12 0
5 -6 11 -12 0
5 6 13 14 0
-5 6 -13 14 0
5 -6 13 -14 0
5 6 17 18 0
-5 6 -17 18 0
5 -6 17 -18 0
5 6 19 20 0
-5 6 -19 20 0
5 -6 19 -20 0
5 6 21 22 0
-5 6 -21 22 0
5 -6 21 -22 0
5 6 25 26 0
-5 6 -25 26 0
5 -6 25 -26 0
5 6 27 28 0
-5 6 -27 28 0
5 -6 27 -28 0
5 6 33 34 0
-5 6 -33 34 0
5 -6 33 -34 0
7 8 9 10 0
-7 8 -9 10 0
7 -8 9 -10 0
7 8 19 20 0
-7 8 -19 20 0
7 -8 19 -20 0
7 8 21 22 0
-7 8 -21 22 0
7 -8 21 -22 0
7 8 35 36 0
-7 8 -35 36 0
7 -8 35 -36 0
9 10 15 16 0
-9 10 -15 16 0
9 -10 15 -16 0
9 10 27 28 0
-9 10 -27 28 0
9 -10 27 -28 0
9 10 29 30 0
-9 10 -29 30 0
9 -10 29 -30 0
9 10 31 32 0
-9 10 -31 32 0
9 -10 31 -32 0
9 10 33 34 0
-9 10 -33 34 0
9 -10 33 -34 0
11 12 27 28 0
-11 12 -27 28 0
11 -12 27 -28 0
11 12 31 32 0
-11 12 -31 32 0
11 -12 31 -32 0
13 14 25 26 0
-13 14 -25 26 0
13 -14 25 -26 0
13 14 29 30 0
-13 14 -29 30 0
13 -14 29 -30 0
15 16 17 18 0
-15 16 -17 18 0
15 -16 17 -18 0
15 16 31 32 0
-15 16 -31 32 0
15 -16 31 -32 0
17 18 29 30 0
-17 18 -29 30 0
17 -18 29 -30 0
19 20 29 30 0
-19 20 -29 30 0
19 -20 29 -30 0
23 24 35 36 0
-23 24 -35 36 0
23 -24 35 -36 0
25 26 31 32 0
-25 26 -31 32 0
25 -26 31 -32 0
25 26 35 36 0
-25 26 -35 36 0
25 -26 35 -36 0
29 30 31 32 0
-29 30 -31 32 0
29 -30 31 -32 0
29 30 33 34 0
-29 30 -33 34 0
29 -30 33 -34 0
31 32 35 36 0
-31 32 -35 36 0
31 -32 35 -36 0
