c family=3-COL n=36 instance=8 seed=145502016 models=72
c order 1 36 23 33 28 7 30 29 10 24 12 17 31 5 14 9 6 25 3 15 4 11 21 27 20 19 18 34 2 26 16 32 35 22 8 13
c order 32 22 27 35 16 29 9 33 3 14 20 24 5 7 31 4 2 6 19 23 15 28 12 8 11 25 13 36 30 1 21 10 34 18 17 26
c order 35 12 2 25 30 20 29 22 3 8 23 9 16 32 1 31 4 13 7 19 28 11 27 34 14 17 5 10 15 21 6 33 24 18 26 36
c order 17 11 2 34 18 7 30 33 35 25 10 24 15 27 13 28 23 5 32 8 36 4 6 21 3 31 29 9 1 12 19 14 26 22 16 20
c order 33 5 9 10 7 27 1 34 19 15 31 22 14 24 32 20 36 26 28 21 6 4 18 25 3 17 23 2 30 8 16 12 13 11 29 35
c order 17 35 36 28 33 31 30 25 12 6 10 11 29 15 20 1 9 4 32 16 7 34 24 2 26 5 13 23 19 21 27 3 14 8 22 18
c order 14 5 30 33 32 8 21 27 24 26 16 28 6 19 7 20 18 11 34 15 13 22 31 23 36 3 35 25 2 9 10 12 1 29 4 17
c order 26 22 34 11 17 16 28 21 33 10 14 8 6 18 32 5 7 30 12 4 13 2 27 15 29 24 35 1 9 23 20 25 31 19 3 36
c order 4 13 6 23 17 11 5 29 12 15 24 3 8 14 19 2 35 25 30 9 36 1 32 20 16 31 33 10 21 22 7 18 27 34 26 28
c order 4 32 18 35 21 8 6 27 36 23 12 7 25 15 3 19 10 29 13 30 31 16 22 14 2 17 11 9 1 5 20 33 26 24 28 34
p cnf 36 132
-1 -2 0
-3 -4 0
-5 -6 0
-7 -8 0
-9 -10 0
-11 -12 0
-13 -14 0
-15 -16 0
-17 -18 0
-19 -20 0
-21 -22 0
-23 -24 0
-25 -26 0
-27 -28 0
-29 -30 0
-31 -32 0
-33 -34 0
-35 -36 0
1 2 7 8 0
-1 2 -7 8 0
1 -2 7 -8 0
1 2 21 22 0
-1 2 -21 22 0
1 -2 21 -22 0
3 4 11 12 0
-3 4 -11 12 0
3 -4 11 -12 0
3 4 21 22 0
-3 4 -21 22 0
3 -4 21 -22 0
3 4 23 24 0
-3 4 -23 24 0
3 -4 23 -24 0
3 4 29 30 0
-3 4 -29 30 0
3 -4 29 -30 0
3 4 31 32 0
-3 4 -31 32 0
3 -4 31 -32 0
5 6 9 10 0
-5 6 -9 10 0
5 -6 9 -10 0
7 8 11 12 0
-7 8 -11 12 0
7 -8 11 -12 0
7 8 19 20 0
-7 8 -19 20 0
7 -8 19 -20 0
7 8 23 24 0
-7 8 -23 24 0
7 -8 23 -24 0
7 8 29 30 0
-7 8 -29 30 0
7 -8 29 -30 0
7 8 33 34 0
-7 8 -33 34 0
7 -8 33 -34 0
9 10 11 12 0
-9 10 -11 12 0
9 -10 11 -12 0
9 10 21 22 0
-9 10 -21 22 0
9 -10 21 -22 0
9 10 23 24 0
-9 10 -23 24 0
9 -10 23 -24 0
9 10 31 32 0
-9 10 -31 32 0
9 -10 31 -32 0
9 10 33 34 0
-9 10 -33 34 0
9 -10 33 -34 0
9 10 35 36 0
-9 10 -35 36 0
9 -10 35 -36 0
11 12 25 26 0
-11 12 -25 26 0
11 -12 25 -26 0
11 12 33 34 0
-11 12 -33 34 0
11 -12 33 -34 0
13 14 15 16 0
-13 14 -15 16 0
13 -14 15 -16 0
13 14 25 26 0
-13 14 -25 26 0
13 -14 25 -26 0
13 14 27 28 0
-13 14 -27 28 0
13 -14 27 -28 0
13 14 35 36 0
-13 14 -35 36 0
13 -14 35 -36 0
15 16 27 28 0
-15 16 -27 28 0
15 -16 27 -28 0
15 16 31 32 0
-15 16 -31 32 0
15 -16 31 -32 0
17 18 21 22 0
-17 18 -21 22 0
17 -18 21 -22 0
19 20 21 22 0
-19 20 -21 22 0
19 -20 21 -22 0
19 20 27 28 0
-19 20 -27 28 0
19 -20 27 -28 0
21 22 27 28 0
-21 22 -27 28 0
21 -22 27 -28 0
21 22 29 30 0
-21 22 -29 30 0
21 -22 29 -30 0
23 24 25 26 0
-23 24 -25 26 0
23 -24 25 -26 0
23 24 33 34 0
-23 24 -33 34 0
23 -24 33 -34 0
25 26 29 30 0
-25 26 -29 30 0
25 -26 29 -30 0
25 26 31 32 0
-25 26 -31 32 0
25 -26 31 -32 0
27 28 31 32 0
-27 28 -31 32 0
27 -28 31 -32 0
29 30 35 36 0
-29 30 -35 36 0
29 -30 35 -36 0
