c family=3-COL n=42 instance=8 seed=145502016 models=78
c order 5 31 26 33 11 1 40 9 6 12 8 14 42 18 22 25 17 39 13 38 2 15 19 3 36 28 32 4 27 30 23 24 29 37 34 16 20 35 10 7 21 41
c order 30 7 9 16 42 28 32 3 15 12 19 37 27 11 22 29 35 31 36 2 8 25 38 1 39 26 34 18 6 13 41 10 23 5 21 20 40 33 14 24 4 17
c order 6 19 8 32 10 33 41 39 7 29 16 31 4 1 23 28 12 25 13 5 15 3 36 38 30 42 37 26 11 22 34 17 9 21 40 24 18 27 2 35 20 14
c order 34 18 32 21 17 31 35 5 42 11 2 22 16 9 23 19 10 38 29 8 39 30 1 33 40 27 6 41 24 4 28 7 36 20 14 12 13 26 3 15 37 25
c order 39 12 7 14 34 18 15 42 21 6 22 24 40 3 37 8 13 28 4 35 20 31 9 29 16 10 32 11 1 23 38 26 5 19 33 41 27 2 30 36 25 17
c order 12 9 16 27 42 24 20 35 26 28 3 1 18 32 36 19 11 4 6 13 15 34 31 7 40 25 17 14 33 30 10 5 38 23 39 37 2 22 8 29 41 21
c order 20 33 29 19 17 8 34 36 14 5 31 7 26 39 6 1 9 35 16 37 22 4 11 24 13 10 42 28 40 41 23 12 15 30 3 38 18 27 21 32 2 25
c order 39 17 32 23 10 15 41 29 9 21 28 7 5 40 25 22 19 36 20 1 26 8 13 37 11 30 3 34 14 4 6 16 33 24 27 12 42 35 38 31 18 2
c order 2 30 27 1 28 31 29 20 14 5 18 24 7 10 12 11 17 16 9 33 34 19 40 3 22 21 6 8 36 37 41 26 23 39 25 42 15 13 38 35 4 32
c order 11 38 36 26 35 34 19 17 20 18 23 8 3 33 22 24 7 25 30 42 32 37 13 14 21 5 41 39 16 10 1 2 6 40 28 15 29 12 4 31 9 27
p cnf 42 153
-1 -2 0
-3 -4 0
-5 -6 0
-7 -8 0
-9 -10 0
-11 -12 0
-13 -14 0
-15 -16 0
-17 -18 0
-19 -20 0
-21 -22 0
-23 -24 0
-25 -26 0
-27 -28 0
-29 -30 0
-31 -32 0
-33 -34 0
-35 -36 0
-37 -38 0
-39 -40 0
-41 -42 0
1 2 25 26 0
-1 2 -25 26 0
1 -2 25 -26 0
1 2 31 32 0
-1 2 -31 32 0
1 -2 31 -32 0
1 2 33 34 0
-1 2 -33 34 0
1 -2 33 -34 0
3 4 5 6 0
-3 4 -5 6 0
3 -4 5 -6 0
3 4 19 20 0
-3 4 -19 20 0
3 -4 19 -20 0
3 4 29 30 0
-3 4 -29 30 0
3 -4 29 -30 0
3 4 33 34 0
-3 4 -33 34 0
3 -4 33 -34 0
5 6 15 16 0
-5 6 -15 16 0
5 -6 15 -16 0
5 6 23 24 0
-5 6 -23 24 0
5 -6 23 -24 0
5 6 25 26 0
-5 6 -25 26 0
5 -6 25 -26 0
7 8 19 20 0
-7 8 -19 20 0
7 -8 19 -20 0
7 8 29 30 0
-7 8 -29 30 0
7 -8 29 -30 0
9 10 11 12 0
-9 10 -11 12 0
9 -10 11 -12 0
9 10 21 22 0
-9 10 -21 22 0
9 -10 21 -22 0
9 10 35 36 0
-9 10 -35 36 0
9 -10 35 -36 0
11 12 15 16 0
-11 12 -15 16 0
11 -12 15 -16 0
11 12 33 34 0
-11 12 -33 34 0
11 -12 33 -34 0
13 14 15 16 0
-13 14 -15 16 0
13 -14 15 -16 0
13 14 17 18 0
-13 14 -17 18 0
13 -14 17 -18 0
13 14 27 28 0
-13 14 -27 28 0
13 -14 27 -28 0
13 14 31 32 0
-13 14 -31 32 0
13 -14 31 -32 0
15 16 17 18 0
-15 16 -17 18 0
15 -16 17 -18 0
15 16 33 34 0
-15 16 -33 34 0
15 -16 33 -34 0
15 16 35 36 0
-15 16 -35 36 0
15 -16 35 -36 0
15 16 39 40 0
-15 16 -39 40 0
15 -16 39 -40 0
17 18 19 20 0
-17 18 -19 20 0
17 -18 19 -20 0
17 18 21 22 0
-17 18 -21 22 0
17 -18 21 -22 0
17 18 31 32 0
-17 18 -31 32 0
17 -18 31 -32 0
19 20 31 32 0
-19 20 -31 32 0
19 -20 31 -32 0
21 22 25 26 0
-21 22 -25 26 0
21 -22 25 -26 0
23 24 25 26 0
-23 24 -25 26 0
23 -24 25 -26 0
23 24 29 30 0
-23 24 -29 30 0
23 -24 29 -30 0
23 24 35 36 0
-23 24 -35 36 0
23 -24 35 -36 0
23 24 37 38 0
-23 24 -37 38 0
23 -24 37 -38 0
25 26 29 30 0
-25 26 -29 30 0
25 -26 29 -30 0
27 28 35 36 0
-27 28 -35 36 0
27 -28 35 -36 0
27 28 41 42 0
-27 28 -41 42 0
27 -28 41 -42 0
29 30 37 38 0
-29 30 -37 38 0
29 -30 37 -38 0
29 30 39 40 0
-29 30 -39 40 0
29 -30 39 -40 0
31 32 39 40 0
-31 32 -39 40 0
31 -32 39 -40 0
33 34 35 36 0
-33 34 -35 36 0
33 -34 35 -36 0
33 34 37 38 0
-33 34 -37 38 0
33 -34 37 -38 0
33 34 41 42 0
-33 34 -41 42 0
33 -34 41 -42 0
35 36 37 38 0
-35 36 -37 38 0
35 -36 37 -38 0
