c family=3-COL n=42 instance=2 seed=145502016 models=144
c order 33 40 2 32 15 16 21 17 37 9 19 1 35 23 3 13 7 5 31 42 39 36 12 14 41 25 24 10 11 26 30 27 28 4 22 29 38 6 20 8 34 18
c order 24 11 4 21 31 6 2 17 30 29 14 13 26 39 35 33 20 12 23 38 36 42 5 7 16 9 10 32 3 22 15 8 19 27 1 18 28 25 37 34 40 41
c order 33 37 41 18 2 27 40 11 5 28 21 7 9 26 38 25 30 35 34 29 15 3 36 39 1 19 8 12 14 13 31 22 24 17 32 23 20 10 16 4 42 6
c order 15 10 17 31 34 29 23 21 2 30 9 35 4 16 18 6 33 3 38 5 28 40 42 22 8 1 20 11 14 26 7 12 36 39 19 25 32 41 37 24 13 27
c order 31 40 4 1 18 32 6 21 2 28 24 41 12 26 7 39 9 11 3 42 33 17 15 13 16 20 22 35 34 25 27 38 5 23 10 37 14 8 29 19 36 30
c order 29 42 14 31 15 41 26 34 37 20 24 12 30 17 36 28 4 39 6 23 25 5 18 38 16 3 2 35 33 1 22 11 8 7 9 32 27 10 40 13 19 21
c order 42 19 20 25 36 1 9 2 33 26 31 27 11 7 23 15 5 24 10 8 37 21 13 12 22 30 3 29 16 32 35 40 4 39 17 6 28 38 18 34 41 14
c order 41 35 17 36 18 16 3 2 6 29 39 21 34 13 12 27 33 14 15 19 42 30 9 22 20 28 23 5 25 37 32 7 24 38 4 40 31 11 10 8 26 1
c order 7 22 17 1 15 39 29 16 35 3 8 26 21 14 2 30 36 41 38 23 34 31 24 37 12 19 33 4 10 18 9 28 27 42 13 40 32 6 25 5 11 20
c order 25 30 31 17 20 29 28 1 22 39 10 34 23 19 9 33 2 26 7 5 6 37 32 21 14 8 38 18 24 35 36 12 42 4 11 40 3 16 13 41 27 15
p cnf 42 153
-1 -2 0
-3 -4 0
-5 -6 0
-7 -8 0
-9 -10 0
-11 -12 0
-13 -14 0
-15 -16 0
-17 -18 0
-19 -20 0
-21 -22 0
-23 -24 0
-25 -26 0
-27 -28 0
-29 -30 0
-31 -32 0
-33 -34 0
-35 -36 0
-37 -38 0
-39 -40 0
-41 -42 0
1 2 11 12 0
-1 2 -11 12 0
1 -2 11 -12 0
1 2 25 26 0
-1 2 -25 26 0
1 -2 25 -26 0
1 2 41 42 0
-1 2 -41 42 0
1 -2 41 -42 0
3 4 7 8 0
-3 4 -7 8 0
3 -4 7 -8 0
3 4 9 10 0
-3 4 -9 10 0
3 -4 9 -10 0
3 4 29 30 0
-3 4 -29 30 0
3 -4 29 -30 0
3 4 31 32 0
-3 4 -31 32 0
3 -4 31 -32 0
5 6 23 24 0
-5 6 -23 24 0
5 -6 23 -24 0
7 8 17 18 0
-7 8 -17 18 0
7 -8 17 -18 0
7 8 19 20 0
-7 8 -19 20 0
7 -8 19 -20 0
7 8 31 32 0
-7 8 -31 32 0
7 -8 31 -32 0
7 8 35 36 0
-7 8 -35 36 0
7 -8 35 -36 0
9 10 21 22 0
-9 10 -21 22 0
9 -10 21 -22 0
9 10 27 28 0
-9 10 -27 28 0
9 -10 27 -28 0
11 12 27 28 0
-11 12 -27 28 0
11 -12 27 -28 0
11 12 41 42 0
-11 12 -41 42 0
11 -12 41 -42 0
13 14 37 38 0
-13 14 -37 38 0
13 -14 37 -38 0
13 14 39 40 0
-13 14 -39 40 0
13 -14 39 -40 0
13 14 41 42 0
-13 14 -41 42 0
13 -14 41 -42 0
15 16 23 24 0
-15 16 -23 24 0
15 -16 23 -24 0
15 16 25 26 0
-15 16 -25 26 0
15 -16 25 -26 0
15 16 37 38 0
-15 16 -37 38 0
15 -16 37 -38 0
15 16 39 40 0
-15 16 -39 40 0
15 -16 39 -40 0
17 18 19 20 0
-17 18 -19 20 0
17 -18 19 -20 0
17 18 21 22 0
-17 18 -21 22 0
17 -18 21 -22 0
17 18 31 32 0
-17 18 -31 32 0
17 -18 31 -32 0
19 20 21 22 0
-19 20 -21 22 0
19 -20 21 -22 0
19 20 27 28 0
-19 20 -27 28 0
19 -20 27 -28 0
19 20 41 42 0
-19 20 -41 42 0
19 -20 41 -42 0
21 22 35 36 0
-21 22 -35 36 0
21 -22 35 -36 0
23 24 25 26 0
-23 24 -25 26 0
23 -24 25 -26 0
23 24 27 28 0
-23 24 -27 28 0
23 -24 27 -28 0
25 26 27 28 0
-25 26 -27 28 0
25 -26 27 -28 0
25 26 33 34 0
-25 26 -33 34 0
25 -26 33 -34 0
25 26 35 36 0
-25 26 -35 36 0
25 -26 35 -36 0
25 26 41 42 0
-25 26 -41 42 0
25 -26 41 -42 0
27 28 37 38 0
-27 28 -37 38 0
27 -28 37 -38 0
29 30 33 34 0
-29 30 -33 34 0
29 -30 33 -34 0
29 30 39 40 0
-29 30 -39 40 0
29 -30 39 -40 0
29 30 41 42 0
-29 30 -41 42 0
29 -30 41 -42 0
31 32 41 42 0
-31 32 -41 42 0
31 -32 41 -42 0
33 34 37 38 0
-33 34 -37 38 0
33 -34 37 -38 0
35 36 37 38 0
-35 36 -37 38 0
35 -36 37 -38 0
37 38 41 42 0
-37 38 -41 42 0
37 -38 41 -42 0
