c family=3-COL n=42 instance=6 seed=145502016 models=2904
c order 9 13 40 7 27 39 36 11 16 30 41 28 4 22 26 17 2 1 19 32 18 20 31 33 29 24 37 10 42 21 25 15 23 6 8 12 3 5 38 14 35 34
c order 21 22 30 9 4 29 6 11 23 14 31 19 42 40 25 16 7 8 5 12 32 17 34 28 41 2 15 1 18 24 36 37 10 3 20 35 26 33 27 13 38 39
c order 13 39 20 5 37 32 11 28 31 22 10 35 33 4 24 34 14 40 18 21 41 17 42 8 16 6 15 1 3 2 38 30 27 7 26 9 36 12 25 29 19 23
c order 10 37 5 2 6 22 29 8 27 30 18 9 32 25 12 19 20 14 13 3 1 42 4 38 11 26 35 41 16 28 36 7 23 31 39 17 33 24 34 40 15 21
c order 9 8 42 10 2 15 24 35 38 39 14 16 12 23 11 28 25 6 33 1 4 21 40 29 31 32 20 34 13 17 22 18 37 19 41 27 5 36 3 30 7 26
c order 1 4 8 23 31 42 39 37 16 38 27 11 18 7 2 32 25 17 40 26 29 30 35 22 34 9 5 10 3 33 41 19 21 6 20 13 28 14 15 36 24 12
c order 35 41 16 31 23 32 42 28 30 1 13 7 38 3 34 9 29 36 18 15 24 33 27 21 39 17 2 40 10 12 4 26 22 37 20 5 11 6 8 14 19 25
c order 33 16 42 23 21 12 18 8 40 34 31 5 30 14 20 4 6 13 41 3 25 39 10 19 36 1 17 22 15 35 38 29 2 9 7 27 37 32 28 24 26 11
c order 24 26 3 18 29 4 32 23 9 22 41 37 14 16 39 17 6 36 19 1 34 27 12 42 28 38 30 5 31 11 13 8 35 2 40 7 25 15 21 10 20 33
c order 38 24 42 19 20 8 13 31 30 2 15 17 26 21 34 23 3 27 1 41 35 40 6 37 7 22 9 5 39 33 28 32 29 18 14 4 25 11 36 16 12 10
p cnf 42 153
-1 -2 0
-3 -4 0
-5 -6 0
-7 -8 0
-9 -10 0
-11 -12 0
-13 -14 0
-15 -16 0
-17 -18 0
-19 -20 0
-21 -22 0
-23 -24 0
-25 -26 0
-27 -28 0
-29 -30 0
-31 -32 0
-33 -34 0
-35 -36 0
-37 -38 0
-39 -40 0
-41 -42 0
1 2 5 6 0
-1 2 -5 6 0
1 -2 5 -6 0
1 2 11 12 0
-1 2 -11 12 0
1 -2 11 -12 0
1 2 27 28 0
-1 2 -27 28 0
1 -2 27 -28 0
1 2 29 30 0
-1 2 -29 30 0
1 -2 29 -30 0
1 2 33 34 0
-1 2 -33 34 0
1 -2 33 -34 0
3 4 9 10 0
-3 4 -9 10 0
3 -4 9 -10 0
3 4 11 12 0
-3 4 -11 12 0
3 -4 11 -12 0
3 4 21 22 0
-3 4 -21 22 0
3 -4 21 -22 0
3 4 23 24 0
-3 4 -23 24 0
3 -4 23 -24 0
3 4 25 26 0
-3 4 -25 26 0
3 -4 25 -26 0
3 4 31 32 0
-3 4 -31 32 0
3 -4 31 -32 0
3 4 33 34 0
-3 4 -33 34 0
3 -4 33 -34 0
3 4 35 36 0
-3 4 -35 36 0
3 -4 35 -36 0
5 6 17 18 0
-5 6 -17 18 0
5 -6 17 -18 0
5 6 19 20 0
-5 6 -19 20 0
5 -6 19 -20 0
5 6 41 42 0
-5 6 -41 42 0
5 -6 41 -42 0
7 8 13 14 0
-7 8 -13 14 0
7 -8 13 -14 0
7 8 17 18 0
-7 8 -17 18 0
7 -8 17 -18 0
7 8 29 30 0
-7 8 -29 30 0
7 -8 29 -30 0
7 8 39 40 0
-7 8 -39 40 0
7 -8 39 -40 0
9 10 13 14 0
-9 10 -13 14 0
9 -10 13 -14 0
9 10 15 16 0
-9 10 -15 16 0
9 -10 15 -16 0
9 10 37 38 0
-9 10 -37 38 0
9 -10 37 -38 0
9 10 41 42 0
-9 10 -41 42 0
9 -10 41 -42 0
11 12 13 14 0
-11 12 -13 14 0
11 -12 13 -14 0
11 12 29 30 0
-11 12 -29 30 0
11 -12 29 -30 0
13 14 19 20 0
-13 14 -19 20 0
13 -14 19 -20 0
13 14 23 24 0
-13 14 -23 24 0
13 -14 23 -24 0
15 16 17 18 0
-15 16 -17 18 0
15 -16 17 -18 0
15 16 29 30 0
-15 16 -29 30 0
15 -16 29 -30 0
15 16 39 40 0
-15 16 -39 40 0
15 -16 39 -40 0
17 18 25 26 0
-17 18 -25 26 0
17 -18 25 -26 0
17 18 31 32 0
-17 18 -31 32 0
17 -18 31 -32 0
19 20 33 34 0
-19 20 -33 34 0
19 -20 33 -34 0
21 22 37 38 0
-21 22 -37 38 0
21 -22 37 -38 0
23 24 29 30 0
-23 24 -29 30 0
23 -24 29 -30 0
23 24 37 38 0
-23 24 -37 38 0
23 -24 37 -38 0
25 26 29 30 0
-25 26 -29 30 0
25 -26 29 -30 0
27 28 41 42 0
-27 28 -41 42 0
27 -28 41 -42 0
29 30 31 32 0
-29 30 -31 32 0
29 -30 31 -32 0
29 30 33 34 0
-29 30 -33 34 0
29 -30 33 -34 0
29 30 35 36 0
-29 30 -35 36 0
29 -30 35 -36 0
33 34 37 38 0
-33 34 -37 38 0
33 -34 37 -38 0
35 36 41 42 0
-35 36 -41 42 0
35 -36 41 -42 0
