c family=3-COL n=42 instance=9 seed=145502016 models=60
c order 20 22 21 34 38 17 15 30 42 26 40 6 4 41 5 8 11 33 2 7 25 9 36 23 13 35 27 31 14 39 37 28 19 29 16 10 1 3 32 24 12 18
c order 37 40 28 19 31 26 24 33 2 3 1 10 41 35 38 23 8 9 18 20 30 6 7 15 22 4 32 34 21 39 17 29 27 36 5 14 12 11 25 42 16 13
c order 21 38 13 9 25 10 8 36 24 5 30 42 22 40 37 19 34 23 4 28 18 39 41 31 33 6 15 29 27 11 14 16 32 35 3 26 20 1 17 7 2 12
c order 34 42 12 25 29 10 8 26 9 2 36 5 38 13 32 30 14 16 3 27 40 1 28 24 17 6 31 37 15 23 39 22 4 21 35 11 7 33 18 20 19 41
c order 9 1 3 5 34 26 8 41 12 38 16 35 33 23 17 32 31 25 22 15 4 36 40 30 27 19 21 11 7 10 28 37 13 20 2 6 18 39 24 42 14 29
c order 25 38 11 37 14 27 16 19 22 31 40 21 5 15 8 42 7 18 4 34 35 39 10 30 2 17 28 20 26 9 23 24 3 13 29 1 41 6 36 33 12 32
c order 36 16 32 42 29 25 10 30 23 27 38 6 21 24 2 15 14 4 31 37 39 35 33 20 28 3 18 8 17 13 22 34 40 41 1 19 5 11 9 26 7 12
c order 11 33 34 20 15 30 17 8 29 19 3 36 7 26 23 25 37 21 14 35 22 31 24 6 41 1 12 10 5 18 42 28 13 38 16 40 2 32 39 4 9 27
c order 15 1 16 10 5 32 11 20 19 41 35 38 31 7 30 17 39 13 34 29 36 4 37 27 21 25 3 9 26 40 24 42 22 23 6 8 18 12 33 28 14 2
c order 40 13 3 41 33 18 12 14 4 20 35 36 38 9 32 28 7 42 24 15 10 34 8 17 11 26 16 1 25 29 21 2 37 23 19 39 5 22 31 30 6 27
p cnf 42 153
-1 -2 0
-3 -4 0
-5 -6 0
-7 -8 0
-9 -10 0
-11 -12 0
-13 -14 0
-15 -16 0
-17 -18 0
-19 -20 0
-21 -22 0
-23 -24 0
-25 -26 0
-27 -28 0
-29 -30 0
-31 -32 0
-33 -34 0
-35 -36 0
-37 -38 0
-39 -40 0
-41 -42 0
1 2 5 6 0
-1 2 -5 6 0
1 -2 5 -6 0
1 2 13 14 0
-1 2 -13 14 0
1 -2 13 -14 0
1 2 17 18 0
-1 2 -17 18 0
1 -2 17 -18 0
1 2 29 30 0
-1 2 -29 30 0
1 -2 29 -30 0
1 2 39 40 0
-1 2 -39 40 0
1 -2 39 -40 0
3 4 5 6 0
-3 4 -5 6 0
3 -4 5 -6 0
3 4 13 14 0
-3 4 -13 14 0
3 -4 13 -14 0
3 4 21 22 0
-3 4 -21 22 0
3 -4 21 -22 0
5 6 7 8 0
-5 6 -7 8 0
5 -6 7 -8 0
5 6 13 14 0
-5 6 -13 14 0
5 -6 13 -14 0
5 6 15 16 0
-5 6 -15 16 0
5 -6 15 -16 0
5 6 17 18 0
-5 6 -17 18 0
5 -6 17 -18 0
5 6 31 32 0
-5 6 -31 32 0
5 -6 31 -32 0
5 6 33 34 0
-5 6 -33 34 0
5 -6 33 -34 0
5 6 35 36 0
-5 6 -35 36 0
5 -6 35 -36 0
5 6 39 40 0
-5 6 -39 40 0
5 -6 39 -40 0
7 8 19 20 0
-7 8 -19 20 0
7 -8 19 -20 0
7 8 25 26 0
-7 8 -25 26 0
7 -8 25 -26 0
7 8 27 28 0
-7 8 -27 28 0
7 -8 27 -28 0
9 10 11 12 0
-9 10 -11 12 0
9 -10 11 -12 0
9 10 15 16 0
-9 10 -15 16 0
9 -10 15 -16 0
9 10 37 38 0
-9 10 -37 38 0
9 -10 37 -38 0
9 10 39 40 0
-9 10 -39 40 0
9 -10 39 -40 0
11 12 39 40 0
-11 12 -39 40 0
11 -12 39 -40 0
11 12 41 42 0
-11 12 -41 42 0
11 -12 41 -42 0
13 14 33 34 0
-13 14 -33 34 0
13 -14 33 -34 0
15 16 39 40 0
-15 16 -39 40 0
15 -16 39 -40 0
17 18 19 20 0
-17 18 -19 20 0
17 -18 19 -20 0
19 20 27 28 0
-19 20 -27 28 0
19 -20 27 -28 0
19 20 31 32 0
-19 20 -31 32 0
19 -20 31 -32 0
21 22 29 30 0
-21 22 -29 30 0
21 -22 29 -30 0
21 22 41 42 0
-21 22 -41 42 0
21 -22 41 -42 0
23 24 27 28 0
-23 24 -27 28 0
23 -24 27 -28 0
23 24 35 36 0
-23 24 -35 36 0
23 -24 35 -36 0
23 24 39 40 0
-23 24 -39 40 0
23 -24 39 -40 0
23 24 41 42 0
-23 24 -41 42 0
23 -24 41 -42 0
25 26 31 32 0
-25 26 -31 32 0
25 -26 31 -32 0
25 26 33 34 0
-25 26 -33 34 0
25 -26 33 -34 0
25 26 35 36 0
-25 26 -35 36 0
25 -26 35 -36 0
29 30 33 34 0
-29 30 -33 34 0
29 -30 33 -34 0
33 34 39 40 0
-33 34 -39 40 0
33 -34 39 -40 0
33 34 41 42 0
-33 34 -41 42 0
33 -34 41 -42 0
35 36 37 38 0
-35 36 -37 38 0
35 -36 37 -38 0
37 38 41 42 0
-37 38 -41 42 0
37 -38 41 -42 0
