c family=3-COL n=42 instance=3 seed=145502016 models=48
c order 24 2 36 27 32 34 4 14 6 8 23 28 13 19 41 22 33 17 5 25 40 42 15 1 16 7 39 18 29 30 12 35 20 37 9 3 31 38 10 21 11 26
c order 32 42 7 19 17 20 40 36 16 33 9 23 27 13 6 30 11 31 5 28 39 37 29 3 24 22 26 18 2 8 14 34 15 1 38 21 12 25 4 10 35 41
c order 21 40 15 28 24 32 4 2 35 26 10 30 12 19 22 13 16 20 11 7 23 8 39 38 3 34 29 25 6 33 27 9 31 37 18 42 14 17 41 5 36 1
c order 35 24 22 33 30 15 5 23 25 42 6 11 16 39 19 29 10 12 8 34 14 3 36 4 32 7 21 2 38 20 18 17 13 28 1 27 26 31 9 37 41 40
c order 15 41 17 13 19 27 40 31 34 25 38 8 1 9 6 10 26 32 42 5 14 36 7 28 12 37 16 29 23 4 35 2 39 24 20 33 22 11 18 3 30 21
c order 17 24 21 13 2 30 14 12 19 1 42 26 23 10 29 8 9 16 3 22 7 36 18 39 20 37 35 11 38 25 31 33 41 27 5 15 6 40 34 4 28 32
c order 40 32 38 30 41 14 29 7 16 18 2 12 6 8 9 36 37 10 26 22 13 39 42 24 28 4 33 31 27 17 21 20 35 25 1 34 19 3 23 15 5 11
c order 37 33 1 31 2 22 4 14 20 35 3 40 18 5 32 30 7 24 26 15 29 6 34 17 41 12 10 39 38 27 16 11 25 13 42 36 28 19 9 8 21 23
c order 28 32 6 35 31 39 36 37 25 40 17 42 1 34 19 14 26 29 16 7 21 3 2 38 18 41 27 23 4 8 10 9 20 15 22 30 11 12 5 24 33 13
c order 11 32 42 2 23 27 25 7 4 33 16 41 40 36 19 39 18 17 8 31 34 13 20 21 12 15 28 1 38 3 22 35 24 5 29 10 9 37 6 14 30 26
p cnf 42 153
-1 -2 0
-3 -4 0
-5 -6 0
-7 -8 0
-9 -10 0
-11 -12 0
-13 -14 0
-15 -16 0
-17 -18 0
-19 -20 0
-21 -22 0
-23 -24 0
-25 -26 0
-27 -28 0
-29 -30 0
-31 -32 0
-33 -34 0
-35 -36 0
-37 -38 0
-39 -40 0
-41 -42 0
1 2 7 8 0
-1 2 -7 8 0
1 -2 7 -8 0
1 2 19 20 0
-1 2 -19 20 0
1 -2 19 -20 0
1 2 21 22 0
-1 2 -21 22 0
1 -2 21 -22 0
1 2 33 34 0
-1 2 -33 34 0
1 -2 33 -34 0
1 2 35 36 0
-1 2 -35 36 0
1 -2 35 -36 0
1 2 41 42 0
-1 2 -41 42 0
1 -2 41 -42 0
3 4 11 12 0
-3 4 -11 12 0
3 -4 11 -12 0
3 4 17 18 0
-3 4 -17 18 0
3 -4 17 -18 0
3 4 21 22 0
-3 4 -21 22 0
3 -4 21 -22 0
3 4 35 36 0
-3 4 -35 36 0
3 -4 35 -36 0
3 4 37 38 0
-3 4 -37 38 0
3 -4 37 -38 0
3 4 41 42 0
-3 4 -41 42 0
3 -4 41 -42 0
5 6 9 10 0
-5 6 -9 10 0
5 -6 9 -10 0
5 6 11 12 0
-5 6 -11 12 0
5 -6 11 -12 0
5 6 15 16 0
-5 6 -15 16 0
5 -6 15 -16 0
5 6 19 20 0
-5 6 -19 20 0
5 -6 19 -20 0
5 6 23 24 0
-5 6 -23 24 0
5 -6 23 -24 0
7 8 9 10 0
-7 8 -9 10 0
7 -8 9 -10 0
7 8 11 12 0
-7 8 -11 12 0
7 -8 11 -12 0
7 8 17 18 0
-7 8 -17 18 0
7 -8 17 -18 0
7 8 41 42 0
-7 8 -41 42 0
7 -8 41 -42 0
9 10 19 20 0
-9 10 -19 20 0
9 -10 19 -20 0
9 10 33 34 0
-9 10 -33 34 0
9 -10 33 -34 0
9 10 39 40 0
-9 10 -39 40 0
9 -10 39 -40 0
11 12 31 32 0
-11 12 -31 32 0
11 -12 31 -32 0
11 12 41 42 0
-11 12 -41 42 0
11 -12 41 -42 0
13 14 27 28 0
-13 14 -27 28 0
13 -14 27 -28 0
13 14 33 34 0
-13 14 -33 34 0
13 -14 33 -34 0
15 16 17 18 0
-15 16 -17 18 0
15 -16 17 -18 0
15 16 23 24 0
-15 16 -23 24 0
15 -16 23 -24 0
15 16 35 36 0
-15 16 -35 36 0
15 -16 35 -36 0
19 20 23 24 0
-19 20 -23 24 0
19 -20 23 -24 0
19 20 29 30 0
-19 20 -29 30 0
19 -20 29 -30 0
19 20 35 36 0
-19 20 -35 36 0
19 -20 35 -36 0
23 24 41 42 0
-23 24 -41 42 0
23 -24 41 -42 0
25 26 29 30 0
-25 26 -29 30 0
25 -26 29 -30 0
25 26 31 32 0
-25 26 -31 32 0
25 -26 31 -32 0
25 26 37 38 0
-25 26 -37 38 0
25 -26 37 -38 0
25 26 41 42 0
-25 26 -41 42 0
25 -26 41 -42 0
27 28 41 42 0
-27 28 -41 42 0
27 -28 41 -42 0
29 30 41 42 0
-29 30 -41 42 0
29 -30 41 -42 0
33 34 39 40 0
-33 34 -39 40 0
33 -34 39 -40 0
37 38 39 40 0
-37 38 -39 40 0
37 -38 39 -40 0
39 40 41 42 0
-39 40 -41 42 0
39 -40 41 -42 0
