c family=3-COL n=42 instance=1 seed=145502016 models=324
c order 11 29 15 9 30 40 16 25 37 34 6 23 24 21 19 38 2 41 35 12 39 27 17 5 20 22 10 32 7 13 28 33 3 14 26 1 31 8 36 4 18 42
c order 13 21 6 40 3 33 19 12 8 26 29 32 28 34 27 25 37 30 38 36 11 22 2 14 16 18 7 9 24 35 15 41 42 1 4 10 31 20 23 17 39 5
c order 37 28 4 17 30 31 9 25 19 2 12 8 5 15 1 34 10 22 35 21 36 18 26 29 42 33 13 20 16 27 24 11 6 41 38 3 14 7 32 23 39 40
c order 8 28 5 18 35 13 20 12 36 23 1 2 10 6 25 40 41 38 16 22 27 30 11 29 37 9 17 3 19 4 39 14 34 21 15 7 33 32 26 42 31 24
c order 37 10 41 39 8 14 33 4 21 3 2 17 35 7 13 25 18 32 9 20 15 36 22 24 5 34 1 29 19 27 26 31 28 38 11 40 6 30 16 12 23 42
c order 6 4 11 14 3 1 26 10 23 28 16 18 2 9 29 34 7 5 30 33 36 13 12 21 38 42 39 17 8 15 41 37 22 40 19 31 20 35 25 32 27 24
c order 2 40 25 6 33 8 27 7 26 15 9 11 13 29 36 16 41 3 37 17 14 20 1 34 30 22 5 42 10 38 4 31 35 32 23 28 19 12 24 21 18 39
c order 10 24 17 34 13 32 41 21 28 20 35 29 38 1 18 23 19 11 3 15 36 16 37 12 27 39 22 26 42 8 14 7 5 2 9 30 31 4 6 25 33 40
c order 9 16 22 3 11 5 13 6 39 34 4 42 15 2 30 17 1 37 19 10 33 24 41 28 21 32 7 18 12 8 27 35 38 36 29 26 31 40 14 25 20 23
c order 11 38 10 7 18 9 21 13 12 30 34 6 8 22 28 37 19 26 16 20 23 39 2 41 1 36 3 40 33 35 31 4 42 29 5 27 14 24 32 17 25 15
p cnf 42 153
-1 -2 0
-3 -4 0
-5 -6 0
-7 -8 0
-9 -10 0
-11 -12 0
-13 -14 0
-15 -16 0
-17 -18 0
-19 -20 0
-21 -22 0
-23 -24 0
-25 -26 0
-27 -28 0
-29 -30 0
-31 -32 0
-33 -34 0
-35 -36 0
-37 -38 0
-39 -40 0
-41 -42 0
1 2 17 18 0
-1 2 -17 18 0
1 -2 17 -18 0
1 2 27 28 0
-1 2 -27 28 0
1 -2 27 -28 0
1 2 37 38 0
-1 2 -37 38 0
1 -2 37 -38 0
3 4 27 28 0
-3 4 -27 28 0
3 -4 27 -28 0
3 4 35 36 0
-3 4 -35 36 0
3 -4 35 -36 0
5 6 17 18 0
-5 6 -17 18 0
5 -6 17 -18 0
5 6 19 20 0
-5 6 -19 20 0
5 -6 19 -20 0
5 6 41 42 0
-5 6 -41 42 0
5 -6 41 -42 0
7 8 13 14 0
-7 8 -13 14 0
7 -8 13 -14 0
7 8 19 20 0
-7 8 -19 20 0
7 -8 19 -20 0
7 8 21 22 0
-7 8 -21 22 0
7 -8 21 -22 0
7 8 25 26 0
-7 8 -25 26 0
7 -8 25 -26 0
7 8 31 32 0
-7 8 -31 32 0
7 -8 31 -32 0
7 8 33 34 0
-7 8 -33 34 0
7 -8 33 -34 0
9 10 19 20 0
-9 10 -19 20 0
9 -10 19 -20 0
9 10 23 24 0
-9 10 -23 24 0
9 -10 23 -24 0
9 10 29 30 0
-9 10 -29 30 0
9 -10 29 -30 0
11 12 25 26 0
-11 12 -25 26 0
11 -12 25 -26 0
11 12 29 30 0
-11 12 -29 30 0
11 -12 29 -30 0
11 12 41 42 0
-11 12 -41 42 0
11 -12 41 -42 0
13 14 21 22 0
-13 14 -21 22 0
13 -14 21 -22 0
13 14 31 32 0
-13 14 -31 32 0
13 -14 31 -32 0
15 16 23 24 0
-15 16 -23 24 0
15 -16 23 -24 0
15 16 41 42 0
-15 16 -41 42 0
15 -16 41 -42 0
17 18 33 34 0
-17 18 -33 34 0
17 -18 33 -34 0
17 18 35 36 0
-17 18 -35 36 0
17 -18 35 -36 0
17 18 41 42 0
-17 18 -41 42 0
17 -18 41 -42 0
19 20 29 30 0
-19 20 -29 30 0
19 -20 29 -30 0
19 20 33 34 0
-19 20 -33 34 0
19 -20 33 -34 0
19 20 37 38 0
-19 20 -37 38 0
19 -20 37 -38 0
21 22 35 36 0
-21 22 -35 36 0
21 -22 35 -36 0
21 22 41 42 0
-21 22 -41 42 0
21 -22 41 -42 0
23 24 33 34 0
-23 24 -33 34 0
23 -24 33 -34 0
25 26 37 38 0
-25 26 -37 38 0
25 -26 37 -38 0
25 26 39 40 0
-25 26 -39 40 0
25 -26 39 -40 0
27 28 39 40 0
-27 28 -39 40 0
27 -28 39 -40 0
29 30 33 34 0
-29 30 -33 34 0
29 -30 33 -34 0
31 32 35 36 0
-31 32 -35 36 0
31 -32 35 -36 0
31 32 37 38 0
-31 32 -37 38 0
31 -32 37 -38 0
31 32 41 42 0
-31 32 -41 42 0
31 -32 41 -42 0
33 34 37 38 0
-33 34 -37 38 0
33 -34 37 -38 0
33 34 41 42 0
-33 34 -41 42 0
33 -34 41 -42 0
35 36 39 40 0
-35 36 -39 40 0
35 -36 39 -40 0
39 40 41 42 0
-39 40 -41 42 0
39 -40 41 -42 0
