c family=3-COL n=42 instance=0 seed=145502016 models=132
c order 29 40 9 26 42 38 14 23 41 6 22 27 7 37 30 4 21 34 8 19 2 36 11 35 39 12 1 32 15 18 31 28 10 5 20 24 13 3 25 33 16 17
c order 37 22 15 29 19 27 41 36 14 20 9 30 17 13 23 33 26 39 25 38 32 42 24 1 18 4 6 7 16 3 34 5 11 31 12 21 28 35 2 40 8 10
c order 4 32 31 35 9 12 42 16 36 3 13 39 33 5 41 1 19 30 7 14 28 24 22 17 10 8 11 37 38 27 21 34 23 29 18 6 26 2 20 15 25 40
c order 2 12 29 1 41 25 9 42 6 18 27 28 14 31 11 33 3 24 36 15 8 20 37 17 10 26 19 35 30 4 32 23 39 21 40 34 7 38 16 13 22 5
c order 9 17 21 31 23 3 2 29 39 38 16 7 41 34 24 20 27 42 40 32 10 25 33 35 18 13 26 11 12 14 6 37 22 28 30 15 1 36 4 8 19 5
c order 8 31 30 42 23 2 38 28 11 10 36 34 3 4 40 17 15 33 39 35 18 26 7 20 6 27 16 12 32 21 13 22 24 14 29 25 19 9 41 1 37 5
c order 16 17 36 24 1 33 39 14 11 37 8 30 42 31 40 7 2 15 41 21 12 18 27 3 5 29 22 35 38 10 25 34 23 20 13 26 4 9 19 6 28 32
c order 27 24 34 14 1 39 8 19 26 22 7 17 10 11 38 6 5 18 31 9 40 16 20 41 42 15 21 35 4 28 29 30 2 36 23 3 12 33 13 25 37 32
c order 7 28 22 23 12 8 30 41 10 34 1 39 13 31 35 6 3 40 32 25 37 16 11 38 14 36 33 26 20 21 15 24 19 42 29 4 27 2 9 18 5 17
c order 26 25 40 38 10 13 3 1 14 7 32 35 5 4 23 29 34 28 2 27 41 30 42 31 36 6 18 22 15 8 21 9 16 20 39 11 37 19 33 12 17 24
p cnf 42 153
-1 -2 0
-3 -4 0
-5 -6 0
-7 -8 0
-9 -10 0
-11 -12 0
-13 -14 0
-15 -16 0
-17 -18 0
-19 -20 0
-21 -22 0
-23 -24 0
-25 -26 0
-27 -28 0
-29 -30 0
-31 -32 0
-33 -34 0
-35 -36 0
-37 -38 0
-39 -40 0
-41 -42 0
1 2 3 4 0
-1 2 -3 4 0
1 -2 3 -4 0
1 2 17 18 0
-1 2 -17 18 0
1 -2 17 -18 0
1 2 25 26 0
-1 2 -25 26 0
1 -2 25 -26 0
3 4 13 14 0
-3 4 -13 14 0
3 -4 13 -14 0
3 4 15 16 0
-3 4 -15 16 0
3 -4 15 -16 0
3 4 21 22 0
-3 4 -21 22 0
3 -4 21 -22 0
3 4 29 30 0
-3 4 -29 30 0
3 -4 29 -30 0
3 4 37 38 0
-3 4 -37 38 0
3 -4 37 -38 0
5 6 15 16 0
-5 6 -15 16 0
5 -6 15 -16 0
5 6 25 26 0
-5 6 -25 26 0
5 -6 25 -26 0
5 6 35 36 0
-5 6 -35 36 0
5 -6 35 -36 0
5 6 41 42 0
-5 6 -41 42 0
5 -6 41 -42 0
7 8 19 20 0
-7 8 -19 20 0
7 -8 19 -20 0
7 8 27 28 0
-7 8 -27 28 0
7 -8 27 -28 0
7 8 31 32 0
-7 8 -31 32 0
7 -8 31 -32 0
7 8 37 38 0
-7 8 -37 38 0
7 -8 37 -38 0
9 10 11 12 0
-9 10 -11 12 0
9 -10 11 -12 0
9 10 15 16 0
-9 10 -15 16 0
9 -10 15 -16 0
9 10 19 20 0
-9 10 -19 20 0
9 -10 19 -20 0
11 12 27 28 0
-11 12 -27 28 0
11 -12 27 -28 0
11 12 33 34 0
-11 12 -33 34 0
11 -12 33 -34 0
13 14 17 18 0
-13 14 -17 18 0
13 -14 17 -18 0
13 14 25 26 0
-13 14 -25 26 0
13 -14 25 -26 0
15 16 17 18 0
-15 16 -17 18 0
15 -16 17 -18 0
15 16 33 34 0
-15 16 -33 34 0
15 -16 33 -34 0
15 16 37 38 0
-15 16 -37 38 0
15 -16 37 -38 0
15 16 39 40 0
-15 16 -39 40 0
15 -16 39 -40 0
17 18 27 28 0
-17 18 -27 28 0
17 -18 27 -28 0
19 20 21 22 0
-19 20 -21 22 0
19 -20 21 -22 0
19 20 37 38 0
-19 20 -37 38 0
19 -20 37 -38 0
21 22 27 28 0
-21 22 -27 28 0
21 -22 27 -28 0
21 22 33 34 0
-21 22 -33 34 0
21 -22 33 -34 0
23 24 39 40 0
-23 24 -39 40 0
23 -24 39 -40 0
23 24 41 42 0
-23 24 -41 42 0
23 -24 41 -42 0
25 26 41 42 0
-25 26 -41 42 0
25 -26 41 -42 0
27 28 35 36 0
-27 28 -35 36 0
27 -28 35 -36 0
27 28 39 40 0
-27 28 -39 40 0
27 -28 39 -40 0
27 28 41 42 0
-27 28 -41 42 0
27 -28 41 -42 0
29 30 33 34 0
-29 30 -33 34 0
29 -30 33 -34 0
29 30 35 36 0
-29 30 -35 36 0
29 -30 35 -36 0
33 34 35 36 0
-33 34 -35 36 0
33 -34 35 -36 0
33 34 37 38 0
-33 34 -37 38 0
33 -34 37 -38 0
33 34 41 42 0
-33 34 -41 42 0
33 -34 41 -42 0
37 38 41 42 0
-37 38 -41 42 0
37 -38 41 -42 0
