c family=3-COL n=42 instance=5 seed=145502016 models=60
c order 21 39 8 15 36 34 35 13 16 19 33 40 6 25 11 30 38 28 23 26 12 41 37 2 29 4 17 31 7 10 32 24 14 9 18 42 1 20 22 27 3 5
c order 27 16 33 25 36 4 8 5 39 41 24 18 35 23 6 11 32 38 34 7 31 37 12 1 30 20 21 2 22 10 9 13 29 19 26 42 15 14 17 3 28 40
c order 35 3 14 2 5 19 33 9 12 10 41 36 26 27 7 38 34 40 17 37 28 16 23 4 15 6 13 21 31 32 8 24 20 39 29 25 30 11 1 18 22 42
c order 26 23 33 39 38 40 32 20 42 16 34 10 12 5 31 37 9 24 36 25 22 1 18 7 29 15 41 17 19 35 13 27 14 30 11 28 2 3 8 4 21 6
c order 16 41 11 18 21 32 39 36 1 29 37 27 19 20 3 15 10 7 33 38 14 2 24 6 23 4 35 25 42 5 9 28 40 17 12 30 26 8 34 22 13 31
c order 36 42 13 14 23 40 17 26 30 33 24 7 9 27 1 38 35 37 22 19 8 28 11 21 3 6 31 10 18 41 29 34 39 32 20 25 2 12 16 5 4 15
c order 6 39 36 7 10 20 4 24 12 16 34 5 22 13 2 3 19 21 29 32 8 30 41 35 9 15 37 28 27 18 40 23 26 1 33 25 11 14 31 17 38 42
c order 32 29 27 30 8 26 25 24 9 20 12 35 6 5 10 14 7 23 11 41 22 39 34 42 13 38 40 21 4 36 17 37 19 3 28 15 16 2 31 1 33 18
c order 21 13 23 2 3 42 15 17 22 38 18 37 28 41 30 35 5 32 1 14 12 11 34 33 26 7 9 20 6 27 8 24 36 4 10 16 25 40 31 19 39 29
c order 6 13 41 11 31 42 35 21 28 19 7 16 23 33 10 1 18 38 8 5 36 32 27 25 40 24 34 20 30 17 29 12 3 2 14 4 39 26 37 22 15 9
p cnf 42 153
-1 -2 0
-3 -4 0
-5 -6 0
-7 -8 0
-9 -10 0
-11 -12 0
-13 -14 0
-15 -16 0
-17 -18 0
-19 -20 0
-21 -22 0
-23 -24 0
-25 -26 0
-27 -28 0
-29 -30 0
-31 -32 0
-33 -34 0
-35 -36 0
-37 -38 0
-39 -40 0
-41 -42 0
1 2 5 6 0
-1 2 -5 6 0
1 -2 5 -6 0
1 2 9 10 0
-1 2 -9 10 0
1 -2 9 -10 0
1 2 15 16 0
-1 2 -15 16 0
1 -2 15 -16 0
1 2 17 18 0
-1 2 -17 18 0
1 -2 17 -18 0
1 2 25 26 0
-1 2 -25 26 0
1 -2 25 -26 0
1 2 29 30 0
-1 2 -29 30 0
1 -2 29 -30 0
1 2 41 42 0
-1 2 -41 42 0
1 -2 41 -42 0
3 4 7 8 0
-3 4 -7 8 0
3 -4 7 -8 0
3 4 17 18 0
-3 4 -17 18 0
3 -4 17 -18 0
3 4 19 20 0
-3 4 -19 20 0
3 -4 19 -20 0
5 6 15 16 0
-5 6 -15 16 0
5 -6 15 -16 0
5 6 37 38 0
-5 6 -37 38 0
5 -6 37 -38 0
7 8 21 22 0
-7 8 -21 22 0
7 -8 21 -22 0
7 8 25 26 0
-7 8 -25 26 0
7 -8 25 -26 0
7 8 31 32 0
-7 8 -31 32 0
7 -8 31 -32 0
7 8 37 38 0
-7 8 -37 38 0
7 -8 37 -38 0
9 10 15 16 0
-9 10 -15 16 0
9 -10 15 -16 0
9 10 23 24 0
-9 10 -23 24 0
9 -10 23 -24 0
9 10 35 36 0
-9 10 -35 36 0
9 -10 35 -36 0
9 10 41 42 0
-9 10 -41 42 0
9 -10 41 -42 0
11 12 15 16 0
-11 12 -15 16 0
11 -12 15 -16 0
11 12 23 24 0
-11 12 -23 24 0
11 -12 23 -24 0
11 12 29 30 0
-11 12 -29 30 0
11 -12 29 -30 0
11 12 37 38 0
-11 12 -37 38 0
11 -12 37 -38 0
13 14 23 24 0
-13 14 -23 24 0
13 -14 23 -24 0
13 14 37 38 0
-13 14 -37 38 0
13 -14 37 -38 0
15 16 17 18 0
-15 16 -17 18 0
15 -16 17 -18 0
15 16 27 28 0
-15 16 -27 28 0
15 -16 27 -28 0
15 16 31 32 0
-15 16 -31 32 0
15 -16 31 -32 0
17 18 21 22 0
-17 18 -21 22 0
17 -18 21 -22 0
17 18 29 30 0
-17 18 -29 30 0
17 -18 29 -30 0
17 18 37 38 0
-17 18 -37 38 0
17 -18 37 -38 0
17 18 39 40 0
-17 18 -39 40 0
17 -18 39 -40 0
19 20 21 22 0
-19 20 -21 22 0
19 -20 21 -22 0
19 20 41 42 0
-19 20 -41 42 0
19 -20 41 -42 0
21 22 33 34 0
-21 22 -33 34 0
21 -22 33 -34 0
23 24 29 30 0
-23 24 -29 30 0
23 -24 29 -30 0
23 24 35 36 0
-23 24 -35 36 0
23 -24 35 -36 0
25 26 39 40 0
-25 26 -39 40 0
25 -26 39 -40 0
25 26 41 42 0
-25 26 -41 42 0
25 -26 41 -42 0
27 28 33 34 0
-27 28 -33 34 0
27 -28 33 -34 0
31 32 35 36 0
-31 32 -35 36 0
31 -32 35 -36 0
31 32 39 40 0
-31 32 -39 40 0
31 -32 39 -40 0
39 40 41 42 0
-39 40 -41 42 0
39 -40 41 -42 0
