c family=3-COL n=42 instance=7 seed=145502016 models=72
c order 10 2 40 42 12 32 36 28 27 15 9 29 20 25 34 1 13 26 41 39 33 8 30 18 38 23 4 7 35 11 21 16 17 14 6 22 37 31 5 19 24 3
c order 8 30 13 16 10 3 29 15 20 27 42 35 19 28 2 24 21 25 17 1 5 7 36 14 31 40 33 38 41 12 26 22 37 34 32 18 6 23 39 9 4 11
c order 4 8 10 7 5 18 20 34 2 40 38 24 16 9 21 22 19 33 17 26 37 42 35 41 14 36 6 30 23 25 39 28 1 13 12 3 11 32 27 31 29 15
c order 15 22 27 42 31 1 4 10 8 19 39 7 5 30 3 21 24 11 2 40 25 41 23 36 13 34 17 12 9 35 18 38 6 20 14 32 26 33 16 28 37 29
c order 32 41 17 18 22 2 19 11 28 37 21 31 39 24 13 14 40 12 16 6 35 3 20 38 7 29 34 5 36 4 10 25 42 23 30 33 26 1 15 9 27 8
c order 12 41 9 33 30 17 38 22 35 28 8 31 25 42 13 7 23 14 6 29 39 4 32 5 24 20 40 10 11 1 3 27 26 36 19 18 2 15 34 16 21 37
c order 23 11 27 1 29 42 9 16 33 8 32 35 15 10 36 26 7 21 40 31 20 19 17 13 24 4 37 18 2 3 41 6 12 34 30 39 14 5 22 25 38 28
c order 41 10 36 15 6 34 8 23 1 31 13 26 39 33 32 20 29 27 25 17 14 22 42 7 9 18 11 3 21 38 35 2 4 24 30 40 37 28 19 5 12 16
c order 5 9 26 36 23 24 41 18 34 32 21 1 4 13 39 38 12 14 31 10 27 33 42 11 16 3 29 6 37 19 22 2 30 15 35 25 8 28 17 40 20 7
c order 36 12 35 9 3 42 14 2 25 21 11 19 41 29 37 24 16 20 10 5 4 26 23 28 34 15 33 6 13 18 17 40 7 22 38 27 30 32 31 39 8 1
p cnf 42 153
-1 -2 0
-3 -4 0
-5 -6 0
-7 -8 0
-9 -10 0
-11 -12 0
-13 -14 0
-15 -16 0
-17 -18 0
-19 -20 0
-21 -22 0
-23 -24 0
-25 -26 0
-27 -28 0
-29 -30 0
-31 -32 0
-33 -34 0
-35 -36 0
-37 -38 0
-39 -40 0
-41 -42 0
1 2 13 14 0
-1 2 -13 14 0
1 -2 13 -14 0
1 2 25 26 0
-1 2 -25 26 0
1 -2 25 -26 0
1 2 27 28 0
-1 2 -27 28 0
1 -2 27 -28 0
3 4 11 12 0
-3 4 -11 12 0
3 -4 11 -12 0
3 4 13 14 0
-3 4 -13 14 0
3 -4 13 -14 0
3 4 23 24 0
-3 4 -23 24 0
3 -4 23 -24 0
3 4 29 30 0
-3 4 -29 30 0
3 -4 29 -30 0
3 4 31 32 0
-3 4 -31 32 0
3 -4 31 -32 0
3 4 41 42 0
-3 4 -41 42 0
3 -4 41 -42 0
5 6 11 12 0
-5 6 -11 12 0
5 -6 11 -12 0
5 6 23 24 0
-5 6 -23 24 0
5 -6 23 -24 0
5 6 29 30 0
-5 6 -29 30 0
5 -6 29 -30 0
5 6 31 32 0
-5 6 -31 32 0
5 -6 31 -32 0
7 8 11 12 0
-7 8 -11 12 0
7 -8 11 -12 0
7 8 27 28 0
-7 8 -27 28 0
7 -8 27 -28 0
7 8 29 30 0
-7 8 -29 30 0
7 -8 29 -30 0
9 10 13 14 0
-9 10 -13 14 0
9 -10 13 -14 0
9 10 17 18 0
-9 10 -17 18 0
9 -10 17 -18 0
9 10 19 20 0
-9 10 -19 20 0
9 -10 19 -20 0
9 10 25 26 0
-9 10 -25 26 0
9 -10 25 -26 0
9 10 27 28 0
-9 10 -27 28 0
9 -10 27 -28 0
11 12 17 18 0
-11 12 -17 18 0
11 -12 17 -18 0
11 12 39 40 0
-11 12 -39 40 0
11 -12 39 -40 0
13 14 25 26 0
-13 14 -25 26 0
13 -14 25 -26 0
15 16 21 22 0
-15 16 -21 22 0
15 -16 21 -22 0
15 16 27 28 0
-15 16 -27 28 0
15 -16 27 -28 0
15 16 35 36 0
-15 16 -35 36 0
15 -16 35 -36 0
17 18 23 24 0
-17 18 -23 24 0
17 -18 23 -24 0
17 18 25 26 0
-17 18 -25 26 0
17 -18 25 -26 0
17 18 33 34 0
-17 18 -33 34 0
17 -18 33 -34 0
17 18 37 38 0
-17 18 -37 38 0
17 -18 37 -38 0
19 20 25 26 0
-19 20 -25 26 0
19 -20 25 -26 0
19 20 27 28 0
-19 20 -27 28 0
19 -20 27 -28 0
21 22 23 24 0
-21 22 -23 24 0
21 -22 23 -24 0
21 22 27 28 0
-21 22 -27 28 0
21 -22 27 -28 0
21 22 37 38 0
-21 22 -37 38 0
21 -22 37 -38 0
21 22 41 42 0
-21 22 -41 42 0
21 -22 41 -42 0
23 24 37 38 0
-23 24 -37 38 0
23 -24 37 -38 0
23 24 39 40 0
-23 24 -39 40 0
23 -24 39 -40 0
25 26 33 34 0
-25 26 -33 34 0
25 -26 33 -34 0
29 30 33 34 0
-29 30 -33 34 0
29 -30 33 -34 0
29 30 39 40 0
-29 30 -39 40 0
29 -30 39 -40 0
33 34 35 36 0
-33 34 -35 36 0
33 -34 35 -36 0
37 38 39 40 0
-37 38 -39 40 0
37 -38 39 -40 0
