c family=3-COL n=42 instance=4 seed=145502016 models=114
c order 11 41 1 15 42 14 7 3 32 21 38 24 25 27 20 39 30 29 23 17 10 4 9 2 34 6 13 19 26 31 8 12 22 18 16 40 36 5 35 28 33 37
c order 15 29 9 19 14 2 12 40 8 41 5 22 11 38 25 27 32 7 39 23 20 10 16 35 33 17 24 1 34 37 36 4 42 3 28 13 26 18 21 6 31 30
c order 26 25 3 39 24 27 41 20 29 13 4 1 10 37 38 42 18 32 9 16 17 14 34 40 8 21 2 12 23 6 35 15 22 5 30 36 11 33 31 28 19 7
c order 21 4 6 19 3 35 39 13 12 17 26 36 29 32 10 42 11 20 16 40 41 27 9 24 37 22 1 15 31 33 28 18 34 7 25 30 2 8 23 38 14 5
c order 25 19 7 8 11 23 26 1 36 40 12 13 33 41 14 24 4 9 32 5 6 10 3 35 27 29 39 20 31 38 2 22 34 18 17 15 28 16 21 42 30 37
c order 1 26 25 31 35 23 39 20 27 3 42 10 12 17 32 14 8 6 2 13 16 18 4 34 21 19 33 5 22 9 40 11 24 30 41 28 7 15 36 38 37 29
c order 3 19 21 5 9 26 23 10 17 24 2 39 38 32 37 18 14 27 12 4 25 1 28 35 30 16 41 7 13 11 31 42 33 20 40 15 8 34 36 22 29 6
c order 32 22 18 15 26 30 13 36 41 10 3 38 9 34 14 24 1 2 37 29 8 11 19 23 6 35 42 20 28 12 39 40 33 7 27 5 17 4 21 31 25 16
c order 11 30 7 37 1 23 16 26 32 5 8 20 41 24 40 14 18 36 4 9 34 25 17 15 27 6 2 39 3 28 10 42 35 13 19 33 12 22 21 29 31 38
c order 24 39 31 8 30 32 10 16 6 29 23 14 5 27 28 9 36 13 17 1 26 42 21 25 4 33 3 34 15 40 11 22 41 37 18 7 2 20 12 38 19 35
p cnf 42 153
-1 -2 0
-3 -4 0
-5 -6 0
-7 -8 0
-9 -10 0
-11 -12 0
-13 -14 0
-15 -16 0
-17 -18 0
-19 -20 0
-21 -22 0
-23 -24 0
-25 -26 0
-27 -28 0
-29 -30 0
-31 -32 0
-33 -34 0
-35 -36 0
-37 -38 0
-39 -40 0
-41 -42 0
1 2 5 6 0
-1 2 -5 6 0
1 -2 5 -6 0
1 2 15 16 0
-1 2 -15 16 0
1 -2 15 -16 0
1 2 17 18 0
-1 2 -17 18 0
1 -2 17 -18 0
1 2 35 36 0
-1 2 -35 36 0
1 -2 35 -36 0
3 4 7 8 0
-3 4 -7 8 0
3 -4 7 -8 0
3 4 33 34 0
-3 4 -33 34 0
3 -4 33 -34 0
3 4 41 42 0
-3 4 -41 42 0
3 -4 41 -42 0
5 6 21 22 0
-5 6 -21 22 0
5 -6 21 -22 0
5 6 27 28 0
-5 6 -27 28 0
5 -6 27 -28 0
5 6 35 36 0
-5 6 -35 36 0
5 -6 35 -36 0
5 6 37 38 0
-5 6 -37 38 0
5 -6 37 -38 0
7 8 9 10 0
-7 8 -9 10 0
7 -8 9 -10 0
7 8 15 16 0
-7 8 -15 16 0
7 -8 15 -16 0
7 8 23 24 0
-7 8 -23 24 0
7 -8 23 -24 0
7 8 29 30 0
-7 8 -29 30 0
7 -8 29 -30 0
7 8 39 40 0
-7 8 -39 40 0
7 -8 39 -40 0
9 10 17 18 0
-9 10 -17 18 0
9 -10 17 -18 0
9 10 19 20 0
-9 10 -19 20 0
9 -10 19 -20 0
9 10 21 22 0
-9 10 -21 22 0
9 -10 21 -22 0
11 12 15 16 0
-11 12 -15 16 0
11 -12 15 -16 0
11 12 17 18 0
-11 12 -17 18 0
11 -12 17 -18 0
11 12 31 32 0
-11 12 -31 32 0
11 -12 31 -32 0
13 14 17 18 0
-13 14 -17 18 0
13 -14 17 -18 0
13 14 19 20 0
-13 14 -19 20 0
13 -14 19 -20 0
13 14 29 30 0
-13 14 -29 30 0
13 -14 29 -30 0
13 14 39 40 0
-13 14 -39 40 0
13 -14 39 -40 0
15 16 27 28 0
-15 16 -27 28 0
15 -16 27 -28 0
17 18 23 24 0
-17 18 -23 24 0
17 -18 23 -24 0
17 18 25 26 0
-17 18 -25 26 0
17 -18 25 -26 0
17 18 29 30 0
-17 18 -29 30 0
17 -18 29 -30 0
17 18 39 40 0
-17 18 -39 40 0
17 -18 39 -40 0
19 20 41 42 0
-19 20 -41 42 0
19 -20 41 -42 0
21 22 23 24 0
-21 22 -23 24 0
21 -22 23 -24 0
21 22 25 26 0
-21 22 -25 26 0
21 -22 25 -26 0
21 22 31 32 0
-21 22 -31 32 0
21 -22 31 -32 0
21 22 33 34 0
-21 22 -33 34 0
21 -22 33 -34 0
23 24 27 28 0
-23 24 -27 28 0
23 -24 27 -28 0
23 24 41 42 0
-23 24 -41 42 0
23 -24 41 -42 0
25 26 27 28 0
-25 26 -27 28 0
25 -26 27 -28 0
25 26 33 34 0
-25 26 -33 34 0
25 -26 33 -34 0
27 28 35 36 0
-27 28 -35 36 0
27 -28 35 -36 0
29 30 31 32 0
-29 30 -31 32 0
29 -30 31 -32 0
29 30 41 42 0
-29 30 -41 42 0
29 -30 41 -42 0
35 36 37 38 0
-35 36 -37 38 0
35 -36 37 -38 0
