c family=3-COL n=48 instance=2 seed=145502016 models=432
c order 17 25 38 47 11 41 36 48 13 26 14 1 4 23 12 35 9 15 33 16 10 46 31 39 3 18 5 43 20 34 21 8 29 32 2 7 37 40 28 45 6 30 27 22 19 42 24 44
c order 29 37 40 33 22 8 21 12 15 13 9 11 28 45 38 6 7 5 26 27 24 20 41 17 39 18 2 31 25 47 23 3 44 4 46 10 42 34 1 16 14 35 36 30 19 43 48 32
c order 3 39 15 22 6 19 2 14 38 34 48 41 36 28 17 23 45 10 29 46 30 42 44 18 5 43 31 1 40 21 13 47 16 35 9 27 24 33 8 4 7 32 20 26 25 12 37 11
c order 42 31 17 29 36 23 24 25 7 22 9 27 5 34 44 1 20 45 30 48 11 21 37 32 19 8 38 39 2 4 26 13 6 16 46 33 35 47 40 10 28 43 18 14 41 15 3 12
c order 24 19 13 2 46 4 47 21 28 14 41 32 35 6 34 36 15 11 48 42 8 25 7 38 27 31 43 17 23 33 22 10 12 40 3 26 37 16 20 29 9 39 1 5 30 44 18 45
c order 13 45 19 37 12 32 11 23 33 46 47 34 30 35 38 44 10 6 36 15 40 16 4 17 22 7 24 27 2 31 48 25 43 42 14 20 5 3 18 28 8 29 41 21 1 9 26 39
c order 26 11 35 38 40 6 1 7 44 45 39 19 14 13 34 36 48 42 32 2 9 12 5 8 22 24 21 28 31 47 15 23 29 33 20 16 17 3 37 10 27 30 4 25 41 18 43 46
c order 21 27 30 7 1 33 18 47 36 37 41 10 46 5 11 29 44 6 9 24 48 39 32 13 42 25 20 34 35 2 4 26 45 23 16 8 3 15 12 40 17 19 14 38 28 22 31 43
c order 48 24 14 46 20 23 45 12 38 19 21 4 6 9 25 30 41 8 29 2 42 39 35 5 22 36 11 40 17 10 16 44 7 32 37 18 13 34 1 47 27 15 28 26 33 43 31 3
c order 31 17 19 16 5 3 15 45 39 18 25 42 30 46 43 21 26 9 11 35 22 34 36 41 13 24 10 33 44 47 38 32 28 14 29 20 48 2 4 7 1 27 6 23 40 37 12 8
p cnf 48 174
-1 -2 0
-3 -4 0
-5 -6 0
-7 -8 0
-9 -10 0
-11 -12 0
-13 -14 0
-15 -16 0
-17 -18 0
-19 -20 0
-21 -22 0
-23 -24 0
-25 -26 0
-27 -28 0
-29 -30 0
-31 -32 0
-33 -34 0
-35 -36 0
-37 -38 0
-39 -40 0
-41 -42 0
-43 -44 0
-45 -46 0
-47 -48 0
1 2 15 16 0
-1 2 -15 16 0
1 -2 15 -16 0
1 2 19 20 0
-1 2 -19 20 0
1 -2 19 -20 0
1 2 39 40 0
-1 2 -39 40 0
1 -2 39 -40 0
1 2 41 42 0
-1 2 -41 42 0
1 -2 41 -42 0
3 4 13 14 0
-3 4 -13 14 0
3 -4 13 -14 0
3 4 41 42 0
-3 4 -41 42 0
3 -4 41 -42 0
5 6 7 8 0
-5 6 -7 8 0
5 -6 7 -8 0
5 6 15 16 0
-5 6 -15 16 0
5 -6 15 -16 0
5 6 19 20 0
-5 6 -19 20 0
5 -6 19 -20 0
5 6 27 28 0
-5 6 -27 28 0
5 -6 27 -28 0
5 6 29 30 0
-5 6 -29 30 0
5 -6 29 -30 0
7 8 15 16 0
-7 8 -15 16 0
7 -8 15 -16 0
7 8 33 34 0
-7 8 -33 34 0
7 -8 33 -34 0
9 10 37 38 0
-9 10 -37 38 0
9 -10 37 -38 0
9 10 39 40 0
-9 10 -39 40 0
9 -10 39 -40 0
9 10 41 42 0
-9 10 -41 42 0
9 -10 41 -42 0
11 12 13 14 0
-11 12 -13 14 0
11 -12 13 -14 0
11 12 25 26 0
-11 12 -25 26 0
11 -12 25 -26 0
11 12 27 28 0
-11 12 -27 28 0
11 -12 27 -28 0
11 12 29 30 0
-11 12 -29 30 0
11 -12 29 -30 0
13 14 19 20 0
-13 14 -19 20 0
13 -14 19 -20 0
13 14 27 28 0
-13 14 -27 28 0
13 -14 27 -28 0
13 14 29 30 0
-13 14 -29 30 0
13 -14 29 -30 0
13 14 35 36 0
-13 14 -35 36 0
13 -14 35 -36 0
13 14 39 40 0
-13 14 -39 40 0
13 -14 39 -40 0
15 16 39 40 0
-15 16 -39 40 0
15 -16 39 -40 0
15 16 43 44 0
-15 16 -43 44 0
15 -16 43 -44 0
17 18 19 20 0
-17 18 -19 20 0
17 -18 19 -20 0
17 18 23 24 0
-17 18 -23 24 0
17 -18 23 -24 0
17 18 25 26 0
-17 18 -25 26 0
17 -18 25 -26 0
17 18 29 30 0
-17 18 -29 30 0
17 -18 29 -30 0
17 18 33 34 0
-17 18 -33 34 0
17 -18 33 -34 0
19 20 21 22 0
-19 20 -21 22 0
19 -20 21 -22 0
19 20 25 26 0
-19 20 -25 26 0
19 -20 25 -26 0
19 20 39 40 0
-19 20 -39 40 0
19 -20 39 -40 0
21 22 23 24 0
-21 22 -23 24 0
21 -22 23 -24 0
21 22 25 26 0
-21 22 -25 26 0
21 -22 25 -26 0
21 22 29 30 0
-21 22 -29 30 0
21 -22 29 -30 0
21 22 35 36 0
-21 22 -35 36 0
21 -22 35 -36 0
25 26 33 34 0
-25 26 -33 34 0
25 -26 33 -34 0
25 26 41 42 0
-25 26 -41 42 0
25 -26 41 -42 0
29 30 41 42 0
-29 30 -41 42 0
29 -30 41 -42 0
29 30 47 48 0
-29 30 -47 48 0
29 -30 47 -48 0
31 32 33 34 0
-31 32 -33 34 0
31 -32 33 -34 0
31 32 39 40 0
-31 32 -39 40 0
31 -32 39 -40 0
31 32 41 42 0
-31 32 -41 42 0
31 -32 41 -42 0
33 34 41 42 0
-33 34 -41 42 0
33 -34 41 -42 0
35 36 43 44 0
-35 36 -43 44 0
35 -36 43 -44 0
37 38 39 40 0
-37 38 -39 40 0
37 -38 39 -40 0
37 38 47 48 0
-37 38 -47 48 0
37 -38 47 -48 0
