c family=3-COL n=48 instance=8 seed=145502016 models=108
c order 14 17 29 34 31 30 19 2 43 1 21 9 11 48 45 35 26 37 5 4 7 22 41 25 38 23 13 44 32 10 27 40 39 3 36 15 42 20 28 47 24 6 33 8 16 18 46 12
c order 39 6 14 7 40 36 9 45 11 33 4 35 2 37 10 15 28 34 1 13 26 22 5 42 21 30 38 3 23 44 48 27 46 24 31 19 8 43 16 20 41 47 18 25 12 32 29 17
c order 22 13 42 44 28 16 36 32 4 15 2 41 17 47 5 37 43 12 48 20 26 34 39 23 30 31 6 29 10 18 25 33 8 35 1 14 19 40 7 38 45 46 11 9 3 27 24 21
c order 14 4 15 39 27 29 31 12 5 18 41 42 17 6 30 11 43 37 38 26 2 9 21 47 46 44 33 48 23 1 40 8 22 25 10 32 34 36 13 35 3 7 45 16 24 19 20 28
c order 33 16 30 19 5 11 42 31 14 39 34 17 40 47 38 8 18 7 48 15 6 28 9 10 1 20 44 23 45 26 29 25 4 32 43 2 21 24 3 13 27 37 36 35 41 22 12 46
c order 34 7 16 38 10 33 39 5 17 24 11 29 40 15 26 41 42 43 30 9 3 47 36 28 12 8 35 2 13 44 45 31 20 4 37 48 19 46 1 32 25 14 6 22 23 27 21 18
c order 25 18 6 3 44 4 47 45 13 48 16 29 36 9 24 41 30 15 21 40 33 11 19 20 5 27 1 8 46 35 34 28 26 7 12 32 42 2 23 38 37 17 43 10 22 39 14 31
c order 18 38 2 36 5 16 21 7 20 42 29 39 11 48 34 47 30 1 37 33 15 40 8 25 14 35 3 32 4 6 10 43 26 27 19 22 9 41 28 46 13 45 12 31 23 44 24 17
c order 48 2 31 17 3 35 44 29 6 5 11 14 4 1 13 39 9 22 25 23 32 26 45 43 19 34 40 24 18 8 37 21 28 20 47 38 41 36 27 15 33 7 10 30 42 46 12 16
c order 26 35 33 31 3 27 23 11 7 45 6 15 48 30 47 37 28 32 14 36 29 25 38 19 8 39 13 4 21 2 20 17 41 1 10 24 46 5 34 18 16 12 43 22 9 40 42 44
p cnf 48 174
-1 -2 0
-3 -4 0
-5 -6 0
-7 -8 0
-9 -10 0
-11 -12 0
-13 -14 0
-15 -16 0
-17 -18 0
-19 -20 0
-21 -22 0
-23 -24 0
-25 -26 0
-27 -28 0
-29 -30 0
-31 -32 0
-33 -34 0
-35 -36 0
-37 -38 0
-39 -40 0
-41 -42 0
-43 -44 0
-45 -46 0
-47 -48 0
3 4 21 22 0
-3 4 -21 22 0
3 -4 21 -22 0
3 4 25 26 0
-3 4 -25 26 0
3 -4 25 -26 0
3 4 29 30 0
-3 4 -29 30 0
3 -4 29 -30 0
5 6 7 8 0
-5 6 -7 8 0
5 -6 7 -8 0
5 6 15 16 0
-5 6 -15 16 0
5 -6 15 -16 0
5 6 17 18 0
-5 6 -17 18 0
5 -6 17 -18 0
5 6 25 26 0
-5 6 -25 26 0
5 -6 25 -26 0
5 6 45 46 0
-5 6 -45 46 0
5 -6 45 -46 0
5 6 47 48 0
-5 6 -47 48 0
5 -6 47 -48 0
7 8 17 18 0
-7 8 -17 18 0
7 -8 17 -18 0
7 8 27 28 0
-7 8 -27 28 0
7 -8 27 -28 0
7 8 39 40 0
-7 8 -39 40 0
7 -8 39 -40 0
7 8 41 42 0
-7 8 -41 42 0
7 -8 41 -42 0
9 10 25 26 0
-9 10 -25 26 0
9 -10 25 -26 0
9 10 31 32 0
-9 10 -31 32 0
9 -10 31 -32 0
11 12 21 22 0
-11 12 -21 22 0
11 -12 21 -22 0
11 12 35 36 0
-11 12 -35 36 0
11 -12 35 -36 0
11 12 37 38 0
-11 12 -37 38 0
11 -12 37 -38 0
11 12 47 48 0
-11 12 -47 48 0
11 -12 47 -48 0
13 14 43 44 0
-13 14 -43 44 0
13 -14 43 -44 0
13 14 45 46 0
-13 14 -45 46 0
13 -14 45 -46 0
15 16 19 20 0
-15 16 -19 20 0
15 -16 19 -20 0
15 16 35 36 0
-15 16 -35 36 0
15 -16 35 -36 0
15 16 39 40 0
-15 16 -39 40 0
15 -16 39 -40 0
17 18 19 20 0
-17 18 -19 20 0
17 -18 19 -20 0
17 18 21 22 0
-17 18 -21 22 0
17 -18 21 -22 0
17 18 31 32 0
-17 18 -31 32 0
17 -18 31 -32 0
17 18 43 44 0
-17 18 -43 44 0
17 -18 43 -44 0
19 20 21 22 0
-19 20 -21 22 0
19 -20 21 -22 0
19 20 41 42 0
-19 20 -41 42 0
19 -20 41 -42 0
19 20 45 46 0
-19 20 -45 46 0
19 -20 45 -46 0
21 22 37 38 0
-21 22 -37 38 0
21 -22 37 -38 0
23 24 29 30 0
-23 24 -29 30 0
23 -24 29 -30 0
23 24 43 44 0
-23 24 -43 44 0
23 -24 43 -44 0
25 26 31 32 0
-25 26 -31 32 0
25 -26 31 -32 0
25 26 45 46 0
-25 26 -45 46 0
25 -26 45 -46 0
25 26 47 48 0
-25 26 -47 48 0
25 -26 47 -48 0
27 28 31 32 0
-27 28 -31 32 0
27 -28 31 -32 0
27 28 43 44 0
-27 28 -43 44 0
27 -28 43 -44 0
29 30 31 32 0
-29 30 -31 32 0
29 -30 31 -32 0
31 32 37 38 0
-31 32 -37 38 0
31 -32 37 -38 0
31 32 45 46 0
-31 32 -45 46 0
31 -32 45 -46 0
33 34 37 38 0
-33 34 -37 38 0
33 -34 37 -38 0
33 34 41 42 0
-33 34 -41 42 0
33 -34 41 -42 0
33 34 47 48 0
-33 34 -47 48 0
33 -34 47 -48 0
35 36 37 38 0
-35 36 -37 38 0
35 -36 37 -38 0
35 36 41 42 0
-35 36 -41 42 0
35 -36 41 -42 0
37 38 45 46 0
-37 38 -45 46 0
37 -38 45 -46 0
39 40 43 44 0
-39 40 -43 44 0
39 -40 43 -44 0
39 40 47 48 0
-39 40 -47 48 0
39 -40 47 -48 0
