c family=3-COL n=48 instance=6 seed=145502016 models=24
c order 21 48 35 45 43 17 34 1 31 37 6 30 12 23 42 7 15 5 46 10 47 9 8 41 32 38 25 3 22 4 20 40 44 19 27 33 2 36 18 11 14 24 29 28 39 16 26 13
c order 37 40 28 29 46 3 20 17 48 33 10 43 19 14 25 15 5 7 23 35 32 36 39 13 42 38 31 26 6 41 11 21 22 1 8 24 27 44 34 16 30 47 12 18 45 9 4 2
c order 8 31 36 18 25 22 38 33 15 26 2 30 11 32 35 44 37 6 40 1 39 48 13 46 41 12 21 4 47 45 28 16 5 19 34 3 14 20 17 7 29 43 27 24 9 10 23 42
c order 23 44 17 6 5 38 43 22 33 24 29 31 12 30 27 3 1 40 14 4 36 9 18 47 37 41 16 7 39 2 46 10 34 26 32 13 28 35 48 20 42 25 11 19 21 8 15 45
c order 5 40 4 3 42 41 27 28 23 13 15 29 30 6 9 20 47 16 22 43 12 26 24 31 35 44 34 37 14 48 45 17 39 46 25 7 8 38 11 1 18 19 36 32 33 10 2 21
c order 21 6 3 35 26 37 12 14 9 43 17 28 23 24 36 30 13 2 20 18 33 15 48 46 40 7 34 38 11 32 41 10 4 42 5 29 44 39 8 19 31 1 22 47 27 16 45 25
c order 35 7 36 8 13 43 27 1 34 48 18 44 24 25 14 42 19 5 26 17 39 11 33 9 20 28 15 4 30 40 21 31 41 38 3 46 22 32 47 23 29 6 45 37 2 12 10 16
c order 32 7 11 12 10 18 40 13 43 48 31 27 5 39 15 34 26 33 36 20 16 37 23 38 21 30 19 17 46 6 45 41 8 35 29 9 24 47 28 3 2 1 44 22 25 14 4 42
c order 42 22 11 40 43 44 28 18 6 41 10 38 14 25 30 37 2 31 46 1 12 20 16 35 24 4 26 9 47 13 19 45 5 36 34 17 7 39 33 32 3 29 23 48 8 21 15 27
c order 17 14 39 8 15 16 40 1 4 45 19 48 20 35 24 33 5 22 13 28 3 6 34 42 25 2 38 47 31 43 18 36 23 27 32 12 7 11 44 9 29 10 37 41 30 46 26 21
p cnf 48 174
-1 -2 0
-3 -4 0
-5 -6 0
-7 -8 0
-9 -10 0
-11 -12 0
-13 -14 0
-15 -16 0
-17 -18 0
-19 -20 0
-21 -22 0
-23 -24 0
-25 -26 0
-27 -28 0
-29 -30 0
-31 -32 0
-33 -34 0
-35 -36 0
-37 -38 0
-39 -40 0
-41 -42 0
-43 -44 0
-45 -46 0
-47 -48 0
1 2 3 4 0
-1 2 -3 4 0
1 -2 3 -4 0
1 2 5 6 0
-1 2 -5 6 0
1 -2 5 -6 0
1 2 9 10 0
-1 2 -9 10 0
1 -2 9 -10 0
1 2 13 14 0
-1 2 -13 14 0
1 -2 13 -14 0
1 2 21 22 0
-1 2 -21 22 0
1 -2 21 -22 0
1 2 47 48 0
-1 2 -47 48 0
1 -2 47 -48 0
3 4 23 24 0
-3 4 -23 24 0
3 -4 23 -24 0
3 4 25 26 0
-3 4 -25 26 0
3 -4 25 -26 0
3 4 33 34 0
-3 4 -33 34 0
3 -4 33 -34 0
3 4 45 46 0
-3 4 -45 46 0
3 -4 45 -46 0
5 6 25 26 0
-5 6 -25 26 0
5 -6 25 -26 0
5 6 33 34 0
-5 6 -33 34 0
5 -6 33 -34 0
7 8 21 22 0
-7 8 -21 22 0
7 -8 21 -22 0
7 8 29 30 0
-7 8 -29 30 0
7 -8 29 -30 0
7 8 35 36 0
-7 8 -35 36 0
7 -8 35 -36 0
9 10 11 12 0
-9 10 -11 12 0
9 -10 11 -12 0
9 10 13 14 0
-9 10 -13 14 0
9 -10 13 -14 0
9 10 31 32 0
-9 10 -31 32 0
9 -10 31 -32 0
9 10 41 42 0
-9 10 -41 42 0
9 -10 41 -42 0
9 10 47 48 0
-9 10 -47 48 0
9 -10 47 -48 0
13 14 15 16 0
-13 14 -15 16 0
13 -14 15 -16 0
13 14 29 30 0
-13 14 -29 30 0
13 -14 29 -30 0
13 14 43 44 0
-13 14 -43 44 0
13 -14 43 -44 0
15 16 21 22 0
-15 16 -21 22 0
15 -16 21 -22 0
15 16 27 28 0
-15 16 -27 28 0
15 -16 27 -28 0
15 16 45 46 0
-15 16 -45 46 0
15 -16 45 -46 0
17 18 21 22 0
-17 18 -21 22 0
17 -18 21 -22 0
17 18 27 28 0
-17 18 -27 28 0
17 -18 27 -28 0
17 18 31 32 0
-17 18 -31 32 0
17 -18 31 -32 0
17 18 33 34 0
-17 18 -33 34 0
17 -18 33 -34 0
17 18 45 46 0
-17 18 -45 46 0
17 -18 45 -46 0
19 20 27 28 0
-19 20 -27 28 0
19 -20 27 -28 0
21 22 37 38 0
-21 22 -37 38 0
21 -22 37 -38 0
23 24 35 36 0
-23 24 -35 36 0
23 -24 35 -36 0
23 24 41 42 0
-23 24 -41 42 0
23 -24 41 -42 0
23 24 47 48 0
-23 24 -47 48 0
23 -24 47 -48 0
25 26 29 30 0
-25 26 -29 30 0
25 -26 29 -30 0
25 26 35 36 0
-25 26 -35 36 0
25 -26 35 -36 0
25 26 39 40 0
-25 26 -39 40 0
25 -26 39 -40 0
29 30 37 38 0
-29 30 -37 38 0
29 -30 37 -38 0
29 30 41 42 0
-29 30 -41 42 0
29 -30 41 -42 0
29 30 47 48 0
-29 30 -47 48 0
29 -30 47 -48 0
31 32 41 42 0
-31 32 -41 42 0
31 -32 41 -42 0
31 32 45 46 0
-31 32 -45 46 0
31 -32 45 -46 0
33 34 37 38 0
-33 34 -37 38 0
33 -34 37 -38 0
33 34 45 46 0
-33 34 -45 46 0
33 -34 45 -46 0
35 36 41 42 0
-35 36 -41 42 0
35 -36 41 -42 0
37 38 39 40 0
-37 38 -39 40 0
37 -38 39 -40 0
39 40 43 44 0
-39 40 -43 44 0
39 -40 43 -44 0
39 40 45 46 0
-39 40 -45 46 0
39 -40 45 -46 0
