c family=3-COL n=48 instance=0 seed=145502016 models=96
c order 23 46 45 29 17 5 21 48 14 24 47 19 15 36 13 12 4 42 11 25 7 38 35 31 41 6 16 2 1 3 30 22 27 20 32 9 10 40 33 44 18 39 28 37 34 26 8 43
c order 5 29 26 33 4 14 15 8 21 43 34 25 3 48 18 13 1 22 39 27 35 2 6 38 17 9 37 41 12 7 10 47 46 42 11 32 30 28 45 40 20 44 16 19 24 31 36 23
c order 4 43 37 28 3 45 21 46 19 26 32 12 2 16 29 42 17 47 41 39 11 9 31 8 44 15 18 10 35 36 48 25 23 27 24 38 33 34 1 30 13 7 40 6 20 22 14 5
c order 12 40 14 18 4 20 29 2 33 39 8 7 9 32 1 38 42 22 43 24 47 5 17 16 45 48 21 25 15 27 6 30 11 35 46 13 36 31 23 41 10 34 19 3 44 28 37 26
c order 40 38 37 25 30 45 19 42 5 46 1 4 31 9 35 11 43 24 36 21 13 34 41 39 33 15 2 18 17 8 44 23 32 47 3 29 28 7 16 48 22 10 20 6 26 27 12 14
c order 36 45 15 17 48 43 19 35 16 34 7 9 30 47 38 4 3 5 39 13 27 41 44 42 21 26 29 11 25 1 46 31 23 28 12 24 14 8 18 37 32 22 6 33 2 40 20 10
c order 28 31 27 46 43 8 11 26 47 4 38 44 20 22 2 41 24 10 45 34 42 29 18 3 21 23 35 5 13 9 19 39 1 36 32 30 17 14 25 15 40 37 33 16 48 7 6 12
c order 44 47 41 15 14 1 13 4 10 31 34 20 18 40 28 11 38 33 45 25 23 26 7 29 42 37 12 43 17 9 35 19 22 5 16 39 48 8 46 3 24 30 2 32 27 21 6 36
c order 31 34 14 3 40 26 7 35 47 21 36 10 5 38 39 48 16 18 13 24 12 6 33 23 1 28 11 27 43 29 9 4 32 25 22 37 15 2 42 19 30 45 46 41 17 20 44 8
c order 20 48 19 45 46 39 12 2 42 29 18 8 38 21 44 6 47 32 22 17 28 11 9 43 26 33 27 13 36 14 10 1 23 35 7 4 34 37 15 41 16 25 30 31 24 5 40 3
p cnf 48 174
-1 -2 0
-3 -4 0
-5 -6 0
-7 -8 0
-9 -10 0
-11 -12 0
-13 -14 0
-15 -16 0
-17 -18 0
-19 -20 0
-21 -22 0
-23 -24 0
-25 -26 0
-27 -28 0
-29 -30 0
-31 -32 0
-33 -34 0
-35 -36 0
-37 -38 0
-39 -40 0
-41 -42 0
-43 -44 0
-45 -46 0
-47 -48 0
1 2 11 12 0
-1 2 -11 12 0
1 -2 11 -12 0
1 2 27 28 0
-1 2 -27 28 0
1 -2 27 -28 0
1 2 37 38 0
-1 2 -37 38 0
1 -2 37 -38 0
1 2 45 46 0
-1 2 -45 46 0
1 -2 45 -46 0
3 4 27 28 0
-3 4 -27 28 0
3 -4 27 -28 0
3 4 39 40 0
-3 4 -39 40 0
3 -4 39 -40 0
3 4 41 42 0
-3 4 -41 42 0
3 -4 41 -42 0
3 4 43 44 0
-3 4 -43 44 0
3 -4 43 -44 0
5 6 21 22 0
-5 6 -21 22 0
5 -6 21 -22 0
5 6 29 30 0
-5 6 -29 30 0
5 -6 29 -30 0
5 6 37 38 0
-5 6 -37 38 0
5 -6 37 -38 0
5 6 41 42 0
-5 6 -41 42 0
5 -6 41 -42 0
5 6 43 44 0
-5 6 -43 44 0
5 -6 43 -44 0
5 6 47 48 0
-5 6 -47 48 0
5 -6 47 -48 0
7 8 17 18 0
-7 8 -17 18 0
7 -8 17 -18 0
7 8 25 26 0
-7 8 -25 26 0
7 -8 25 -26 0
7 8 29 30 0
-7 8 -29 30 0
7 -8 29 -30 0
9 10 15 16 0
-9 10 -15 16 0
9 -10 15 -16 0
9 10 29 30 0
-9 10 -29 30 0
9 -10 29 -30 0
11 12 31 32 0
-11 12 -31 32 0
11 -12 31 -32 0
11 12 39 40 0
-11 12 -39 40 0
11 -12 39 -40 0
11 12 41 42 0
-11 12 -41 42 0
11 -12 41 -42 0
11 12 45 46 0
-11 12 -45 46 0
11 -12 45 -46 0
11 12 47 48 0
-11 12 -47 48 0
11 -12 47 -48 0
13 14 15 16 0
-13 14 -15 16 0
13 -14 15 -16 0
13 14 21 22 0
-13 14 -21 22 0
13 -14 21 -22 0
13 14 39 40 0
-13 14 -39 40 0
13 -14 39 -40 0
15 16 23 24 0
-15 16 -23 24 0
15 -16 23 -24 0
15 16 27 28 0
-15 16 -27 28 0
15 -16 27 -28 0
15 16 41 42 0
-15 16 -41 42 0
15 -16 41 -42 0
15 16 45 46 0
-15 16 -45 46 0
15 -16 45 -46 0
17 18 19 20 0
-17 18 -19 20 0
17 -18 19 -20 0
17 18 29 30 0
-17 18 -29 30 0
17 -18 29 -30 0
17 18 35 36 0
-17 18 -35 36 0
17 -18 35 -36 0
17 18 43 44 0
-17 18 -43 44 0
17 -18 43 -44 0
17 18 47 48 0
-17 18 -47 48 0
17 -18 47 -48 0
19 20 29 30 0
-19 20 -29 30 0
19 -20 29 -30 0
19 20 35 36 0
-19 20 -35 36 0
19 -20 35 -36 0
21 22 37 38 0
-21 22 -37 38 0
21 -22 37 -38 0
23 24 37 38 0
-23 24 -37 38 0
23 -24 37 -38 0
25 26 35 36 0
-25 26 -35 36 0
25 -26 35 -36 0
25 26 45 46 0
-25 26 -45 46 0
25 -26 45 -46 0
27 28 29 30 0
-27 28 -29 30 0
27 -28 29 -30 0
27 28 39 40 0
-27 28 -39 40 0
27 -28 39 -40 0
27 28 41 42 0
-27 28 -41 42 0
27 -28 41 -42 0
29 30 33 34 0
-29 30 -33 34 0
29 -30 33 -34 0
29 30 45 46 0
-29 30 -45 46 0
29 -30 45 -46 0
35 36 37 38 0
-35 36 -37 38 0
35 -36 37 -38 0
35 36 45 46 0
-35 36 -45 46 0
35 -36 45 -46 0
43 44 47 48 0
-43 44 -47 48 0
43 -44 47 -48 0
