c family=3-COL n=48 instance=7 seed=145502016 models=144
c order 25 18 33 9 11 28 14 8 23 4 37 46 5 15 1 29 6 12 13 26 10 32 41 20 17 21 40 36 43 22 16 48 2 7 27 38 31 3 24 44 42 45 39 47 34 30 19 35
c order 21 10 45 39 4 1 29 26 27 16 2 47 5 19 33 9 11 40 14 31 42 13 28 30 48 43 8 20 6 37 32 25 36 3 23 46 18 12 17 34 24 15 7 41 22 44 35 38
c order 21 22 40 25 35 30 14 6 20 4 5 15 46 47 36 27 41 42 43 33 12 24 48 17 8 26 19 34 29 10 2 7 23 38 3 18 45 32 44 13 28 16 31 39 37 11 9 1
c order 36 5 29 22 15 35 11 42 12 13 48 38 27 18 46 32 3 7 8 19 20 44 39 21 16 30 6 45 28 33 10 2 26 37 31 24 4 17 47 41 43 23 40 1 34 25 14 9
c order 45 32 4 48 14 10 31 7 40 44 9 29 34 22 6 21 28 8 5 30 36 20 13 38 23 1 16 46 18 42 37 35 2 17 12 19 11 41 25 39 43 26 33 24 15 3 27 47
c order 20 21 1 12 47 11 26 32 45 36 17 41 13 48 37 24 6 46 35 7 42 18 4 38 27 31 14 22 5 8 39 34 2 33 40 15 28 10 23 9 19 16 30 25 29 3 43 44
c order 11 38 12 6 41 36 39 30 48 17 14 23 26 34 45 13 3 9 18 44 28 32 16 33 19 27 40 20 10 5 46 22 1 15 31 8 35 24 21 47 7 43 2 42 29 37 25 4
c order 7 32 46 4 48 41 13 9 16 3 2 34 45 27 8 30 22 14 23 39 18 38 19 31 42 33 35 21 12 47 24 6 26 28 44 11 29 43 40 5 36 17 20 37 15 1 25 10
c order 33 22 9 6 29 12 26 17 23 28 3 20 34 35 27 31 46 5 41 21 18 32 43 14 1 11 7 47 8 10 44 40 19 30 2 42 4 45 38 15 48 16 24 13 37 39 25 36
c order 3 12 30 25 7 35 26 34 28 33 21 4 1 5 37 10 23 22 29 19 32 17 9 39 20 24 18 11 40 41 8 46 43 38 48 13 47 16 45 44 42 15 36 14 6 2 27 31
p cnf 48 174
-1 -2 0
-3 -4 0
-5 -6 0
-7 -8 0
-9 -10 0
-11 -12 0
-13 -14 0
-15 -16 0
-17 -18 0
-19 -20 0
-21 -22 0
-23 -24 0
-25 -26 0
-27 -28 0
-29 -30 0
-31 -32 0
-33 -34 0
-35 -36 0
-37 -38 0
-39 -40 0
-41 -42 0
-43 -44 0
-45 -46 0
-47 -48 0
1 2 11 12 0
-1 2 -11 12 0
1 -2 11 -12 0
3 4 23 24 0
-3 4 -23 24 0
3 -4 23 -24 0
3 4 29 30 0
-3 4 -29 30 0
3 -4 29 -30 0
3 4 39 40 0
-3 4 -39 40 0
3 -4 39 -40 0
3 4 47 48 0
-3 4 -47 48 0
3 -4 47 -48 0
5 6 11 12 0
-5 6 -11 12 0
5 -6 11 -12 0
5 6 23 24 0
-5 6 -23 24 0
5 -6 23 -24 0
5 6 29 30 0
-5 6 -29 30 0
5 -6 29 -30 0
5 6 33 34 0
-5 6 -33 34 0
5 -6 33 -34 0
5 6 45 46 0
-5 6 -45 46 0
5 -6 45 -46 0
5 6 47 48 0
-5 6 -47 48 0
5 -6 47 -48 0
7 8 13 14 0
-7 8 -13 14 0
7 -8 13 -14 0
7 8 25 26 0
-7 8 -25 26 0
7 -8 25 -26 0
9 10 17 18 0
-9 10 -17 18 0
9 -10 17 -18 0
9 10 33 34 0
-9 10 -33 34 0
9 -10 33 -34 0
9 10 43 44 0
-9 10 -43 44 0
9 -10 43 -44 0
9 10 45 46 0
-9 10 -45 46 0
9 -10 45 -46 0
11 12 15 16 0
-11 12 -15 16 0
11 -12 15 -16 0
11 12 17 18 0
-11 12 -17 18 0
11 -12 17 -18 0
11 12 19 20 0
-11 12 -19 20 0
11 -12 19 -20 0
11 12 27 28 0
-11 12 -27 28 0
11 -12 27 -28 0
13 14 17 18 0
-13 14 -17 18 0
13 -14 17 -18 0
13 14 43 44 0
-13 14 -43 44 0
13 -14 43 -44 0
15 16 37 38 0
-15 16 -37 38 0
15 -16 37 -38 0
17 18 35 36 0
-17 18 -35 36 0
17 -18 35 -36 0
17 18 37 38 0
-17 18 -37 38 0
17 -18 37 -38 0
17 18 43 44 0
-17 18 -43 44 0
17 -18 43 -44 0
17 18 47 48 0
-17 18 -47 48 0
17 -18 47 -48 0
19 20 23 24 0
-19 20 -23 24 0
19 -20 23 -24 0
19 20 37 38 0
-19 20 -37 38 0
19 -20 37 -38 0
19 20 41 42 0
-19 20 -41 42 0
19 -20 41 -42 0
21 22 39 40 0
-21 22 -39 40 0
21 -22 39 -40 0
21 22 47 48 0
-21 22 -47 48 0
21 -22 47 -48 0
23 24 29 30 0
-23 24 -29 30 0
23 -24 29 -30 0
23 24 33 34 0
-23 24 -33 34 0
23 -24 33 -34 0
25 26 45 46 0
-25 26 -45 46 0
25 -26 45 -46 0
25 26 47 48 0
-25 26 -47 48 0
25 -26 47 -48 0
27 28 39 40 0
-27 28 -39 40 0
27 -28 39 -40 0
27 28 45 46 0
-27 28 -45 46 0
27 -28 45 -46 0
29 30 35 36 0
-29 30 -35 36 0
29 -30 35 -36 0
29 30 39 40 0
-29 30 -39 40 0
29 -30 39 -40 0
29 30 41 42 0
-29 30 -41 42 0
29 -30 41 -42 0
31 32 33 34 0
-31 32 -33 34 0
31 -32 33 -34 0
31 32 41 42 0
-31 32 -41 42 0
31 -32 41 -42 0
35 36 43 44 0
-35 36 -43 44 0
35 -36 43 -44 0
37 38 41 42 0
-37 38 -41 42 0
37 -38 41 -42 0
39 40 45 46 0
-39 40 -45 46 0
39 -40 45 -46 0
41 42 43 44 0
-41 42 -43 44 0
41 -42 43 -44 0
41 42 47 48 0
-41 42 -47 48 0
41 -42 47 -48 0
45 46 47 48 0
-45 46 -47 48 0
45 -46 47 -48 0
