c family=3-COL n=48 instance=5 seed=145502016 models=540
c order 5 43 24 29 20 21 15 36 10 39 6 42 14 27 22 47 17 41 31 16 19 32 44 28 30 45 8 7 11 37 1 4 3 18 40 46 13 2 34 33 48 23 25 26 12 38 9 35
c order 9 24 40 7 27 25 46 8 42 15 6 17 19 14 18 31 22 3 43 11 28 29 35 20 39 34 13 12 36 48 32 30 10 37 4 44 23 45 1 33 21 47 26 16 2 41 5 38
c order 27 21 29 40 35 28 4 25 24 9 36 33 3 10 16 42 13 23 18 1 30 32 38 7 15 47 12 43 2 46 17 48 34 44 26 41 39 37 14 22 8 11 45 31 19 20 5 6
c order 35 6 29 14 12 30 47 40 37 4 34 46 42 33 9 15 45 44 28 20 48 43 11 26 27 3 22 8 31 32 19 25 1 16 13 21 10 36 38 41 5 17 7 2 23 39 18 24
c order 6 17 30 44 39 31 9 19 34 27 45 11 26 28 41 33 47 35 29 42 18 2 16 43 15 13 20 36 23 5 1 4 37 46 14 8 38 10 24 32 48 7 3 25 12 21 22 40
c order 15 19 35 9 48 13 43 42 3 47 40 38 5 30 25 46 29 20 36 26 6 37 1 7 12 27 10 39 2 23 8 45 41 44 31 33 16 4 11 22 14 28 21 18 32 24 34 17
c order 13 29 21 25 35 10 7 48 47 12 5 37 2 36 17 24 30 44 40 45 20 15 8 11 6 22 46 34 4 16 27 23 38 28 14 33 31 1 41 9 32 3 43 18 42 26 39 19
c order 15 22 41 24 1 46 25 43 21 37 9 48 5 47 4 16 18 31 38 28 23 40 32 33 11 35 45 39 2 30 42 14 10 34 44 6 3 29 19 7 36 27 17 8 20 26 13 12
c order 1 33 10 5 16 19 41 9 22 46 4 38 27 18 26 31 43 40 12 21 37 15 8 25 3 47 34 45 14 35 32 11 23 6 42 36 24 39 48 30 29 28 7 2 20 17 13 44
c order 47 32 7 19 8 4 45 10 30 20 29 2 14 37 48 25 23 33 39 24 27 13 6 3 12 41 44 5 21 18 16 28 31 15 17 43 34 26 35 9 46 42 1 38 40 11 22 36
p cnf 48 174
-1 -2 0
-3 -4 0
-5 -6 0
-7 -8 0
-9 -10 0
-11 -12 0
-13 -14 0
-15 -16 0
-17 -18 0
-19 -20 0
-21 -22 0
-23 -24 0
-25 -26 0
-27 -28 0
-29 -30 0
-31 -32 0
-33 -34 0
-35 -36 0
-37 -38 0
-39 -40 0
-41 -42 0
-43 -44 0
-45 -46 0
-47 -48 0
1 2 7 8 0
-1 2 -7 8 0
1 -2 7 -8 0
1 2 17 18 0
-1 2 -17 18 0
1 -2 17 -18 0
1 2 35 36 0
-1 2 -35 36 0
1 -2 35 -36 0
1 2 45 46 0
-1 2 -45 46 0
1 -2 45 -46 0
3 4 9 10 0
-3 4 -9 10 0
3 -4 9 -10 0
3 4 41 42 0
-3 4 -41 42 0
3 -4 41 -42 0
3 4 45 46 0
-3 4 -45 46 0
3 -4 45 -46 0
5 6 25 26 0
-5 6 -25 26 0
5 -6 25 -26 0
5 6 43 44 0
-5 6 -43 44 0
5 -6 43 -44 0
7 8 15 16 0
-7 8 -15 16 0
7 -8 15 -16 0
7 8 29 30 0
-7 8 -29 30 0
7 -8 29 -30 0
7 8 33 34 0
-7 8 -33 34 0
7 -8 33 -34 0
7 8 43 44 0
-7 8 -43 44 0
7 -8 43 -44 0
9 10 15 16 0
-9 10 -15 16 0
9 -10 15 -16 0
9 10 19 20 0
-9 10 -19 20 0
9 -10 19 -20 0
9 10 27 28 0
-9 10 -27 28 0
9 -10 27 -28 0
9 10 35 36 0
-9 10 -35 36 0
9 -10 35 -36 0
9 10 37 38 0
-9 10 -37 38 0
9 -10 37 -38 0
9 10 39 40 0
-9 10 -39 40 0
9 -10 39 -40 0
11 12 13 14 0
-11 12 -13 14 0
11 -12 13 -14 0
11 12 15 16 0
-11 12 -15 16 0
11 -12 15 -16 0
11 12 23 24 0
-11 12 -23 24 0
11 -12 23 -24 0
11 12 33 34 0
-11 12 -33 34 0
11 -12 33 -34 0
13 14 15 16 0
-13 14 -15 16 0
13 -14 15 -16 0
13 14 17 18 0
-13 14 -17 18 0
13 -14 17 -18 0
13 14 19 20 0
-13 14 -19 20 0
13 -14 19 -20 0
13 14 27 28 0
-13 14 -27 28 0
13 -14 27 -28 0
13 14 41 42 0
-13 14 -41 42 0
13 -14 41 -42 0
15 16 35 36 0
-15 16 -35 36 0
15 -16 35 -36 0
15 16 47 48 0
-15 16 -47 48 0
15 -16 47 -48 0
17 18 37 38 0
-17 18 -37 38 0
17 -18 37 -38 0
19 20 23 24 0
-19 20 -23 24 0
19 -20 23 -24 0
19 20 31 32 0
-19 20 -31 32 0
19 -20 31 -32 0
19 20 35 36 0
-19 20 -35 36 0
19 -20 35 -36 0
19 20 45 46 0
-19 20 -45 46 0
19 -20 45 -46 0
19 20 47 48 0
-19 20 -47 48 0
19 -20 47 -48 0
21 22 41 42 0
-21 22 -41 42 0
21 -22 41 -42 0
23 24 27 28 0
-23 24 -27 28 0
23 -24 27 -28 0
23 24 41 42 0
-23 24 -41 42 0
23 -24 41 -42 0
25 26 29 30 0
-25 26 -29 30 0
25 -26 29 -30 0
27 28 35 36 0
-27 28 -35 36 0
27 -28 35 -36 0
31 32 35 36 0
-31 32 -35 36 0
31 -32 35 -36 0
31 32 47 48 0
-31 32 -47 48 0
31 -32 47 -48 0
33 34 45 46 0
-33 34 -45 46 0
33 -34 45 -46 0
35 36 39 40 0
-35 36 -39 40 0
35 -36 39 -40 0
35 36 41 42 0
-35 36 -41 42 0
35 -36 41 -42 0
35 36 43 44 0
-35 36 -43 44 0
35 -36 43 -44 0
37 38 39 40 0
-37 38 -39 40 0
37 -38 39 -40 0
43 44 45 46 0
-43 44 -45 46 0
43 -44 45 -46 0
45 46 47 48 0
-45 46 -47 48 0
45 -46 47 -48 0
