c family=3-COL n=48 instance=9 seed=145502016 models=36
c order 7 8 19 6 2 4 17 28 26 36 42 1 16 27 5 44 9 46 18 37 3 34 20 31 32 13 41 35 38 25 12 24 43 29 48 22 23 45 10 39 15 40 47 33 21 30 11 14
c order 36 28 30 38 32 13 25 20 10 22 31 26 27 47 17 16 33 29 6 42 39 14 40 44 45 19 15 2 23 21 46 35 12 11 34 4 24 3 7 41 43 37 48 1 5 18 8 9
c order 34 29 23 24 11 41 30 48 44 6 37 26 17 39 16 22 35 31 38 9 5 27 3 45 14 2 1 21 7 42 28 25 8 19 18 43 32 33 4 47 15 40 36 20 10 12 46 13
c order 45 1 28 21 43 2 33 11 46 26 38 29 39 4 35 22 14 34 42 15 12 27 30 31 9 41 5 19 44 25 24 18 7 48 17 47 32 6 36 40 13 37 10 23 3 8 16 20
c order 32 8 12 28 29 47 45 24 42 48 5 43 35 13 25 19 33 9 18 14 44 26 37 39 23 22 21 15 7 2 20 1 6 3 40 34 10 16 11 38 36 41 30 4 31 46 17 27
c order 18 25 32 37 40 34 36 22 15 30 3 2 4 38 1 28 7 39 14 24 16 9 6 19 35 10 27 45 11 33 17 48 46 5 42 21 47 26 31 13 43 8 23 44 20 12 41 29
c order 30 12 45 24 10 2 42 26 40 13 37 23 31 1 20 38 28 41 36 46 11 4 7 19 25 27 33 3 35 16 5 17 43 47 15 32 48 29 18 22 34 6 21 44 39 14 8 9
c order 27 22 42 36 5 38 10 1 7 19 48 9 37 29 44 4 18 35 31 14 2 6 13 41 46 33 24 32 39 30 15 26 3 12 17 8 25 45 20 11 43 47 23 21 40 16 34 28
c order 35 26 20 3 16 19 47 4 31 25 2 21 43 5 34 33 28 41 22 29 27 7 44 42 24 11 18 8 9 1 46 45 15 38 17 6 13 40 30 12 23 39 32 37 36 48 10 14
c order 9 2 5 20 23 15 17 29 21 11 22 32 34 30 48 1 18 12 25 7 35 41 4 24 14 43 40 39 44 31 6 36 28 42 33 45 8 13 47 3 38 10 16 46 37 26 19 27
p cnf 48 174
-1 -2 0
-3 -4 0
-5 -6 0
-7 -8 0
-9 -10 0
-11 -12 0
-13 -14 0
-15 -16 0
-17 -18 0
-19 -20 0
-21 -22 0
-23 -24 0
-25 -26 0
-27 -28 0
-29 -30 0
-31 -32 0
-33 -34 0
-35 -36 0
-37 -38 0
-39 -40 0
-41 -42 0
-43 -44 0
-45 -46 0
-47 -48 0
1 2 3 4 0
-1 2 -3 4 0
1 -2 3 -4 0
1 2 11 12 0
-1 2 -11 12 0
1 -2 11 -12 0
1 2 33 34 0
-1 2 -33 34 0
1 -2 33 -34 0
1 2 39 40 0
-1 2 -39 40 0
1 -2 39 -40 0
3 4 5 6 0
-3 4 -5 6 0
3 -4 5 -6 0
3 4 15 16 0
-3 4 -15 16 0
3 -4 15 -16 0
3 4 25 26 0
-3 4 -25 26 0
3 -4 25 -26 0
5 6 9 10 0
-5 6 -9 10 0
5 -6 9 -10 0
5 6 25 26 0
-5 6 -25 26 0
5 -6 25 -26 0
5 6 27 28 0
-5 6 -27 28 0
5 -6 27 -28 0
5 6 29 30 0
-5 6 -29 30 0
5 -6 29 -30 0
5 6 47 48 0
-5 6 -47 48 0
5 -6 47 -48 0
7 8 31 32 0
-7 8 -31 32 0
7 -8 31 -32 0
7 8 35 36 0
-7 8 -35 36 0
7 -8 35 -36 0
7 8 37 38 0
-7 8 -37 38 0
7 -8 37 -38 0
9 10 21 22 0
-9 10 -21 22 0
9 -10 21 -22 0
9 10 23 24 0
-9 10 -23 24 0
9 -10 23 -24 0
9 10 41 42 0
-9 10 -41 42 0
9 -10 41 -42 0
9 10 45 46 0
-9 10 -45 46 0
9 -10 45 -46 0
11 12 23 24 0
-11 12 -23 24 0
11 -12 23 -24 0
11 12 27 28 0
-11 12 -27 28 0
11 -12 27 -28 0
11 12 29 30 0
-11 12 -29 30 0
11 -12 29 -30 0
11 12 37 38 0
-11 12 -37 38 0
11 -12 37 -38 0
13 14 15 16 0
-13 14 -15 16 0
13 -14 15 -16 0
15 16 17 18 0
-15 16 -17 18 0
15 -16 17 -18 0
15 16 33 34 0
-15 16 -33 34 0
15 -16 33 -34 0
15 16 39 40 0
-15 16 -39 40 0
15 -16 39 -40 0
17 18 39 40 0
-17 18 -39 40 0
17 -18 39 -40 0
19 20 23 24 0
-19 20 -23 24 0
19 -20 23 -24 0
19 20 33 34 0
-19 20 -33 34 0
19 -20 33 -34 0
19 20 37 38 0
-19 20 -37 38 0
19 -20 37 -38 0
21 22 37 38 0
-21 22 -37 38 0
21 -22 37 -38 0
21 22 45 46 0
-21 22 -45 46 0
21 -22 45 -46 0
23 24 41 42 0
-23 24 -41 42 0
23 -24 41 -42 0
25 26 27 28 0
-25 26 -27 28 0
25 -26 27 -28 0
25 26 41 42 0
-25 26 -41 42 0
25 -26 41 -42 0
27 28 33 34 0
-27 28 -33 34 0
27 -28 33 -34 0
27 28 47 48 0
-27 28 -47 48 0
27 -28 47 -48 0
29 30 35 36 0
-29 30 -35 36 0
29 -30 35 -36 0
29 30 37 38 0
-29 30 -37 38 0
29 -30 37 -38 0
29 30 39 40 0
-29 30 -39 40 0
29 -30 39 -40 0
29 30 45 46 0
-29 30 -45 46 0
29 -30 45 -46 0
29 30 47 48 0
-29 30 -47 48 0
29 -30 47 -48 0
31 32 35 36 0
-31 32 -35 36 0
31 -32 35 -36 0
31 32 43 44 0
-31 32 -43 44 0
31 -32 43 -44 0
33 34 45 46 0
-33 34 -45 46 0
33 -34 45 -46 0
35 36 47 48 0
-35 36 -47 48 0
35 -36 47 -48 0
41 42 43 44 0
-41 42 -43 44 0
41 -42 43 -44 0
41 42 47 48 0
-41 42 -47 48 0
41 -42 47 -48 0
45 46 47 48 0
-45 46 -47 48 0
45 -46 47 -48 0
