c family=3-COL n=48 instance=3 seed=145502016 models=36
c order 26 16 21 10 12 48 2 22 15 7 38 20 35 24 47 17 13 32 9 46 44 28 14 29 27 39 33 36 1 42 23 34 37 11 40 30 45 43 8 4 6 25 5 3 18 41 19 31
c order 24 27 12 20 18 5 34 8 35 2 15 45 46 3 17 33 13 28 47 11 44 30 7 14 22 26 37 42 4 40 9 1 32 23 38 31 19 39 10 25 16 41 21 29 43 36 48 6
c order 41 15 21 34 1 27 10 36 47 6 23 7 40 32 22 2 4 18 28 9 35 39 29 5 20 30 38 8 17 24 14 19 48 33 43 31 12 37 11 13 3 16 42 26 45 25 46 44
c order 18 4 37 42 17 19 44 14 9 28 5 41 47 46 13 27 45 11 24 29 35 40 1 21 3 43 38 12 6 22 26 7 36 2 31 20 8 39 23 30 48 10 34 25 33 15 16 32
c order 6 35 17 26 10 47 9 42 12 15 37 38 3 21 27 22 2 30 19 13 14 5 40 31 36 48 18 20 25 33 45 24 41 43 39 44 11 1 7 16 29 32 28 23 46 34 8 4
c order 21 4 13 36 47 35 27 10 37 5 8 14 31 30 1 34 33 20 7 11 17 29 46 15 2 25 26 6 19 16 39 43 45 44 18 48 32 3 40 38 41 24 12 42 28 23 9 22
c order 30 22 19 18 20 37 33 42 39 43 29 32 21 8 31 27 40 13 34 1 3 5 16 14 48 4 12 17 45 46 35 25 15 41 24 6 2 26 11 10 38 7 28 36 44 23 9 47
c order 27 20 5 8 14 47 9 2 6 19 1 37 4 44 46 45 21 41 22 23 30 12 10 39 24 48 35 43 40 16 34 25 3 32 31 17 33 38 13 15 7 11 28 26 29 42 36 18
c order 6 21 16 9 44 25 35 47 10 20 30 5 24 43 32 37 3 42 31 27 28 18 34 33 15 38 41 45 36 14 4 23 29 40 13 26 19 8 2 11 46 12 7 22 17 48 1 39
c order 16 29 3 45 38 32 31 11 34 9 26 5 44 20 1 19 15 48 2 43 40 33 42 7 25 23 47 35 10 37 21 6 18 8 41 14 28 30 46 39 13 36 27 4 17 22 24 12
p cnf 48 174
-1 -2 0
-3 -4 0
-5 -6 0
-7 -8 0
-9 -10 0
-11 -12 0
-13 -14 0
-15 -16 0
-17 -18 0
-19 -20 0
-21 -22 0
-23 -24 0
-25 -26 0
-27 -28 0
-29 -30 0
-31 -32 0
-33 -34 0
-35 -36 0
-37 -38 0
-39 -40 0
-41 -42 0
-43 -44 0
-45 -46 0
-47 -48 0
1 2 9 10 0
-1 2 -9 10 0
1 -2 9 -10 0
1 2 31 32 0
-1 2 -31 32 0
1 -2 31 -32 0
1 2 43 44 0
-1 2 -43 44 0
1 -2 43 -44 0
3 4 7 8 0
-3 4 -7 8 0
3 -4 7 -8 0
3 4 9 10 0
-3 4 -9 10 0
3 -4 9 -10 0
3 4 17 18 0
-3 4 -17 18 0
3 -4 17 -18 0
3 4 27 28 0
-3 4 -27 28 0
3 -4 27 -28 0
3 4 29 30 0
-3 4 -29 30 0
3 -4 29 -30 0
3 4 31 32 0
-3 4 -31 32 0
3 -4 31 -32 0
3 4 47 48 0
-3 4 -47 48 0
3 -4 47 -48 0
5 6 11 12 0
-5 6 -11 12 0
5 -6 11 -12 0
5 6 37 38 0
-5 6 -37 38 0
5 -6 37 -38 0
5 6 39 40 0
-5 6 -39 40 0
5 -6 39 -40 0
5 6 43 44 0
-5 6 -43 44 0
5 -6 43 -44 0
7 8 9 10 0
-7 8 -9 10 0
7 -8 9 -10 0
7 8 21 22 0
-7 8 -21 22 0
7 -8 21 -22 0
7 8 31 32 0
-7 8 -31 32 0
7 -8 31 -32 0
9 10 35 36 0
-9 10 -35 36 0
9 -10 35 -36 0
9 10 41 42 0
-9 10 -41 42 0
9 -10 41 -42 0
9 10 43 44 0
-9 10 -43 44 0
9 -10 43 -44 0
11 12 15 16 0
-11 12 -15 16 0
11 -12 15 -16 0
11 12 21 22 0
-11 12 -21 22 0
11 -12 21 -22 0
11 12 43 44 0
-11 12 -43 44 0
11 -12 43 -44 0
13 14 23 24 0
-13 14 -23 24 0
13 -14 23 -24 0
13 14 39 40 0
-13 14 -39 40 0
13 -14 39 -40 0
15 16 17 18 0
-15 16 -17 18 0
15 -16 17 -18 0
15 16 31 32 0
-15 16 -31 32 0
15 -16 31 -32 0
15 16 37 38 0
-15 16 -37 38 0
15 -16 37 -38 0
15 16 43 44 0
-15 16 -43 44 0
15 -16 43 -44 0
15 16 45 46 0
-15 16 -45 46 0
15 -16 45 -46 0
19 20 33 34 0
-19 20 -33 34 0
19 -20 33 -34 0
19 20 37 38 0
-19 20 -37 38 0
19 -20 37 -38 0
21 22 33 34 0
-21 22 -33 34 0
21 -22 33 -34 0
21 22 35 36 0
-21 22 -35 36 0
21 -22 35 -36 0
21 22 41 42 0
-21 22 -41 42 0
21 -22 41 -42 0
21 22 45 46 0
-21 22 -45 46 0
21 -22 45 -46 0
23 24 27 28 0
-23 24 -27 28 0
23 -24 27 -28 0
23 24 31 32 0
-23 24 -31 32 0
23 -24 31 -32 0
25 26 39 40 0
-25 26 -39 40 0
25 -26 39 -40 0
27 28 35 36 0
-27 28 -35 36 0
27 -28 35 -36 0
27 28 39 40 0
-27 28 -39 40 0
27 -28 39 -40 0
29 30 35 36 0
-29 30 -35 36 0
29 -30 35 -36 0
31 32 47 48 0
-31 32 -47 48 0
31 -32 47 -48 0
33 34 45 46 0
-33 34 -45 46 0
33 -34 45 -46 0
35 36 37 38 0
-35 36 -37 38 0
35 -36 37 -38 0
37 38 43 44 0
-37 38 -43 44 0
37 -38 43 -44 0
37 38 47 48 0
-37 38 -47 48 0
37 -38 47 -48 0
39 40 47 48 0
-39 40 -47 48 0
39 -40 47 -48 0
43 44 45 46 0
-43 44 -45 46 0
43 -44 45 -46 0
45 46 47 48 0
-45 46 -47 48 0
45 -46 47 -48 0
