c family=3-COL n=48 instance=1 seed=145502016 models=948
c order 3 9 32 46 45 6 39 22 2 23 4 28 8 24 44 27 40 17 34 7 25 12 48 16 38 13 41 20 26 18 30 14 33 47 29 11 35 37 43 1 36 42 31 10 5 15 21 19
c order 40 46 23 37 36 48 47 18 14 39 7 45 13 35 26 12 38 6 19 9 41 11 31 17 2 27 30 1 21 20 33 8 10 42 44 3 5 24 32 29 15 43 34 16 25 22 28 4
c order 6 31 26 36 28 20 19 14 45 47 4 37 35 38 24 9 3 21 2 33 12 48 11 29 8 39 7 23 46 10 27 30 22 13 44 40 42 16 17 1 25 43 32 5 15 18 34 41
c order 12 39 3 15 30 18 43 19 38 21 25 34 9 14 41 1 42 13 17 37 11 31 35 27 24 40 10 26 20 33 32 2 4 48 7 46 29 16 47 22 44 8 5 45 28 23 36 6
c order 26 40 3 30 1 24 33 7 31 42 36 21 6 4 38 39 11 14 32 5 35 20 2 27 44 10 47 48 34 23 25 15 18 17 9 45 13 19 16 28 46 43 22 37 29 12 8 41
c order 10 44 28 16 1 24 2 18 27 22 40 35 32 47 8 48 4 46 5 37 31 30 15 6 33 11 26 19 29 12 21 45 41 36 13 23 3 43 14 20 25 17 38 42 34 39 9 7
c order 13 41 5 42 30 16 39 17 4 26 35 37 45 9 36 10 18 19 11 14 23 33 31 1 40 29 15 47 25 6 43 32 2 28 24 22 7 3 21 44 27 20 38 46 48 34 8 12
c order 42 11 4 13 25 10 1 27 48 35 36 37 26 31 2 33 12 16 28 15 41 47 29 23 46 44 18 17 14 7 45 32 38 34 40 21 22 43 6 5 8 20 30 24 9 19 3 39
c order 37 38 26 24 15 18 44 30 13 9 14 36 39 47 7 41 28 42 20 43 10 12 11 48 33 29 2 25 46 17 45 31 35 27 3 32 40 1 4 5 19 6 23 8 22 34 16 21
c order 16 48 14 9 12 30 5 22 39 24 20 19 21 36 2 10 26 25 23 27 6 18 40 13 47 11 32 44 3 41 4 45 8 33 46 43 37 42 28 1 38 34 17 15 35 29 7 31
p cnf 48 174
-1 -2 0
-3 -4 0
-5 -6 0
-7 -8 0
-9 -10 0
-11 -12 0
-13 -14 0
-15 -16 0
-17 -18 0
-19 -20 0
-21 -22 0
-23 -24 0
-25 -26 0
-27 -28 0
-29 -30 0
-31 -32 0
-33 -34 0
-35 -36 0
-37 -38 0
-39 -40 0
-41 -42 0
-43 -44 0
-45 -46 0
-47 -48 0
1 2 13 14 0
-1 2 -13 14 0
1 -2 13 -14 0
1 2 27 28 0
-1 2 -27 28 0
1 -2 27 -28 0
1 2 33 34 0
-1 2 -33 34 0
1 -2 33 -34 0
1 2 47 48 0
-1 2 -47 48 0
1 -2 47 -48 0
3 4 47 48 0
-3 4 -47 48 0
3 -4 47 -48 0
5 6 7 8 0
-5 6 -7 8 0
5 -6 7 -8 0
5 6 9 10 0
-5 6 -9 10 0
5 -6 9 -10 0
5 6 19 20 0
-5 6 -19 20 0
5 -6 19 -20 0
5 6 21 22 0
-5 6 -21 22 0
5 -6 21 -22 0
5 6 31 32 0
-5 6 -31 32 0
5 -6 31 -32 0
5 6 43 44 0
-5 6 -43 44 0
5 -6 43 -44 0
7 8 11 12 0
-7 8 -11 12 0
7 -8 11 -12 0
7 8 33 34 0
-7 8 -33 34 0
7 -8 33 -34 0
7 8 37 38 0
-7 8 -37 38 0
7 -8 37 -38 0
7 8 39 40 0
-7 8 -39 40 0
7 -8 39 -40 0
9 10 29 30 0
-9 10 -29 30 0
9 -10 29 -30 0
9 10 45 46 0
-9 10 -45 46 0
9 -10 45 -46 0
11 12 23 24 0
-11 12 -23 24 0
11 -12 23 -24 0
11 12 27 28 0
-11 12 -27 28 0
11 -12 27 -28 0
13 14 33 34 0
-13 14 -33 34 0
13 -14 33 -34 0
13 14 39 40 0
-13 14 -39 40 0
13 -14 39 -40 0
13 14 41 42 0
-13 14 -41 42 0
13 -14 41 -42 0
15 16 17 18 0
-15 16 -17 18 0
15 -16 17 -18 0
15 16 27 28 0
-15 16 -27 28 0
15 -16 27 -28 0
17 18 27 28 0
-17 18 -27 28 0
17 -18 27 -28 0
17 18 37 38 0
-17 18 -37 38 0
17 -18 37 -38 0
17 18 45 46 0
-17 18 -45 46 0
17 -18 45 -46 0
19 20 33 34 0
-19 20 -33 34 0
19 -20 33 -34 0
19 20 43 44 0
-19 20 -43 44 0
19 -20 43 -44 0
19 20 45 46 0
-19 20 -45 46 0
19 -20 45 -46 0
19 20 47 48 0
-19 20 -47 48 0
19 -20 47 -48 0
21 22 39 40 0
-21 22 -39 40 0
21 -22 39 -40 0
23 24 33 34 0
-23 24 -33 34 0
23 -24 33 -34 0
23 24 45 46 0
-23 24 -45 46 0
23 -24 45 -46 0
25 26 29 30 0
-25 26 -29 30 0
25 -26 29 -30 0
25 26 35 36 0
-25 26 -35 36 0
25 -26 35 -36 0
25 26 39 40 0
-25 26 -39 40 0
25 -26 39 -40 0
27 28 29 30 0
-27 28 -29 30 0
27 -28 29 -30 0
27 28 31 32 0
-27 28 -31 32 0
27 -28 31 -32 0
27 28 35 36 0
-27 28 -35 36 0
27 -28 35 -36 0
27 28 39 40 0
-27 28 -39 40 0
27 -28 39 -40 0
27 28 41 42 0
-27 28 -41 42 0
27 -28 41 -42 0
29 30 31 32 0
-29 30 -31 32 0
29 -30 31 -32 0
31 32 47 48 0
-31 32 -47 48 0
31 -32 47 -48 0
33 34 41 42 0
-33 34 -41 42 0
33 -34 41 -42 0
35 36 39 40 0
-35 36 -39 40 0
35 -36 39 -40 0
35 36 45 46 0
-35 36 -45 46 0
35 -36 45 -46 0
35 36 47 48 0
-35 36 -47 48 0
35 -36 47 -48 0
41 42 43 44 0
-41 42 -43 44 0
41 -42 43 -44 0
43 44 45 46 0
-43 44 -45 46 0
43 -44 45 -46 0
