c family=3-COL n=48 instance=4 seed=145502016 models=36
c order 39 8 41 2 23 24 42 46 11 21 7 1 33 27 34 44 37 5 3 35 40 22 45 4 43 29 17 31 25 10 9 14 20 26 28 16 18 12 47 30 36 38 6 15 48 32 19 13
c order 11 12 18 41 35 37 21 30 19 32 4 10 29 26 7 22 23 38 2 5 8 3 15 31 39 28 27 40 43 34 33 14 36 1 20 17 44 46 47 13 42 6 24 48 25 9 45 16
c order 25 17 18 24 42 39 46 30 7 28 14 36 45 9 13 44 23 22 47 38 27 3 41 29 31 4 48 5 20 8 34 10 11 26 15 40 32 43 6 12 16 33 1 35 21 19 2 37
c order 2 32 48 33 5 45 36 15 10 46 34 37 11 19 39 47 4 17 40 41 38 23 31 35 24 42 18 16 20 8 26 22 25 30 14 44 43 12 29 1 9 7 3 27 13 6 28 21
c order 2 4 15 40 20 22 16 27 7 48 30 43 47 31 5 46 34 17 26 42 8 37 24 45 39 28 38 19 11 32 35 36 13 21 25 33 3 1 44 12 10 9 29 41 6 23 14 18
c order 2 3 45 14 28 6 39 21 29 34 35 15 31 19 40 20 23 26 22 17 33 42 32 46 37 7 4 24 44 5 25 48 30 9 12 43 11 41 10 13 36 47 27 18 16 8 38 1
c order 14 18 36 29 33 2 22 4 45 30 19 3 39 47 41 11 28 32 35 43 5 37 24 9 46 7 20 21 17 38 10 34 13 12 42 25 48 31 26 6 27 23 8 16 40 44 15 1
c order 43 35 2 22 30 7 15 17 18 29 16 20 31 14 9 10 11 37 24 46 34 41 8 26 36 5 21 6 12 3 25 39 1 38 47 28 48 45 4 32 33 42 40 23 13 44 19 27
c order 5 29 2 12 22 25 47 6 17 4 27 28 40 33 38 36 34 44 13 48 3 14 24 19 31 41 30 32 35 43 11 8 1 42 39 18 20 15 10 7 37 26 45 9 16 23 21 46
c order 48 44 24 26 19 27 1 46 43 9 6 37 42 7 40 12 31 39 45 5 13 10 8 15 3 32 21 33 23 14 18 36 30 16 25 29 20 17 28 11 35 38 47 34 4 2 41 22
p cnf 48 174
-1 -2 0
-3 -4 0
-5 -6 0
-7 -8 0
-9 -10 0
-11 -12 0
-13 -14 0
-15 -16 0
-17 -18 0
-19 -20 0
-21 -22 0
-23 -24 0
-25 -26 0
-27 -28 0
-29 -30 0
-31 -32 0
-33 -34 0
-35 -36 0
-37 -38 0
-39 -40 0
-41 -42 0
-43 -44 0
-45 -46 0
-47 -48 0
1 2 19 20 0
-1 2 -19 20 0
1 -2 19 -20 0
1 2 31 32 0
-1 2 -31 32 0
1 -2 31 -32 0
3 4 5 6 0
-3 4 -5 6 0
3 -4 5 -6 0
3 4 27 28 0
-3 4 -27 28 0
3 -4 27 -28 0
3 4 29 30 0
-3 4 -29 30 0
3 -4 29 -30 0
3 4 31 32 0
-3 4 -31 32 0
3 -4 31 -32 0
5 6 11 12 0
-5 6 -11 12 0
5 -6 11 -12 0
5 6 19 20 0
-5 6 -19 20 0
5 -6 19 -20 0
5 6 27 28 0
-5 6 -27 28 0
5 -6 27 -28 0
7 8 13 14 0
-7 8 -13 14 0
7 -8 13 -14 0
7 8 21 22 0
-7 8 -21 22 0
7 -8 21 -22 0
7 8 33 34 0
-7 8 -33 34 0
7 -8 33 -34 0
7 8 35 36 0
-7 8 -35 36 0
7 -8 35 -36 0
9 10 13 14 0
-9 10 -13 14 0
9 -10 13 -14 0
9 10 25 26 0
-9 10 -25 26 0
9 -10 25 -26 0
9 10 27 28 0
-9 10 -27 28 0
9 -10 27 -28 0
9 10 31 32 0
-9 10 -31 32 0
9 -10 31 -32 0
9 10 45 46 0
-9 10 -45 46 0
9 -10 45 -46 0
11 12 33 34 0
-11 12 -33 34 0
11 -12 33 -34 0
11 12 39 40 0
-11 12 -39 40 0
11 -12 39 -40 0
13 14 19 20 0
-13 14 -19 20 0
13 -14 19 -20 0
13 14 23 24 0
-13 14 -23 24 0
13 -14 23 -24 0
13 14 25 26 0
-13 14 -25 26 0
13 -14 25 -26 0
13 14 27 28 0
-13 14 -27 28 0
13 -14 27 -28 0
13 14 29 30 0
-13 14 -29 30 0
13 -14 29 -30 0
15 16 19 20 0
-15 16 -19 20 0
15 -16 19 -20 0
15 16 25 26 0
-15 16 -25 26 0
15 -16 25 -26 0
15 16 37 38 0
-15 16 -37 38 0
15 -16 37 -38 0
15 16 41 42 0
-15 16 -41 42 0
15 -16 41 -42 0
17 18 27 28 0
-17 18 -27 28 0
17 -18 27 -28 0
17 18 29 30 0
-17 18 -29 30 0
17 -18 29 -30 0
17 18 33 34 0
-17 18 -33 34 0
17 -18 33 -34 0
19 20 27 28 0
-19 20 -27 28 0
19 -20 27 -28 0
19 20 35 36 0
-19 20 -35 36 0
19 -20 35 -36 0
19 20 37 38 0
-19 20 -37 38 0
19 -20 37 -38 0
21 22 29 30 0
-21 22 -29 30 0
21 -22 29 -30 0
21 22 33 34 0
-21 22 -33 34 0
21 -22 33 -34 0
21 22 35 36 0
-21 22 -35 36 0
21 -22 35 -36 0
21 22 39 40 0
-21 22 -39 40 0
21 -22 39 -40 0
23 24 31 32 0
-23 24 -31 32 0
23 -24 31 -32 0
23 24 43 44 0
-23 24 -43 44 0
23 -24 43 -44 0
25 26 31 32 0
-25 26 -31 32 0
25 -26 31 -32 0
25 26 47 48 0
-25 26 -47 48 0
25 -26 47 -48 0
27 28 43 44 0
-27 28 -43 44 0
27 -28 43 -44 0
29 30 31 32 0
-29 30 -31 32 0
29 -30 31 -32 0
29 30 33 34 0
-29 30 -33 34 0
29 -30 33 -34 0
29 30 43 44 0
-29 30 -43 44 0
29 -30 43 -44 0
31 32 39 40 0
-31 32 -39 40 0
31 -32 39 -40 0
31 32 43 44 0
-31 32 -43 44 0
31 -32 43 -44 0
41 42 45 46 0
-41 42 -45 46 0
41 -42 45 -46 0
