c family=3-COL n=54 instance=2 seed=145502016 models=504
c order 4 20 31 38 28 40 43 13 7 3 45 27 37 10 14 44 2 1 17 15 23 54 42 32 48 46 21 19 39 53 52 47 25 49 12 33 41 11 34 29 36 8 30 22 35 26 50 18 24 51 9 5 16 6
c order 26 54 38 5 6 16 33 41 44 7 4 20 51 34 29 3 46 23 45 27 31 1 15 36 50 10 37 49 22 19 43 24 32 13 9 11 18 30 21 35 2 17 39 42 53 12 8 40 48 47 28 52 14 25
c order 20 39 10 7 26 12 43 16 31 6 28 50 18 13 24 46 36 51 37 32 4 34 33 44 1 42 2 25 54 15 45 40 30 22 49 41 11 35 52 9 21 17 27 14 8 38 29 53 5 23 47 48 19 3
c order 44 33 26 27 13 46 1 11 36 9 3 45 21 42 7 10 49 37 51 40 43 19 38 41 25 52 29 15 54 12 5 35 22 18 47 4 48 31 23 6 16 24 32 50 20 28 2 14 34 8 39 30 53 17
c order 25 47 32 38 51 30 24 34 35 44 2 37 41 3 8 26 40 6 22 46 15 23 16 33 20 9 54 52 31 12 4 17 28 11 45 13 50 1 19 10 42 7 5 43 36 48 14 29 27 21 49 53 18 39
c order 23 21 29 47 10 27 13 46 38 43 26 31 52 18 49 2 3 8 20 12 4 34 54 28 50 15 14 35 33 41 30 36 53 45 9 42 25 32 19 5 11 44 51 37 24 40 16 48 22 17 39 7 1 6
c order 19 23 31 42 46 11 12 3 50 10 53 27 7 30 6 47 25 14 28 36 39 24 16 40 4 32 45 15 13 18 21 41 1 8 51 38 22 17 5 49 43 2 44 34 29 52 20 35 37 26 9 33 54 48
c order 47 41 13 29 26 51 24 20 52 22 7 50 3 11 25 44 14 17 16 19 36 28 34 37 38 31 33 40 27 12 18 2 10 6 21 15 48 30 46 32 43 45 5 54 4 53 8 39 42 49 23 35 9 1
c order 11 50 32 48 8 19 51 3 49 45 34 42 52 44 17 4 16 20 28 29 36 13 39 6 53 47 21 14 5 26 9 38 15 33 1 18 35 41 40 22 46 27 30 10 12 7 23 31 25 54 24 43 2 37
c order 21 20 7 8 15 14 18 26 31 2 38 33 1 12 25 5 41 42 32 6 46 27 19 47 39 37 17 51 22 36 44 30 29 11 16 23 43 34 24 45 50 49 35 40 13 4 28 54 9 10 48 52 3 53
p cnf 54 198
-1 -2 0
-3 -4 0
-5 -6 0
-7 -8 0
-9 -10 0
-11 -12 0
-13 -14 0
-15 -16 0
-17 -18 0
-19 -20 0
-21 -22 0
-23 -24 0
-25 -26 0
-27 -28 0
-29 -30 0
-31 -32 0
-33 -34 0
-35 -36 0
-37 -38 0
-39 -40 0
-41 -42 0
-43 -44 0
-45 -46 0
-47 -48 0
-49 -50 0
-51 -52 0
-53 -54 0
1 2 5 6 0
-1 2 -5 6 0
1 -2 5 -6 0
1 2 11 12 0
-1 2 -11 12 0
1 -2 11 -12 0
1 2 21 22 0
-1 2 -21 22 0
1 -2 21 -22 0
1 2 25 26 0
-1 2 -25 26 0
1 -2 25 -26 0
3 4 5 6 0
-3 4 -5 6 0
3 -4 5 -6 0
3 4 11 12 0
-3 4 -11 12 0
3 -4 11 -12 0
3 4 23 24 0
-3 4 -23 24 0
3 -4 23 -24 0
3 4 25 26 0
-3 4 -25 26 0
3 -4 25 -26 0
3 4 47 48 0
-3 4 -47 48 0
3 -4 47 -48 0
5 6 17 18 0
-5 6 -17 18 0
5 -6 17 -18 0
7 8 19 20 0
-7 8 -19 20 0
7 -8 19 -20 0
7 8 33 34 0
-7 8 -33 34 0
7 -8 33 -34 0
7 8 41 42 0
-7 8 -41 42 0
7 -8 41 -42 0
7 8 43 44 0
-7 8 -43 44 0
7 -8 43 -44 0
7 8 51 52 0
-7 8 -51 52 0
7 -8 51 -52 0
9 10 17 18 0
-9 10 -17 18 0
9 -10 17 -18 0
9 10 41 42 0
-9 10 -41 42 0
9 -10 41 -42 0
11 12 25 26 0
-11 12 -25 26 0
11 -12 25 -26 0
11 12 39 40 0
-11 12 -39 40 0
11 -12 39 -40 0
13 14 15 16 0
-13 14 -15 16 0
13 -14 15 -16 0
13 14 19 20 0
-13 14 -19 20 0
13 -14 19 -20 0
13 14 25 26 0
-13 14 -25 26 0
13 -14 25 -26 0
13 14 31 32 0
-13 14 -31 32 0
13 -14 31 -32 0
13 14 35 36 0
-13 14 -35 36 0
13 -14 35 -36 0
13 14 53 54 0
-13 14 -53 54 0
13 -14 53 -54 0
15 16 17 18 0
-15 16 -17 18 0
15 -16 17 -18 0
15 16 29 30 0
-15 16 -29 30 0
15 -16 29 -30 0
15 16 33 34 0
-15 16 -33 34 0
15 -16 33 -34 0
15 16 35 36 0
-15 16 -35 36 0
15 -16 35 -36 0
17 18 27 28 0
-17 18 -27 28 0
17 -18 27 -28 0
19 20 39 40 0
-19 20 -39 40 0
19 -20 39 -40 0
19 20 53 54 0
-19 20 -53 54 0
19 -20 53 -54 0
21 22 33 34 0
-21 22 -33 34 0
21 -22 33 -34 0
21 22 47 48 0
-21 22 -47 48 0
21 -22 47 -48 0
21 22 49 50 0
-21 22 -49 50 0
21 -22 49 -50 0
23 24 27 28 0
-23 24 -27 28 0
23 -24 27 -28 0
23 24 35 36 0
-23 24 -35 36 0
23 -24 35 -36 0
23 24 45 46 0
-23 24 -45 46 0
23 -24 45 -46 0
23 24 51 52 0
-23 24 -51 52 0
23 -24 51 -52 0
25 26 27 28 0
-25 26 -27 28 0
25 -26 27 -28 0
25 26 41 42 0
-25 26 -41 42 0
25 -26 41 -42 0
25 26 45 46 0
-25 26 -45 46 0
25 -26 45 -46 0
27 28 51 52 0
-27 28 -51 52 0
27 -28 51 -52 0
29 30 35 36 0
-29 30 -35 36 0
29 -30 35 -36 0
29 30 53 54 0
-29 30 -53 54 0
29 -30 53 -54 0
33 34 45 46 0
-33 34 -45 46 0
33 -34 45 -46 0
35 36 39 40 0
-35 36 -39 40 0
35 -36 39 -40 0
35 36 41 42 0
-35 36 -41 42 0
35 -36 41 -42 0
37 38 49 50 0
-37 38 -49 50 0
37 -38 49 -50 0
37 38 51 52 0
-37 38 -51 52 0
37 -38 51 -52 0
37 38 53 54 0
-37 38 -53 54 0
37 -38 53 -54 0
41 42 45 46 0
-41 42 -45 46 0
41 -42 45 -46 0
43 44 45 46 0
-43 44 -45 46 0
43 -44 45 -46 0
45 46 49 50 0
-45 46 -49 50 0
45 -46 49 -50 0
45 46 51 52 0
-45 46 -51 52 0
45 -46 51 -52 0
49 50 53 54 0
-49 50 -53 54 0
49 -50 53 -54 0
51 52 53 54 0
-51 52 -53 54 0
51 -52 53 -54 0
