c family=3-COL n=54 instance=0 seed=145502016 models=90
c order 8 54 26 41 29 11 44 40 51 33 34 47 3 32 1 42 5 22 16 7 20 24 28 9 37 49 31 14 23 39 50 46 4 6 15 53 45 35 38 12 10 13 36 18 2 52 19 43 30 48 21 27 25 17
c order 13 49 54 44 47 35 39 41 43 10 11 48 38 17 6 27 50 8 46 40 52 2 29 34 31 14 42 32 21 12 18 19 24 23 53 9 28 4 1 22 3 5 30 15 51 25 45 7 33 36 20 37 16 26
c order 26 12 28 23 32 49 14 52 45 19 27 20 9 46 3 17 39 35 38 33 1 16 37 43 42 54 6 29 7 5 30 36 4 21 11 41 15 25 22 50 34 48 10 47 40 53 2 51 13 31 24 44 18 8
c order 51 3 26 25 10 36 5 46 33 41 27 52 28 7 40 24 13 11 45 12 29 32 16 17 53 38 37 20 44 8 4 39 18 15 35 54 14 31 21 43 47 9 19 30 23 50 42 48 22 34 49 2 6 1
c order 29 31 25 38 35 16 24 6 52 26 37 4 32 50 3 13 43 44 22 12 53 18 11 20 30 47 33 17 48 54 8 42 28 19 14 9 10 21 36 49 7 15 51 40 39 23 34 2 46 41 27 5 1 45
c order 52 25 1 16 31 44 50 45 13 34 2 20 42 18 38 49 9 11 33 27 36 10 3 39 48 51 28 12 22 32 7 19 15 14 6 30 37 23 54 46 5 8 24 17 26 40 21 4 41 47 35 29 43 53
c order 31 25 5 11 15 42 30 7 9 19 51 47 36 13 46 18 6 16 14 29 40 24 53 1 12 3 45 33 52 32 17 8 21 27 26 2 28 41 39 20 23 10 43 48 54 22 50 44 37 49 4 34 38 35
c order 44 21 8 37 52 4 42 15 38 7 35 18 27 22 11 36 39 24 17 28 46 50 14 5 19 33 48 32 23 47 34 43 13 6 40 31 16 29 1 12 45 9 41 2 54 10 53 51 25 20 26 30 49 3
c order 19 37 28 34 2 7 4 3 30 50 54 48 11 21 27 9 42 8 43 47 32 52 16 40 39 26 5 13 14 10 18 24 45 38 15 36 44 17 6 51 23 29 25 35 53 31 1 46 12 22 41 33 20 49
c order 33 8 35 54 36 43 4 2 10 47 31 38 11 40 50 6 13 21 14 3 45 18 52 1 32 53 39 20 5 26 49 48 22 16 25 37 28 19 46 17 51 24 12 41 9 7 29 23 34 44 27 42 30 15
p cnf 54 198
-1 -2 0
-3 -4 0
-5 -6 0
-7 -8 0
-9 -10 0
-11 -12 0
-13 -14 0
-15 -16 0
-17 -18 0
-19 -20 0
-21 -22 0
-23 -24 0
-25 -26 0
-27 -28 0
-29 -30 0
-31 -32 0
-33 -34 0
-35 -36 0
-37 -38 0
-39 -40 0
-41 -42 0
-43 -44 0
-45 -46 0
-47 -48 0
-49 -50 0
-51 -52 0
-53 -54 0
1 2 13 14 0
-1 2 -13 14 0
1 -2 13 -14 0
1 2 31 32 0
-1 2 -31 32 0
1 -2 31 -32 0
3 4 23 24 0
-3 4 -23 24 0
3 -4 23 -24 0
3 4 31 32 0
-3 4 -31 32 0
3 -4 31 -32 0
3 4 35 36 0
-3 4 -35 36 0
3 -4 35 -36 0
3 4 39 40 0
-3 4 -39 40 0
3 -4 39 -40 0
5 6 15 16 0
-5 6 -15 16 0
5 -6 15 -16 0
5 6 31 32 0
-5 6 -31 32 0
5 -6 31 -32 0
5 6 39 40 0
-5 6 -39 40 0
5 -6 39 -40 0
5 6 41 42 0
-5 6 -41 42 0
5 -6 41 -42 0
5 6 47 48 0
-5 6 -47 48 0
5 -6 47 -48 0
5 6 53 54 0
-5 6 -53 54 0
5 -6 53 -54 0
7 8 11 12 0
-7 8 -11 12 0
7 -8 11 -12 0
7 8 27 28 0
-7 8 -27 28 0
7 -8 27 -28 0
7 8 33 34 0
-7 8 -33 34 0
7 -8 33 -34 0
7 8 35 36 0
-7 8 -35 36 0
7 -8 35 -36 0
7 8 51 52 0
-7 8 -51 52 0
7 -8 51 -52 0
11 12 15 16 0
-11 12 -15 16 0
11 -12 15 -16 0
11 12 23 24 0
-11 12 -23 24 0
11 -12 23 -24 0
11 12 31 32 0
-11 12 -31 32 0
11 -12 31 -32 0
11 12 41 42 0
-11 12 -41 42 0
11 -12 41 -42 0
11 12 43 44 0
-11 12 -43 44 0
11 -12 43 -44 0
11 12 53 54 0
-11 12 -53 54 0
11 -12 53 -54 0
13 14 23 24 0
-13 14 -23 24 0
13 -14 23 -24 0
13 14 31 32 0
-13 14 -31 32 0
13 -14 31 -32 0
13 14 35 36 0
-13 14 -35 36 0
13 -14 35 -36 0
13 14 37 38 0
-13 14 -37 38 0
13 -14 37 -38 0
15 16 17 18 0
-15 16 -17 18 0
15 -16 17 -18 0
17 18 27 28 0
-17 18 -27 28 0
17 -18 27 -28 0
19 20 27 28 0
-19 20 -27 28 0
19 -20 27 -28 0
19 20 35 36 0
-19 20 -35 36 0
19 -20 35 -36 0
19 20 41 42 0
-19 20 -41 42 0
19 -20 41 -42 0
19 20 53 54 0
-19 20 -53 54 0
19 -20 53 -54 0
21 22 33 34 0
-21 22 -33 34 0
21 -22 33 -34 0
21 22 37 38 0
-21 22 -37 38 0
21 -22 37 -38 0
21 22 51 52 0
-21 22 -51 52 0
21 -22 51 -52 0
23 24 27 28 0
-23 24 -27 28 0
23 -24 27 -28 0
23 24 33 34 0
-23 24 -33 34 0
23 -24 33 -34 0
25 26 29 30 0
-25 26 -29 30 0
25 -26 29 -30 0
25 26 45 46 0
-25 26 -45 46 0
25 -26 45 -46 0
27 28 53 54 0
-27 28 -53 54 0
27 -28 53 -54 0
29 30 31 32 0
-29 30 -31 32 0
29 -30 31 -32 0
29 30 35 36 0
-29 30 -35 36 0
29 -30 35 -36 0
29 30 41 42 0
-29 30 -41 42 0
29 -30 41 -42 0
31 32 33 34 0
-31 32 -33 34 0
31 -32 33 -34 0
31 32 39 40 0
-31 32 -39 40 0
31 -32 39 -40 0
31 32 49 50 0
-31 32 -49 50 0
31 -32 49 -50 0
33 34 45 46 0
-33 34 -45 46 0
33 -34 45 -46 0
35 36 43 44 0
-35 36 -43 44 0
35 -36 43 -44 0
35 36 49 50 0
-35 36 -49 50 0
35 -36 49 -50 0
37 38 39 40 0
-37 38 -39 40 0
37 -38 39 -40 0
37 38 53 54 0
-37 38 -53 54 0
37 -38 53 -54 0
39 40 43 44 0
-39 40 -43 44 0
39 -40 43 -44 0
39 40 49 50 0
-39 40 -49 50 0
39 -40 49 -50 0
39 40 53 54 0
-39 40 -53 54 0
39 -40 53 -54 0
45 46 47 48 0
-45 46 -47 48 0
45 -46 47 -48 0
47 48 53 54 0
-47 48 -53 54 0
47 -48 53 -54 0
