c family=3-COL n=54 instance=9 seed=145502016 models=324
c order 37 22 43 9 5 10 28 33 8 42 24 38 11 6 1 25 7 47 20 34 21 23 54 19 40 13 29 4 39 48 36 45 16 2 27 14 53 15 18 50 12 41 46 35 49 17 52 26 51 44 31 3 32 30
c order 8 31 54 43 48 17 51 35 10 49 27 18 4 33 24 34 29 21 32 14 25 16 38 39 46 42 15 3 1 40 50 53 36 45 26 2 13 30 12 9 23 44 11 6 5 47 52 19 20 22 28 41 7 37
c order 6 12 11 19 45 40 10 49 50 30 13 42 34 48 28 37 27 9 5 26 54 38 25 39 41 15 1 29 16 22 35 21 36 24 47 8 44 32 14 52 20 4 2 46 23 33 3 17 53 43 51 18 31 7
c order 22 28 4 26 29 43 46 37 48 1 11 3 44 9 36 32 16 12 19 47 14 7 2 50 24 39 45 25 17 34 23 30 6 18 27 15 53 52 41 54 42 8 5 35 21 49 31 10 33 13 20 51 40 38
c order 6 11 39 29 16 43 41 10 15 30 44 8 7 46 50 9 25 33 40 23 27 35 52 5 37 54 17 22 20 28 2 49 13 53 18 12 24 38 36 48 32 42 1 34 26 21 4 14 45 51 47 31 19 3
c order 12 14 16 7 27 45 38 13 9 3 8 50 51 29 20 18 39 44 31 33 21 32 24 10 35 26 6 53 23 25 4 1 34 43 22 48 28 37 42 41 2 52 19 40 49 5 47 36 15 46 17 30 11 54
c order 49 9 44 28 5 11 33 7 20 31 8 47 26 1 21 14 53 15 39 30 42 6 35 54 51 19 13 48 25 38 37 18 4 46 32 34 52 29 17 24 36 16 27 40 23 45 10 22 50 2 3 41 12 43
c order 40 2 24 38 28 42 51 50 17 21 53 18 46 35 14 34 26 27 19 3 11 12 33 43 39 16 32 10 4 47 31 48 41 25 15 49 8 29 5 45 1 6 13 44 20 30 9 54 37 23 36 52 7 22
c order 30 9 2 31 48 25 32 27 12 41 4 43 34 8 46 49 50 5 45 1 15 14 20 17 39 44 47 53 10 16 19 40 23 33 7 24 29 18 21 42 13 28 54 52 37 35 11 36 51 26 38 22 3 6
c order 7 53 54 19 33 39 44 49 48 13 10 42 14 46 18 37 23 3 41 36 20 21 52 47 35 34 15 31 43 16 8 22 29 6 28 45 25 38 5 30 17 2 51 50 1 32 11 24 4 26 40 12 9 27
p cnf 54 198
-1 -2 0
-3 -4 0
-5 -6 0
-7 -8 0
-9 -10 0
-11 -12 0
-13 -14 0
-15 -16 0
-17 -18 0
-19 -20 0
-21 -22 0
-23 -24 0
-25 -26 0
-27 -28 0
-29 -30 0
-31 -32 0
-33 -34 0
-35 -36 0
-37 -38 0
-39 -40 0
-41 -42 0
-43 -44 0
-45 -46 0
-47 -48 0
-49 -50 0
-51 -52 0
-53 -54 0
1 2 15 16 0
-1 2 -15 16 0
1 -2 15 -16 0
1 2 27 28 0
-1 2 -27 28 0
1 -2 27 -28 0
1 2 31 32 0
-1 2 -31 32 0
1 -2 31 -32 0
1 2 51 52 0
-1 2 -51 52 0
1 -2 51 -52 0
3 4 15 16 0
-3 4 -15 16 0
3 -4 15 -16 0
3 4 21 22 0
-3 4 -21 22 0
3 -4 21 -22 0
3 4 23 24 0
-3 4 -23 24 0
3 -4 23 -24 0
3 4 27 28 0
-3 4 -27 28 0
3 -4 27 -28 0
3 4 35 36 0
-3 4 -35 36 0
3 -4 35 -36 0
3 4 37 38 0
-3 4 -37 38 0
3 -4 37 -38 0
3 4 39 40 0
-3 4 -39 40 0
3 -4 39 -40 0
3 4 41 42 0
-3 4 -41 42 0
3 -4 41 -42 0
3 4 49 50 0
-3 4 -49 50 0
3 -4 49 -50 0
3 4 53 54 0
-3 4 -53 54 0
3 -4 53 -54 0
5 6 23 24 0
-5 6 -23 24 0
5 -6 23 -24 0
5 6 27 28 0
-5 6 -27 28 0
5 -6 27 -28 0
5 6 31 32 0
-5 6 -31 32 0
5 -6 31 -32 0
5 6 33 34 0
-5 6 -33 34 0
5 -6 33 -34 0
5 6 45 46 0
-5 6 -45 46 0
5 -6 45 -46 0
5 6 53 54 0
-5 6 -53 54 0
5 -6 53 -54 0
7 8 13 14 0
-7 8 -13 14 0
7 -8 13 -14 0
7 8 17 18 0
-7 8 -17 18 0
7 -8 17 -18 0
7 8 31 32 0
-7 8 -31 32 0
7 -8 31 -32 0
9 10 19 20 0
-9 10 -19 20 0
9 -10 19 -20 0
9 10 43 44 0
-9 10 -43 44 0
9 -10 43 -44 0
11 12 37 38 0
-11 12 -37 38 0
11 -12 37 -38 0
11 12 45 46 0
-11 12 -45 46 0
11 -12 45 -46 0
13 14 27 28 0
-13 14 -27 28 0
13 -14 27 -28 0
13 14 37 38 0
-13 14 -37 38 0
13 -14 37 -38 0
13 14 51 52 0
-13 14 -51 52 0
13 -14 51 -52 0
15 16 19 20 0
-15 16 -19 20 0
15 -16 19 -20 0
15 16 33 34 0
-15 16 -33 34 0
15 -16 33 -34 0
15 16 51 52 0
-15 16 -51 52 0
15 -16 51 -52 0
17 18 19 20 0
-17 18 -19 20 0
17 -18 19 -20 0
17 18 21 22 0
-17 18 -21 22 0
17 -18 21 -22 0
17 18 23 24 0
-17 18 -23 24 0
17 -18 23 -24 0
17 18 29 30 0
-17 18 -29 30 0
17 -18 29 -30 0
19 20 39 40 0
-19 20 -39 40 0
19 -20 39 -40 0
19 20 43 44 0
-19 20 -43 44 0
19 -20 43 -44 0
19 20 53 54 0
-19 20 -53 54 0
19 -20 53 -54 0
21 22 45 46 0
-21 22 -45 46 0
21 -22 45 -46 0
23 24 25 26 0
-23 24 -25 26 0
23 -24 25 -26 0
23 24 31 32 0
-23 24 -31 32 0
23 -24 31 -32 0
23 24 35 36 0
-23 24 -35 36 0
23 -24 35 -36 0
27 28 29 30 0
-27 28 -29 30 0
27 -28 29 -30 0
27 28 39 40 0
-27 28 -39 40 0
27 -28 39 -40 0
27 28 51 52 0
-27 28 -51 52 0
27 -28 51 -52 0
29 30 35 36 0
-29 30 -35 36 0
29 -30 35 -36 0
29 30 49 50 0
-29 30 -49 50 0
29 -30 49 -50 0
31 32 41 42 0
-31 32 -41 42 0
31 -32 41 -42 0
31 32 53 54 0
-31 32 -53 54 0
31 -32 53 -54 0
33 34 37 38 0
-33 34 -37 38 0
33 -34 37 -38 0
33 34 43 44 0
-33 34 -43 44 0
33 -34 43 -44 0
35 36 41 42 0
-35 36 -41 42 0
35 -36 41 -42 0
41 42 43 44 0
-41 42 -43 44 0
41 -42 43 -44 0
41 42 45 46 0
-41 42 -45 46 0
41 -42 45 -46 0
41 42 49 50 0
-41 42 -49 50 0
41 -42 49 -50 0
