c family=3-COL n=54 instance=7 seed=145502016 models=1152
c order 54 33 17 50 41 32 19 2 29 21 16 8 26 48 38 34 28 46 53 13 10 35 6 47 39 22 49 37 18 30 52 12 23 14 4 36 44 43 3 40 9 51 42 5 27 45 7 15 31 24 11 1 20 25
c order 51 40 44 10 17 19 48 32 33 31 6 4 8 42 50 20 29 41 23 24 2 37 21 43 26 15 38 25 52 49 13 11 18 12 35 53 39 34 14 45 46 3 9 1 36 30 16 5 28 27 7 54 22 47
c order 18 23 2 6 29 19 7 21 40 13 4 12 43 31 41 1 10 36 47 15 38 50 45 34 37 39 42 22 28 26 30 27 35 48 16 49 53 14 11 20 32 24 46 54 3 51 33 9 52 5 8 17 25 44
c order 23 48 54 29 41 50 5 1 24 2 8 3 9 27 15 4 38 7 6 13 37 20 46 30 12 25 35 49 34 14 31 33 16 36 39 53 21 19 40 18 10 26 11 22 42 44 47 17 52 45 51 32 43 28
c order 8 41 53 28 5 1 36 31 6 17 50 30 52 45 39 32 25 18 27 54 14 11 15 7 34 38 10 42 29 26 40 24 47 9 20 49 3 33 37 2 19 43 13 46 21 12 22 44 35 4 48 51 23 16
c order 31 7 1 19 43 48 29 41 9 36 50 33 25 15 28 47 17 30 20 38 54 12 6 51 18 37 45 11 44 3 32 35 46 34 24 8 10 5 21 16 40 39 42 52 23 4 22 2 14 53 49 26 13 27
c order 4 42 50 17 21 27 2 32 7 47 5 23 20 19 6 38 48 41 43 49 25 12 53 39 35 22 10 13 24 1 52 28 9 29 36 54 14 37 18 33 8 30 26 31 16 3 51 40 45 11 34 44 15 46
c order 11 22 2 35 28 25 50 21 7 6 26 33 23 53 43 12 14 4 30 29 47 45 24 5 42 16 51 41 15 20 8 32 9 38 54 3 40 36 13 37 34 10 46 19 44 48 49 18 31 17 52 27 1 39
c order 35 26 8 31 41 17 32 38 12 7 36 24 49 22 43 46 39 34 37 45 30 5 29 11 14 6 18 1 20 40 10 51 21 9 50 42 2 47 33 19 15 54 25 52 27 53 44 13 16 23 3 28 4 48
c order 10 39 31 38 4 18 32 26 24 42 2 34 14 7 21 44 41 46 45 20 25 3 19 29 53 49 11 40 5 37 43 54 9 35 23 30 12 51 22 48 15 52 13 1 47 8 33 50 17 27 16 36 6 28
p cnf 54 198
-1 -2 0
-3 -4 0
-5 -6 0
-7 -8 0
-9 -10 0
-11 -12 0
-13 -14 0
-15 -16 0
-17 -18 0
-19 -20 0
-21 -22 0
-23 -24 0
-25 -26 0
-27 -28 0
-29 -30 0
-31 -32 0
-33 -34 0
-35 -36 0
-37 -38 0
-39 -40 0
-41 -42 0
-43 -44 0
-45 -46 0
-47 -48 0
-49 -50 0
-51 -52 0
-53 -54 0
1 2 3 4 0
-1 2 -3 4 0
1 -2 3 -4 0
1 2 9 10 0
-1 2 -9 10 0
1 -2 9 -10 0
1 2 13 14 0
-1 2 -13 14 0
1 -2 13 -14 0
1 2 21 22 0
-1 2 -21 22 0
1 -2 21 -22 0
1 2 41 42 0
-1 2 -41 42 0
1 -2 41 -42 0
1 2 47 48 0
-1 2 -47 48 0
1 -2 47 -48 0
1 2 51 52 0
-1 2 -51 52 0
1 -2 51 -52 0
3 4 27 28 0
-3 4 -27 28 0
3 -4 27 -28 0
3 4 51 52 0
-3 4 -51 52 0
3 -4 51 -52 0
5 6 7 8 0
-5 6 -7 8 0
5 -6 7 -8 0
7 8 33 34 0
-7 8 -33 34 0
7 -8 33 -34 0
7 8 41 42 0
-7 8 -41 42 0
7 -8 41 -42 0
7 8 45 46 0
-7 8 -45 46 0
7 -8 45 -46 0
9 10 35 36 0
-9 10 -35 36 0
9 -10 35 -36 0
9 10 43 44 0
-9 10 -43 44 0
9 -10 43 -44 0
9 10 53 54 0
-9 10 -53 54 0
9 -10 53 -54 0
11 12 23 24 0
-11 12 -23 24 0
11 -12 23 -24 0
11 12 47 48 0
-11 12 -47 48 0
11 -12 47 -48 0
13 14 25 26 0
-13 14 -25 26 0
13 -14 25 -26 0
13 14 37 38 0
-13 14 -37 38 0
13 -14 37 -38 0
13 14 49 50 0
-13 14 -49 50 0
13 -14 49 -50 0
13 14 51 52 0
-13 14 -51 52 0
13 -14 51 -52 0
15 16 43 44 0
-15 16 -43 44 0
15 -16 43 -44 0
15 16 47 48 0
-15 16 -47 48 0
15 -16 47 -48 0
17 18 19 20 0
-17 18 -19 20 0
17 -18 19 -20 0
17 18 37 38 0
-17 18 -37 38 0
17 -18 37 -38 0
17 18 43 44 0
-17 18 -43 44 0
17 -18 43 -44 0
17 18 51 52 0
-17 18 -51 52 0
17 -18 51 -52 0
19 20 25 26 0
-19 20 -25 26 0
19 -20 25 -26 0
19 20 29 30 0
-19 20 -29 30 0
19 -20 29 -30 0
19 20 51 52 0
-19 20 -51 52 0
19 -20 51 -52 0
21 22 31 32 0
-21 22 -31 32 0
21 -22 31 -32 0
21 22 35 36 0
-21 22 -35 36 0
21 -22 35 -36 0
21 22 37 38 0
-21 22 -37 38 0
21 -22 37 -38 0
21 22 43 44 0
-21 22 -43 44 0
21 -22 43 -44 0
21 22 53 54 0
-21 22 -53 54 0
21 -22 53 -54 0
23 24 39 40 0
-23 24 -39 40 0
23 -24 39 -40 0
23 24 43 44 0
-23 24 -43 44 0
23 -24 43 -44 0
23 24 47 48 0
-23 24 -47 48 0
23 -24 47 -48 0
25 26 31 32 0
-25 26 -31 32 0
25 -26 31 -32 0
25 26 33 34 0
-25 26 -33 34 0
25 -26 33 -34 0
27 28 33 34 0
-27 28 -33 34 0
27 -28 33 -34 0
27 28 43 44 0
-27 28 -43 44 0
27 -28 43 -44 0
27 28 45 46 0
-27 28 -45 46 0
27 -28 45 -46 0
27 28 51 52 0
-27 28 -51 52 0
27 -28 51 -52 0
29 30 35 36 0
-29 30 -35 36 0
29 -30 35 -36 0
29 30 45 46 0
-29 30 -45 46 0
29 -30 45 -46 0
33 34 37 38 0
-33 34 -37 38 0
33 -34 37 -38 0
33 34 43 44 0
-33 34 -43 44 0
33 -34 43 -44 0
33 34 45 46 0
-33 34 -45 46 0
33 -34 45 -46 0
33 34 47 48 0
-33 34 -47 48 0
33 -34 47 -48 0
33 34 49 50 0
-33 34 -49 50 0
33 -34 49 -50 0
37 38 41 42 0
-37 38 -41 42 0
37 -38 41 -42 0
41 42 43 44 0
-41 42 -43 44 0
41 -42 43 -44 0
41 42 45 46 0
-41 42 -45 46 0
41 -42 45 -46 0
43 44 53 54 0
-43 44 -53 54 0
43 -44 53 -54 0
47 48 53 54 0
-47 48 -53 54 0
47 -48 53 -54 0
