c family=3-COL n=54 instance=6 seed=145502016 models=912
c order 29 3 7 53 34 4 21 54 10 38 11 13 43 42 27 23 25 45 36 46 35 12 31 15 9 2 51 19 22 33 49 44 8 41 17 39 5 52 50 18 48 30 28 26 32 20 37 40 16 47 24 14 6 1
c order 35 17 45 26 1 36 39 27 37 49 25 31 42 28 30 20 47 10 23 5 41 33 3 52 14 44 43 8 19 53 13 24 22 32 18 46 9 34 4 7 29 21 12 48 2 11 15 40 54 50 6 16 51 38
c order 2 50 30 53 31 46 22 13 51 52 48 33 12 44 43 28 19 36 14 16 35 37 1 5 6 18 8 23 24 54 27 11 29 47 21 7 9 45 40 38 42 17 10 26 3 4 34 39 49 25 32 20 15 41
c order 31 22 47 48 46 50 33 44 23 32 5 36 17 4 11 26 40 27 30 9 20 54 53 28 25 1 34 37 38 12 7 21 29 13 43 18 45 35 52 16 19 49 6 41 15 39 2 24 42 10 8 3 14 51
c order 29 35 12 47 54 31 14 50 6 3 28 21 20 33 48 39 34 10 45 4 19 53 2 49 1 15 36 41 5 26 9 38 7 16 43 30 44 11 8 18 40 46 52 17 27 23 25 42 22 13 32 24 51 37
c order 50 37 29 19 6 24 33 3 25 7 2 5 4 45 22 8 52 23 16 40 12 39 11 53 36 43 10 15 30 42 35 27 54 41 14 21 1 44 17 46 49 34 32 9 47 18 13 28 48 26 38 51 31 20
c order 13 15 53 28 16 33 17 27 8 10 20 47 2 23 19 36 24 25 29 45 26 6 46 38 31 39 43 1 50 51 37 40 18 22 34 41 54 35 49 48 44 5 32 12 3 4 30 11 9 52 7 14 21 42
c order 50 54 11 4 20 2 27 22 26 13 39 52 3 35 36 47 49 12 29 15 37 23 18 6 53 16 19 33 21 41 8 45 42 38 51 10 40 5 43 48 32 24 31 14 25 7 44 46 17 34 28 30 9 1
c order 51 39 20 36 15 37 17 10 29 11 48 12 42 8 9 47 6 18 43 26 4 22 45 1 3 49 28 5 7 24 27 44 13 2 25 38 35 21 32 34 23 52 16 46 31 30 14 41 53 33 54 40 50 19
c order 11 27 48 50 54 18 38 41 39 43 9 49 3 17 23 26 44 42 29 33 15 22 35 28 32 21 40 37 5 25 6 1 10 7 24 34 20 19 51 2 16 8 46 30 52 53 12 47 45 36 4 31 13 14
p cnf 54 198
-1 -2 0
-3 -4 0
-5 -6 0
-7 -8 0
-9 -10 0
-11 -12 0
-13 -14 0
-15 -16 0
-17 -18 0
-19 -20 0
-21 -22 0
-23 -24 0
-25 -26 0
-27 -28 0
-29 -30 0
-31 -32 0
-33 -34 0
-35 -36 0
-37 -38 0
-39 -40 0
-41 -42 0
-43 -44 0
-45 -46 0
-47 -48 0
-49 -50 0
-51 -52 0
-53 -54 0
1 2 23 24 0
-1 2 -23 24 0
1 -2 23 -24 0
1 2 25 26 0
-1 2 -25 26 0
1 -2 25 -26 0
1 2 35 36 0
-1 2 -35 36 0
1 -2 35 -36 0
1 2 39 40 0
-1 2 -39 40 0
1 -2 39 -40 0
3 4 17 18 0
-3 4 -17 18 0
3 -4 17 -18 0
3 4 21 22 0
-3 4 -21 22 0
3 -4 21 -22 0
5 6 9 10 0
-5 6 -9 10 0
5 -6 9 -10 0
5 6 13 14 0
-5 6 -13 14 0
5 -6 13 -14 0
5 6 33 34 0
-5 6 -33 34 0
5 -6 33 -34 0
5 6 41 42 0
-5 6 -41 42 0
5 -6 41 -42 0
5 6 49 50 0
-5 6 -49 50 0
5 -6 49 -50 0
7 8 11 12 0
-7 8 -11 12 0
7 -8 11 -12 0
7 8 15 16 0
-7 8 -15 16 0
7 -8 15 -16 0
7 8 27 28 0
-7 8 -27 28 0
7 -8 27 -28 0
7 8 39 40 0
-7 8 -39 40 0
7 -8 39 -40 0
7 8 45 46 0
-7 8 -45 46 0
7 -8 45 -46 0
9 10 31 32 0
-9 10 -31 32 0
9 -10 31 -32 0
9 10 39 40 0
-9 10 -39 40 0
9 -10 39 -40 0
9 10 45 46 0
-9 10 -45 46 0
9 -10 45 -46 0
9 10 51 52 0
-9 10 -51 52 0
9 -10 51 -52 0
11 12 29 30 0
-11 12 -29 30 0
11 -12 29 -30 0
11 12 37 38 0
-11 12 -37 38 0
11 -12 37 -38 0
11 12 43 44 0
-11 12 -43 44 0
11 -12 43 -44 0
11 12 51 52 0
-11 12 -51 52 0
11 -12 51 -52 0
13 14 25 26 0
-13 14 -25 26 0
13 -14 25 -26 0
13 14 39 40 0
-13 14 -39 40 0
13 -14 39 -40 0
13 14 53 54 0
-13 14 -53 54 0
13 -14 53 -54 0
15 16 23 24 0
-15 16 -23 24 0
15 -16 23 -24 0
15 16 27 28 0
-15 16 -27 28 0
15 -16 27 -28 0
15 16 37 38 0
-15 16 -37 38 0
15 -16 37 -38 0
15 16 41 42 0
-15 16 -41 42 0
15 -16 41 -42 0
15 16 45 46 0
-15 16 -45 46 0
15 -16 45 -46 0
19 20 27 28 0
-19 20 -27 28 0
19 -20 27 -28 0
19 20 29 30 0
-19 20 -29 30 0
19 -20 29 -30 0
19 20 31 32 0
-19 20 -31 32 0
19 -20 31 -32 0
19 20 41 42 0
-19 20 -41 42 0
19 -20 41 -42 0
21 22 37 38 0
-21 22 -37 38 0
21 -22 37 -38 0
21 22 49 50 0
-21 22 -49 50 0
21 -22 49 -50 0
23 24 33 34 0
-23 24 -33 34 0
23 -24 33 -34 0
23 24 43 44 0
-23 24 -43 44 0
23 -24 43 -44 0
25 26 27 28 0
-25 26 -27 28 0
25 -26 27 -28 0
25 26 29 30 0
-25 26 -29 30 0
25 -26 29 -30 0
25 26 31 32 0
-25 26 -31 32 0
25 -26 31 -32 0
27 28 37 38 0
-27 28 -37 38 0
27 -28 37 -38 0
29 30 31 32 0
-29 30 -31 32 0
29 -30 31 -32 0
29 30 45 46 0
-29 30 -45 46 0
29 -30 45 -46 0
29 30 51 52 0
-29 30 -51 52 0
29 -30 51 -52 0
29 30 53 54 0
-29 30 -53 54 0
29 -30 53 -54 0
31 32 39 40 0
-31 32 -39 40 0
31 -32 39 -40 0
31 32 41 42 0
-31 32 -41 42 0
31 -32 41 -42 0
33 34 41 42 0
-33 34 -41 42 0
33 -34 41 -42 0
33 34 47 48 0
-33 34 -47 48 0
33 -34 47 -48 0
33 34 53 54 0
-33 34 -53 54 0
33 -34 53 -54 0
35 36 45 46 0
-35 36 -45 46 0
35 -36 45 -46 0
35 36 49 50 0
-35 36 -49 50 0
35 -36 49 -50 0
39 40 41 42 0
-39 40 -41 42 0
39 -40 41 -42 0
47 48 49 50 0
-47 48 -49 50 0
47 -48 49 -50 0
