c family=3-COL n=54 instance=5 seed=145502016 models=936
c order 26 16 6 14 29 21 24 50 19 40 15 33 45 8 32 30 25 43 2 35 54 36 3 37 34 20 4 41 44 52 53 28 27 22 1 9 13 5 31 7 23 42 10 48 46 17 39 47 51 49 12 11 38 18
c order 35 1 16 9 14 2 38 28 52 27 36 44 43 29 13 15 49 17 24 25 10 12 31 53 37 8 45 47 4 11 42 50 32 41 30 39 22 5 34 51 40 33 18 48 6 19 7 21 26 46 3 54 23 20
c order 44 6 40 29 1 13 18 24 37 31 23 4 54 32 7 21 48 35 25 49 50 14 45 30 36 17 19 34 51 10 16 33 9 38 39 46 3 26 2 52 41 28 53 47 43 11 12 5 15 8 20 27 22 42
c order 15 16 22 2 38 48 4 30 3 33 8 34 11 37 12 40 54 47 1 44 52 5 20 29 45 27 51 46 7 10 17 21 41 26 35 28 18 49 24 31 6 36 13 50 19 25 39 32 14 43 42 23 9 53
c order 29 27 19 1 35 17 21 14 8 48 41 23 51 28 47 4 44 54 25 26 12 31 18 49 34 22 20 3 2 43 5 50 46 15 37 40 16 11 7 10 52 53 36 38 9 6 13 42 24 39 45 30 32 33
c order 33 6 35 3 36 25 11 53 30 41 28 22 31 24 14 32 20 40 17 5 1 49 16 38 12 23 8 50 54 45 7 47 37 39 26 2 43 51 52 9 48 27 44 15 34 46 13 21 29 10 18 42 19 4
c order 41 26 23 16 21 13 39 5 3 51 2 12 48 7 22 35 54 11 30 4 27 53 28 38 33 20 36 43 40 42 1 50 46 31 25 52 6 9 17 15 44 47 29 49 8 19 37 24 32 14 45 34 18 10
c order 5 25 3 23 17 19 39 1 42 22 15 13 48 12 43 53 40 2 4 7 44 47 45 51 41 36 11 52 6 14 34 29 30 21 46 32 20 10 38 37 9 50 8 54 35 31 27 49 18 24 16 28 26 33
c order 2 49 25 42 37 1 43 41 50 9 29 18 5 47 38 48 10 21 30 27 26 11 14 8 52 51 40 33 46 28 54 34 6 24 31 3 20 39 15 12 4 35 7 23 36 53 32 16 13 17 19 22 44 45
c order 47 19 12 17 25 45 8 22 10 14 42 3 44 23 33 53 31 15 18 9 30 40 13 50 32 28 7 39 1 24 27 35 4 37 52 36 43 20 26 49 21 2 16 38 29 48 54 6 46 11 34 5 41 51
p cnf 54 198
-1 -2 0
-3 -4 0
-5 -6 0
-7 -8 0
-9 -10 0
-11 -12 0
-13 -14 0
-15 -16 0
-17 -18 0
-19 -20 0
-21 -22 0
-23 -24 0
-25 -26 0
-27 -28 0
-29 -30 0
-31 -32 0
-33 -34 0
-35 -36 0
-37 -38 0
-39 -40 0
-41 -42 0
-43 -44 0
-45 -46 0
-47 -48 0
-49 -50 0
-51 -52 0
-53 -54 0
1 2 11 12 0
-1 2 -11 12 0
1 -2 11 -12 0
1 2 53 54 0
-1 2 -53 54 0
1 -2 53 -54 0
3 4 11 12 0
-3 4 -11 12 0
3 -4 11 -12 0
3 4 27 28 0
-3 4 -27 28 0
3 -4 27 -28 0
3 4 39 40 0
-3 4 -39 40 0
3 -4 39 -40 0
5 6 15 16 0
-5 6 -15 16 0
5 -6 15 -16 0
5 6 23 24 0
-5 6 -23 24 0
5 -6 23 -24 0
5 6 39 40 0
-5 6 -39 40 0
5 -6 39 -40 0
5 6 41 42 0
-5 6 -41 42 0
5 -6 41 -42 0
7 8 19 20 0
-7 8 -19 20 0
7 -8 19 -20 0
7 8 33 34 0
-7 8 -33 34 0
7 -8 33 -34 0
7 8 53 54 0
-7 8 -53 54 0
7 -8 53 -54 0
9 10 23 24 0
-9 10 -23 24 0
9 -10 23 -24 0
9 10 35 36 0
-9 10 -35 36 0
9 -10 35 -36 0
9 10 37 38 0
-9 10 -37 38 0
9 -10 37 -38 0
9 10 43 44 0
-9 10 -43 44 0
9 -10 43 -44 0
9 10 53 54 0
-9 10 -53 54 0
9 -10 53 -54 0
11 12 17 18 0
-11 12 -17 18 0
11 -12 17 -18 0
11 12 23 24 0
-11 12 -23 24 0
11 -12 23 -24 0
11 12 47 48 0
-11 12 -47 48 0
11 -12 47 -48 0
11 12 53 54 0
-11 12 -53 54 0
11 -12 53 -54 0
13 14 15 16 0
-13 14 -15 16 0
13 -14 15 -16 0
13 14 21 22 0
-13 14 -21 22 0
13 -14 21 -22 0
13 14 45 46 0
-13 14 -45 46 0
13 -14 45 -46 0
13 14 47 48 0
-13 14 -47 48 0
13 -14 47 -48 0
13 14 51 52 0
-13 14 -51 52 0
13 -14 51 -52 0
15 16 27 28 0
-15 16 -27 28 0
15 -16 27 -28 0
15 16 43 44 0
-15 16 -43 44 0
15 -16 43 -44 0
15 16 51 52 0
-15 16 -51 52 0
15 -16 51 -52 0
17 18 19 20 0
-17 18 -19 20 0
17 -18 19 -20 0
17 18 43 44 0
-17 18 -43 44 0
17 -18 43 -44 0
17 18 49 50 0
-17 18 -49 50 0
17 -18 49 -50 0
17 18 53 54 0
-17 18 -53 54 0
17 -18 53 -54 0
19 20 21 22 0
-19 20 -21 22 0
19 -20 21 -22 0
19 20 29 30 0
-19 20 -29 30 0
19 -20 29 -30 0
21 22 35 36 0
-21 22 -35 36 0
21 -22 35 -36 0
21 22 43 44 0
-21 22 -43 44 0
21 -22 43 -44 0
23 24 31 32 0
-23 24 -31 32 0
23 -24 31 -32 0
23 24 43 44 0
-23 24 -43 44 0
23 -24 43 -44 0
27 28 39 40 0
-27 28 -39 40 0
27 -28 39 -40 0
27 28 53 54 0
-27 28 -53 54 0
27 -28 53 -54 0
29 30 33 34 0
-29 30 -33 34 0
29 -30 33 -34 0
29 30 35 36 0
-29 30 -35 36 0
29 -30 35 -36 0
29 30 41 42 0
-29 30 -41 42 0
29 -30 41 -42 0
31 32 33 34 0
-31 32 -33 34 0
31 -32 33 -34 0
31 32 45 46 0
-31 32 -45 46 0
31 -32 45 -46 0
31 32 47 48 0
-31 32 -47 48 0
31 -32 47 -48 0
31 32 51 52 0
-31 32 -51 52 0
31 -32 51 -52 0
35 36 41 42 0
-35 36 -41 42 0
35 -36 41 -42 0
37 38 49 50 0
-37 38 -49 50 0
37 -38 49 -50 0
37 38 51 52 0
-37 38 -51 52 0
37 -38 51 -52 0
39 40 41 42 0
-39 40 -41 42 0
39 -40 41 -42 0
41 42 47 48 0
-41 42 -47 48 0
41 -42 47 -48 0
43 44 47 48 0
-43 44 -47 48 0
43 -44 47 -48 0
43 44 53 54 0
-43 44 -53 54 0
43 -44 53 -54 0
47 48 49 50 0
-47 48 -49 50 0
47 -48 49 -50 0
47 48 53 54 0
-47 48 -53 54 0
47 -48 53 -54 0
