c family=3-COL n=54 instance=3 seed=145502016 models=108
c order 13 48 14 31 33 26 16 40 30 49 6 39 51 23 32 34 8 53 38 42 17 50 44 21 3 25 9 46 52 54 27 35 2 43 19 12 22 1 37 45 20 10 41 7 4 47 15 29 24 28 36 11 5 18
c order 49 37 50 39 20 29 41 18 9 7 15 3 51 54 52 48 44 6 45 8 35 42 12 30 27 4 21 5 2 46 13 32 14 36 11 38 25 1 53 28 19 22 17 33 47 31 43 34 24 10 23 26 40 16
c order 26 30 13 52 7 10 45 43 2 8 21 50 31 53 40 16 51 1 47 23 32 6 20 19 37 49 36 39 14 25 3 29 41 22 44 5 34 54 17 11 15 33 42 4 9 27 12 35 18 38 46 48 24 28
c order 46 48 7 38 34 52 33 23 19 11 35 24 27 21 17 44 26 16 28 51 50 10 45 31 30 14 4 9 37 36 53 1 22 13 54 5 18 2 40 41 43 39 47 25 49 6 32 29 42 3 15 12 8 20
c order 41 32 27 16 44 40 4 1 53 24 6 25 14 15 5 45 21 20 42 34 30 52 23 38 36 31 12 18 54 51 26 28 13 50 35 37 10 49 47 43 19 8 17 2 7 39 22 46 48 33 9 3 11 29
c order 44 45 29 9 11 24 26 50 40 4 53 47 31 49 13 3 23 12 32 54 7 46 21 43 20 38 5 42 39 33 25 35 19 41 8 28 52 1 14 36 30 37 22 18 2 16 15 34 27 10 6 17 48 51
c order 16 40 17 12 13 50 23 46 45 1 36 44 22 39 18 30 33 47 9 7 14 35 10 4 37 41 21 48 8 38 11 29 32 42 26 52 43 25 34 6 15 54 31 24 3 49 5 53 20 28 19 27 2 51
c order 15 25 16 35 30 18 10 11 13 36 8 42 41 38 37 44 22 21 29 43 49 20 19 39 53 7 28 27 52 6 9 12 1 51 23 50 17 34 14 31 32 54 24 3 33 5 2 47 45 46 48 40 4 26
c order 18 40 50 14 6 51 45 54 11 19 53 52 20 23 13 26 42 38 37 10 28 36 30 44 7 2 9 49 21 27 35 31 29 12 3 46 16 15 1 24 43 39 41 48 25 4 47 17 5 22 33 34 32 8
c order 41 48 22 17 37 3 54 42 34 4 2 44 9 39 29 7 30 6 10 53 25 5 15 35 16 14 43 1 8 50 28 47 32 36 46 21 40 18 38 26 45 31 19 27 33 24 49 13 11 12 52 51 20 23
p cnf 54 198
-1 -2 0
-3 -4 0
-5 -6 0
-7 -8 0
-9 -10 0
-11 -12 0
-13 -14 0
-15 -16 0
-17 -18 0
-19 -20 0
-21 -22 0
-23 -24 0
-25 -26 0
-27 -28 0
-29 -30 0
-31 -32 0
-33 -34 0
-35 -36 0
-37 -38 0
-39 -40 0
-41 -42 0
-43 -44 0
-45 -46 0
-47 -48 0
-49 -50 0
-51 -52 0
-53 -54 0
1 2 15 16 0
-1 2 -15 16 0
1 -2 15 -16 0
1 2 23 24 0
-1 2 -23 24 0
1 -2 23 -24 0
1 2 53 54 0
-1 2 -53 54 0
1 -2 53 -54 0
3 4 7 8 0
-3 4 -7 8 0
3 -4 7 -8 0
3 4 11 12 0
-3 4 -11 12 0
3 -4 11 -12 0
3 4 23 24 0
-3 4 -23 24 0
3 -4 23 -24 0
3 4 39 40 0
-3 4 -39 40 0
3 -4 39 -40 0
3 4 41 42 0
-3 4 -41 42 0
3 -4 41 -42 0
5 6 17 18 0
-5 6 -17 18 0
5 -6 17 -18 0
5 6 25 26 0
-5 6 -25 26 0
5 -6 25 -26 0
5 6 39 40 0
-5 6 -39 40 0
5 -6 39 -40 0
5 6 49 50 0
-5 6 -49 50 0
5 -6 49 -50 0
7 8 9 10 0
-7 8 -9 10 0
7 -8 9 -10 0
7 8 33 34 0
-7 8 -33 34 0
7 -8 33 -34 0
7 8 49 50 0
-7 8 -49 50 0
7 -8 49 -50 0
9 10 17 18 0
-9 10 -17 18 0
9 -10 17 -18 0
9 10 35 36 0
-9 10 -35 36 0
9 -10 35 -36 0
9 10 41 42 0
-9 10 -41 42 0
9 -10 41 -42 0
9 10 43 44 0
-9 10 -43 44 0
9 -10 43 -44 0
11 12 29 30 0
-11 12 -29 30 0
11 -12 29 -30 0
11 12 47 48 0
-11 12 -47 48 0
11 -12 47 -48 0
13 14 23 24 0
-13 14 -23 24 0
13 -14 23 -24 0
13 14 33 34 0
-13 14 -33 34 0
13 -14 33 -34 0
13 14 51 52 0
-13 14 -51 52 0
13 -14 51 -52 0
15 16 41 42 0
-15 16 -41 42 0
15 -16 41 -42 0
15 16 45 46 0
-15 16 -45 46 0
15 -16 45 -46 0
15 16 47 48 0
-15 16 -47 48 0
15 -16 47 -48 0
15 16 53 54 0
-15 16 -53 54 0
15 -16 53 -54 0
17 18 33 34 0
-17 18 -33 34 0
17 -18 33 -34 0
19 20 31 32 0
-19 20 -31 32 0
19 -20 31 -32 0
19 20 41 42 0
-19 20 -41 42 0
19 -20 41 -42 0
19 20 49 50 0
-19 20 -49 50 0
19 -20 49 -50 0
21 22 27 28 0
-21 22 -27 28 0
21 -22 27 -28 0
21 22 39 40 0
-21 22 -39 40 0
21 -22 39 -40 0
21 22 49 50 0
-21 22 -49 50 0
21 -22 49 -50 0
21 22 51 52 0
-21 22 -51 52 0
21 -22 51 -52 0
21 22 53 54 0
-21 22 -53 54 0
21 -22 53 -54 0
23 24 27 28 0
-23 24 -27 28 0
23 -24 27 -28 0
23 24 29 30 0
-23 24 -29 30 0
23 -24 29 -30 0
23 24 49 50 0
-23 24 -49 50 0
23 -24 49 -50 0
23 24 51 52 0
-23 24 -51 52 0
23 -24 51 -52 0
25 26 31 32 0
-25 26 -31 32 0
25 -26 31 -32 0
25 26 33 34 0
-25 26 -33 34 0
25 -26 33 -34 0
25 26 53 54 0
-25 26 -53 54 0
25 -26 53 -54 0
27 28 29 30 0
-27 28 -29 30 0
27 -28 29 -30 0
27 28 33 34 0
-27 28 -33 34 0
27 -28 33 -34 0
27 28 53 54 0
-27 28 -53 54 0
27 -28 53 -54 0
31 32 33 34 0
-31 32 -33 34 0
31 -32 33 -34 0
31 32 35 36 0
-31 32 -35 36 0
31 -32 35 -36 0
31 32 49 50 0
-31 32 -49 50 0
31 -32 49 -50 0
33 34 39 40 0
-33 34 -39 40 0
33 -34 39 -40 0
35 36 39 40 0
-35 36 -39 40 0
35 -36 39 -40 0
35 36 41 42 0
-35 36 -41 42 0
35 -36 41 -42 0
37 38 51 52 0
-37 38 -51 52 0
37 -38 51 -52 0
37 38 53 54 0
-37 38 -53 54 0
37 -38 53 -54 0
43 44 53 54 0
-43 44 -53 54 0
43 -44 53 -54 0
45 46 53 54 0
-45 46 -53 54 0
45 -46 53 -54 0
