c family=3-COL n=54 instance=4 seed=145502016 models=24
c order 16 52 42 27 45 3 34 15 26 46 29 53 37 50 20 39 4 19 54 28 30 43 11 5 18 10 21 38 32 25 48 9 24 44 35 7 49 6 31 36 1 12 41 33 14 2 8 40 17 22 47 23 13 51
c order 17 2 1 42 36 54 19 7 29 27 34 26 25 40 38 21 48 30 16 50 44 43 10 20 41 23 11 24 53 12 5 46 31 35 22 13 52 15 4 28 3 37 45 33 14 8 32 51 9 47 18 39 6 49
c order 31 16 34 28 35 22 52 13 33 40 26 10 12 18 24 47 5 14 48 41 15 17 39 46 53 8 21 51 11 43 45 9 25 29 49 38 42 54 50 3 4 1 7 44 30 19 36 6 37 27 32 20 23 2
c order 19 51 45 54 34 33 14 6 39 52 16 13 20 30 7 3 15 42 21 37 1 36 4 26 29 53 35 38 47 25 18 12 44 2 27 24 22 46 8 48 17 40 49 50 9 11 23 5 10 32 43 31 41 28
c order 6 39 44 24 20 10 4 51 22 43 37 50 8 13 47 23 26 11 5 36 21 1 12 49 2 25 41 32 14 15 16 30 48 3 31 35 40 9 38 54 42 27 45 46 7 34 33 19 29 18 52 53 17 28
c order 29 44 25 9 52 41 20 48 24 36 53 21 4 23 19 39 45 15 14 3 17 35 54 1 49 38 12 47 33 18 50 13 42 7 8 30 16 11 31 46 40 22 37 43 51 2 6 5 26 10 32 34 27 28
c order 47 15 48 1 16 32 36 53 52 19 22 5 9 6 29 26 21 49 45 44 17 31 14 43 24 50 35 54 23 10 51 12 42 30 33 2 25 28 20 40 41 7 8 3 37 18 11 46 13 34 39 38 27 4
c order 28 25 33 39 45 51 36 13 43 12 20 53 24 15 18 8 14 34 22 46 2 47 11 17 5 21 19 23 26 37 52 40 1 49 54 29 6 32 4 42 31 48 9 7 10 35 38 44 16 3 30 41 50 27
c order 36 3 1 21 15 11 26 53 51 47 5 48 19 54 25 52 38 45 12 17 33 35 32 20 24 41 28 31 49 22 40 34 6 23 8 42 29 37 10 18 30 44 4 39 14 16 7 2 46 27 9 13 43 50
c order 25 27 26 41 16 13 54 14 19 34 37 28 3 35 50 49 11 42 17 24 53 46 44 32 22 10 31 45 5 21 43 1 2 12 7 33 52 30 47 39 4 38 29 9 20 23 40 51 15 18 48 6 36 8
p cnf 54 198
-1 -2 0
-3 -4 0
-5 -6 0
-7 -8 0
-9 -10 0
-11 -12 0
-13 -14 0
-15 -16 0
-17 -18 0
-19 -20 0
-21 -22 0
-23 -24 0
-25 -26 0
-27 -28 0
-29 -30 0
-31 -32 0
-33 -34 0
-35 -36 0
-37 -38 0
-39 -40 0
-41 -42 0
-43 -44 0
-45 -46 0
-47 -48 0
-49 -50 0
-51 -52 0
-53 -54 0
1 2 23 24 0
-1 2 -23 24 0
1 -2 23 -24 0
1 2 31 32 0
-1 2 -31 32 0
1 -2 31 -32 0
1 2 37 38 0
-1 2 -37 38 0
1 -2 37 -38 0
3 4 9 10 0
-3 4 -9 10 0
3 -4 9 -10 0
3 4 13 14 0
-3 4 -13 14 0
3 -4 13 -14 0
3 4 41 42 0
-3 4 -41 42 0
3 -4 41 -42 0
5 6 11 12 0
-5 6 -11 12 0
5 -6 11 -12 0
5 6 13 14 0
-5 6 -13 14 0
5 -6 13 -14 0
5 6 17 18 0
-5 6 -17 18 0
5 -6 17 -18 0
5 6 21 22 0
-5 6 -21 22 0
5 -6 21 -22 0
5 6 31 32 0
-5 6 -31 32 0
5 -6 31 -32 0
5 6 47 48 0
-5 6 -47 48 0
5 -6 47 -48 0
7 8 21 22 0
-7 8 -21 22 0
7 -8 21 -22 0
7 8 23 24 0
-7 8 -23 24 0
7 -8 23 -24 0
7 8 41 42 0
-7 8 -41 42 0
7 -8 41 -42 0
7 8 43 44 0
-7 8 -43 44 0
7 -8 43 -44 0
7 8 51 52 0
-7 8 -51 52 0
7 -8 51 -52 0
9 10 31 32 0
-9 10 -31 32 0
9 -10 31 -32 0
9 10 37 38 0
-9 10 -37 38 0
9 -10 37 -38 0
9 10 47 48 0
-9 10 -47 48 0
9 -10 47 -48 0
9 10 53 54 0
-9 10 -53 54 0
9 -10 53 -54 0
11 12 15 16 0
-11 12 -15 16 0
11 -12 15 -16 0
11 12 25 26 0
-11 12 -25 26 0
11 -12 25 -26 0
11 12 33 34 0
-11 12 -33 34 0
11 -12 33 -34 0
11 12 49 50 0
-11 12 -49 50 0
11 -12 49 -50 0
13 14 31 32 0
-13 14 -31 32 0
13 -14 31 -32 0
13 14 43 44 0
-13 14 -43 44 0
13 -14 43 -44 0
15 16 27 28 0
-15 16 -27 28 0
15 -16 27 -28 0
15 16 35 36 0
-15 16 -35 36 0
15 -16 35 -36 0
15 16 37 38 0
-15 16 -37 38 0
15 -16 37 -38 0
15 16 51 52 0
-15 16 -51 52 0
15 -16 51 -52 0
17 18 31 32 0
-17 18 -31 32 0
17 -18 31 -32 0
17 18 33 34 0
-17 18 -33 34 0
17 -18 33 -34 0
17 18 41 42 0
-17 18 -41 42 0
17 -18 41 -42 0
17 18 43 44 0
-17 18 -43 44 0
17 -18 43 -44 0
19 20 35 36 0
-19 20 -35 36 0
19 -20 35 -36 0
19 20 47 48 0
-19 20 -47 48 0
19 -20 47 -48 0
21 22 35 36 0
-21 22 -35 36 0
21 -22 35 -36 0
21 22 51 52 0
-21 22 -51 52 0
21 -22 51 -52 0
23 24 43 44 0
-23 24 -43 44 0
23 -24 43 -44 0
23 24 45 46 0
-23 24 -45 46 0
23 -24 45 -46 0
23 24 47 48 0
-23 24 -47 48 0
23 -24 47 -48 0
23 24 53 54 0
-23 24 -53 54 0
23 -24 53 -54 0
25 26 39 40 0
-25 26 -39 40 0
25 -26 39 -40 0
25 26 43 44 0
-25 26 -43 44 0
25 -26 43 -44 0
25 26 51 52 0
-25 26 -51 52 0
25 -26 51 -52 0
29 30 39 40 0
-29 30 -39 40 0
29 -30 39 -40 0
31 32 39 40 0
-31 32 -39 40 0
31 -32 39 -40 0
33 34 35 36 0
-33 34 -35 36 0
33 -34 35 -36 0
33 34 51 52 0
-33 34 -51 52 0
33 -34 51 -52 0
35 36 53 54 0
-35 36 -53 54 0
35 -36 53 -54 0
37 38 47 48 0
-37 38 -47 48 0
37 -38 47 -48 0
39 40 43 44 0
-39 40 -43 44 0
39 -40 43 -44 0
39 40 49 50 0
-39 40 -49 50 0
39 -40 49 -50 0
41 42 45 46 0
-41 42 -45 46 0
41 -42 45 -46 0
43 44 47 48 0
-43 44 -47 48 0
43 -44 47 -48 0
45 46 49 50 0
-45 46 -49 50 0
45 -46 49 -50 0
