c family=3-COL n=54 instance=8 seed=145502016 models=324
c order 8 45 14 46 50 22 44 18 39 32 11 6 38 20 51 27 40 49 5 53 48 12 43 25 3 26 28 34 23 17 41 30 42 35 52 2 36 31 24 19 7 15 29 4 47 16 9 13 1 37 21 54 33 10
c order 7 40 17 30 27 23 24 46 51 11 13 29 5 32 25 2 8 10 38 6 28 33 12 54 19 22 18 50 53 48 44 47 45 14 20 35 31 42 21 16 4 52 37 15 3 1 39 41 26 49 34 9 43 36
c order 14 26 1 50 34 30 9 7 24 53 39 33 46 4 21 52 25 16 12 23 15 51 28 43 41 2 47 42 17 29 19 3 40 37 27 22 18 5 35 32 6 10 44 11 31 49 20 36 54 48 45 38 8 13
c order 40 14 3 15 8 24 2 21 29 31 39 7 18 4 10 22 42 30 6 32 20 41 36 19 51 17 37 44 11 23 16 53 13 50 52 1 38 25 27 33 45 26 49 54 43 5 48 28 9 35 12 34 47 46
c order 12 1 25 33 47 27 48 3 11 14 28 21 32 24 26 7 43 31 46 39 5 29 23 13 15 9 36 6 8 41 20 45 30 53 16 37 18 51 42 35 50 34 40 19 10 52 4 38 44 22 17 54 49 2
c order 3 10 25 14 11 45 7 24 28 34 47 43 51 42 15 33 29 1 9 36 20 49 32 37 50 54 44 30 4 21 46 12 40 16 8 39 17 5 2 53 19 23 26 22 52 18 48 6 31 27 41 38 35 13
c order 8 38 40 37 35 11 13 53 17 16 52 20 7 19 44 18 39 29 47 26 34 23 30 45 4 9 21 50 14 48 3 15 10 49 43 42 5 54 2 46 22 25 6 12 31 41 51 1 33 32 28 27 24 36
c order 7 22 11 30 27 8 47 15 53 19 24 1 39 31 32 38 9 3 16 5 20 41 21 25 33 46 40 37 52 35 42 28 51 13 6 10 48 12 17 14 18 54 2 4 50 34 43 26 23 36 29 45 49 44
c order 49 13 34 10 3 40 6 23 19 16 15 43 52 18 35 36 39 26 7 31 51 28 17 32 48 5 14 9 30 12 50 45 37 29 8 38 27 22 46 21 11 24 1 25 20 53 42 4 2 41 44 54 47 33
c order 37 48 38 50 54 17 11 30 23 3 19 36 43 8 49 44 12 51 41 18 13 32 16 31 10 4 45 39 1 33 35 27 21 29 5 20 25 34 2 46 6 28 22 26 53 47 40 7 42 52 15 24 14 9
p cnf 54 198
-1 -2 0
-3 -4 0
-5 -6 0
-7 -8 0
-9 -10 0
-11 -12 0
-13 -14 0
-15 -16 0
-17 -18 0
-19 -20 0
-21 -22 0
-23 -24 0
-25 -26 0
-27 -28 0
-29 -30 0
-31 -32 0
-33 -34 0
-35 -36 0
-37 -38 0
-39 -40 0
-41 -42 0
-43 -44 0
-45 -46 0
-47 -48 0
-49 -50 0
-51 -52 0
-53 -54 0
1 2 7 8 0
-1 2 -7 8 0
1 -2 7 -8 0
1 2 15 16 0
-1 2 -15 16 0
1 -2 15 -16 0
1 2 31 32 0
-1 2 -31 32 0
1 -2 31 -32 0
1 2 43 44 0
-1 2 -43 44 0
1 -2 43 -44 0
1 2 45 46 0
-1 2 -45 46 0
1 -2 45 -46 0
3 4 11 12 0
-3 4 -11 12 0
3 -4 11 -12 0
3 4 17 18 0
-3 4 -17 18 0
3 -4 17 -18 0
3 4 35 36 0
-3 4 -35 36 0
3 -4 35 -36 0
3 4 43 44 0
-3 4 -43 44 0
3 -4 43 -44 0
5 6 9 10 0
-5 6 -9 10 0
5 -6 9 -10 0
5 6 45 46 0
-5 6 -45 46 0
5 -6 45 -46 0
7 8 11 12 0
-7 8 -11 12 0
7 -8 11 -12 0
7 8 15 16 0
-7 8 -15 16 0
7 -8 15 -16 0
7 8 23 24 0
-7 8 -23 24 0
7 -8 23 -24 0
7 8 27 28 0
-7 8 -27 28 0
7 -8 27 -28 0
7 8 33 34 0
-7 8 -33 34 0
7 -8 33 -34 0
7 8 43 44 0
-7 8 -43 44 0
7 -8 43 -44 0
9 10 15 16 0
-9 10 -15 16 0
9 -10 15 -16 0
9 10 29 30 0
-9 10 -29 30 0
9 -10 29 -30 0
9 10 41 42 0
-9 10 -41 42 0
9 -10 41 -42 0
11 12 13 14 0
-11 12 -13 14 0
11 -12 13 -14 0
11 12 19 20 0
-11 12 -19 20 0
11 -12 19 -20 0
11 12 31 32 0
-11 12 -31 32 0
11 -12 31 -32 0
13 14 17 18 0
-13 14 -17 18 0
13 -14 17 -18 0
13 14 23 24 0
-13 14 -23 24 0
13 -14 23 -24 0
13 14 47 48 0
-13 14 -47 48 0
13 -14 47 -48 0
15 16 25 26 0
-15 16 -25 26 0
15 -16 25 -26 0
15 16 33 34 0
-15 16 -33 34 0
15 -16 33 -34 0
15 16 41 42 0
-15 16 -41 42 0
15 -16 41 -42 0
15 16 53 54 0
-15 16 -53 54 0
15 -16 53 -54 0
17 18 19 20 0
-17 18 -19 20 0
17 -18 19 -20 0
17 18 25 26 0
-17 18 -25 26 0
17 -18 25 -26 0
17 18 29 30 0
-17 18 -29 30 0
17 -18 29 -30 0
17 18 45 46 0
-17 18 -45 46 0
17 -18 45 -46 0
17 18 47 48 0
-17 18 -47 48 0
17 -18 47 -48 0
17 18 53 54 0
-17 18 -53 54 0
17 -18 53 -54 0
19 20 35 36 0
-19 20 -35 36 0
19 -20 35 -36 0
21 22 31 32 0
-21 22 -31 32 0
21 -22 31 -32 0
21 22 37 38 0
-21 22 -37 38 0
21 -22 37 -38 0
21 22 41 42 0
-21 22 -41 42 0
21 -22 41 -42 0
23 24 47 48 0
-23 24 -47 48 0
23 -24 47 -48 0
25 26 33 34 0
-25 26 -33 34 0
25 -26 33 -34 0
25 26 49 50 0
-25 26 -49 50 0
25 -26 49 -50 0
25 26 51 52 0
-25 26 -51 52 0
25 -26 51 -52 0
27 28 45 46 0
-27 28 -45 46 0
27 -28 45 -46 0
27 28 53 54 0
-27 28 -53 54 0
27 -28 53 -54 0
29 30 33 34 0
-29 30 -33 34 0
29 -30 33 -34 0
29 30 35 36 0
-29 30 -35 36 0
29 -30 35 -36 0
31 32 39 40 0
-31 32 -39 40 0
31 -32 39 -40 0
31 32 45 46 0
-31 32 -45 46 0
31 -32 45 -46 0
33 34 51 52 0
-33 34 -51 52 0
33 -34 51 -52 0
37 38 49 50 0
-37 38 -49 50 0
37 -38 49 -50 0
39 40 47 48 0
-39 40 -47 48 0
39 -40 47 -48 0
41 42 43 44 0
-41 42 -43 44 0
41 -42 43 -44 0
41 42 53 54 0
-41 42 -53 54 0
41 -42 53 -54 0
45 46 51 52 0
-45 46 -51 52 0
45 -46 51 -52 0
51 52 53 54 0
-51 52 -53 54 0
51 -52 53 -54 0
