c family=3-COL n=54 instance=1 seed=145502016 models=216
c order 2 31 8 45 51 36 5 32 34 10 38 37 28 33 26 16 46 23 47 12 24 11 50 17 3 15 54 25 30 44 40 7 48 4 29 19 49 53 52 13 35 42 39 22 18 6 1 20 21 9 43 27 41 14
c order 20 41 52 4 49 42 50 3 19 7 1 43 39 29 24 30 53 11 38 36 17 27 22 28 12 6 35 18 37 45 48 2 54 26 16 23 47 5 31 33 32 8 10 9 15 34 44 21 13 25 46 14 40 51
c order 13 22 38 27 37 14 5 30 40 31 51 17 12 48 2 18 25 50 3 28 9 7 4 24 11 54 42 23 44 36 43 46 39 32 19 8 49 10 6 16 21 52 1 29 45 53 33 35 20 26 41 15 34 47
c order 14 9 7 45 1 49 25 52 4 53 35 5 37 8 17 48 20 50 36 31 41 19 51 39 29 16 40 6 30 18 26 21 46 33 24 54 2 47 27 42 43 28 3 44 10 23 15 12 11 34 38 13 32 22
c order 34 17 3 28 54 38 9 2 22 51 10 29 52 12 24 25 20 35 11 36 4 42 18 30 31 49 50 7 33 1 37 23 21 43 41 39 15 5 48 19 44 45 14 6 27 40 47 26 13 8 32 46 53 16
c order 26 8 53 33 49 22 14 16 21 45 7 9 17 54 12 4 29 37 30 10 34 2 23 35 52 44 31 1 25 43 39 27 51 3 41 46 50 36 48 15 13 11 20 28 32 5 24 18 47 6 19 40 42 38
c order 53 50 43 8 20 35 19 40 16 42 2 54 10 36 13 18 26 41 32 45 1 11 22 38 46 25 48 17 52 30 23 5 49 9 39 37 51 24 6 27 15 12 34 28 7 31 14 29 44 4 21 3 33 47
c order 36 30 50 24 11 7 17 1 31 46 15 10 43 35 14 32 53 23 48 34 33 41 20 12 47 37 54 2 42 9 26 5 51 6 22 13 16 18 19 29 27 3 44 40 21 38 52 25 39 28 49 8 4 45
c order 2 16 3 40 36 47 12 17 22 43 14 41 25 32 53 52 35 42 19 48 34 5 31 28 9 6 18 21 10 30 26 44 54 8 11 7 20 38 4 24 15 27 29 39 1 23 49 50 51 33 13 37 45 46
c order 11 17 2 6 4 31 27 52 13 25 12 38 33 14 30 29 42 24 51 54 46 49 53 5 32 50 19 10 43 28 1 39 44 18 36 47 26 16 8 45 37 41 3 23 22 40 9 35 7 20 34 21 48 15
p cnf 54 198
-1 -2 0
-3 -4 0
-5 -6 0
-7 -8 0
-9 -10 0
-11 -12 0
-13 -14 0
-15 -16 0
-17 -18 0
-19 -20 0
-21 -22 0
-23 -24 0
-25 -26 0
-27 -28 0
-29 -30 0
-31 -32 0
-33 -34 0
-35 -36 0
-37 -38 0
-39 -40 0
-41 -42 0
-43 -44 0
-45 -46 0
-47 -48 0
-49 -50 0
-51 -52 0
-53 -54 0
1 2 3 4 0
-1 2 -3 4 0
1 -2 3 -4 0
1 2 7 8 0
-1 2 -7 8 0
1 -2 7 -8 0
1 2 9 10 0
-1 2 -9 10 0
1 -2 9 -10 0
1 2 13 14 0
-1 2 -13 14 0
1 -2 13 -14 0
1 2 21 22 0
-1 2 -21 22 0
1 -2 21 -22 0
3 4 9 10 0
-3 4 -9 10 0
3 -4 9 -10 0
3 4 47 48 0
-3 4 -47 48 0
3 -4 47 -48 0
5 6 7 8 0
-5 6 -7 8 0
5 -6 7 -8 0
5 6 9 10 0
-5 6 -9 10 0
5 -6 9 -10 0
5 6 11 12 0
-5 6 -11 12 0
5 -6 11 -12 0
7 8 15 16 0
-7 8 -15 16 0
7 -8 15 -16 0
7 8 27 28 0
-7 8 -27 28 0
7 -8 27 -28 0
7 8 45 46 0
-7 8 -45 46 0
7 -8 45 -46 0
7 8 53 54 0
-7 8 -53 54 0
7 -8 53 -54 0
9 10 13 14 0
-9 10 -13 14 0
9 -10 13 -14 0
9 10 21 22 0
-9 10 -21 22 0
9 -10 21 -22 0
9 10 31 32 0
-9 10 -31 32 0
9 -10 31 -32 0
9 10 41 42 0
-9 10 -41 42 0
9 -10 41 -42 0
11 12 19 20 0
-11 12 -19 20 0
11 -12 19 -20 0
11 12 29 30 0
-11 12 -29 30 0
11 -12 29 -30 0
11 12 49 50 0
-11 12 -49 50 0
11 -12 49 -50 0
15 16 23 24 0
-15 16 -23 24 0
15 -16 23 -24 0
15 16 33 34 0
-15 16 -33 34 0
15 -16 33 -34 0
15 16 35 36 0
-15 16 -35 36 0
15 -16 35 -36 0
15 16 41 42 0
-15 16 -41 42 0
15 -16 41 -42 0
15 16 45 46 0
-15 16 -45 46 0
15 -16 45 -46 0
17 18 31 32 0
-17 18 -31 32 0
17 -18 31 -32 0
17 18 43 44 0
-17 18 -43 44 0
17 -18 43 -44 0
19 20 21 22 0
-19 20 -21 22 0
19 -20 21 -22 0
19 20 33 34 0
-19 20 -33 34 0
19 -20 33 -34 0
19 20 35 36 0
-19 20 -35 36 0
19 -20 35 -36 0
19 20 47 48 0
-19 20 -47 48 0
19 -20 47 -48 0
19 20 53 54 0
-19 20 -53 54 0
19 -20 53 -54 0
21 22 25 26 0
-21 22 -25 26 0
21 -22 25 -26 0
21 22 37 38 0
-21 22 -37 38 0
21 -22 37 -38 0
23 24 29 30 0
-23 24 -29 30 0
23 -24 29 -30 0
23 24 35 36 0
-23 24 -35 36 0
23 -24 35 -36 0
23 24 39 40 0
-23 24 -39 40 0
23 -24 39 -40 0
23 24 45 46 0
-23 24 -45 46 0
23 -24 45 -46 0
23 24 49 50 0
-23 24 -49 50 0
23 -24 49 -50 0
25 26 33 34 0
-25 26 -33 34 0
25 -26 33 -34 0
25 26 45 46 0
-25 26 -45 46 0
25 -26 45 -46 0
27 28 45 46 0
-27 28 -45 46 0
27 -28 45 -46 0
27 28 47 48 0
-27 28 -47 48 0
27 -28 47 -48 0
29 30 33 34 0
-29 30 -33 34 0
29 -30 33 -34 0
29 30 45 46 0
-29 30 -45 46 0
29 -30 45 -46 0
31 32 47 48 0
-31 32 -47 48 0
31 -32 47 -48 0
31 32 49 50 0
-31 32 -49 50 0
31 -32 49 -50 0
31 32 51 52 0
-31 32 -51 52 0
31 -32 51 -52 0
31 32 53 54 0
-31 32 -53 54 0
31 -32 53 -54 0
35 36 47 48 0
-35 36 -47 48 0
35 -36 47 -48 0
37 38 49 50 0
-37 38 -49 50 0
37 -38 49 -50 0
39 40 45 46 0
-39 40 -45 46 0
39 -40 45 -46 0
39 40 51 52 0
-39 40 -51 52 0
39 -40 51 -52 0
43 44 51 52 0
-43 44 -51 52 0
43 -44 51 -52 0
45 46 47 48 0
-45 46 -47 48 0
45 -46 47 -48 0
51 52 53 54 0
-51 52 -53 54 0
51 -52 53 -54 0
