c family=3-COL n=60 instance=7 seed=145502016 models=504
c order 35 27 13 22 7 11 18 9 58 3 40 10 53 34 57 25 16 42 30 15 31 4 46 23 54 2 20 36 24 26 51 21 48 38 17 41 43 19 49 8 12 56 5 6 59 33 60 45 39 50 28 55 44 32 52 14 37 29 47 1
c order 47 56 5 36 43 52 38 26 22 24 33 32 3 8 18 41 39 44 42 23 50 28 29 35 59 6 45 10 1 20 37 48 31 60 14 16 2 19 34 17 53 46 30 9 40 49 25 15 11 57 55 13 7 58 12 21 4 51 27 54
c order 35 41 39 21 23 33 28 37 4 53 20 14 52 46 8 2 59 18 6 5 43 29 11 51 1 15 55 34 9 30 42 40 44 38 60 13 32 12 58 57 25 54 10 31 26 17 22 47 56 49 45 36 19 3 7 16 48 24 27 50
c order 47 15 60 55 2 21 31 39 29 56 35 17 5 54 19 9 37 1 12 25 43 3 40 28 57 48 27 16 7 58 22 38 41 52 20 8 49 26 50 30 45 23 59 32 18 46 24 11 51 13 53 36 4 6 10 44 33 34 14 42
c order 37 22 16 7 36 59 32 45 42 3 19 54 35 38 20 14 17 31 46 27 39 11 23 26 33 34 25 1 53 49 60 55 18 28 8 4 15 6 57 9 43 5 58 52 21 30 51 10 13 56 44 40 41 12 2 29 48 24 50 47
c order 60 3 10 50 47 38 21 58 7 51 28 17 54 2 36 30 37 31 55 44 5 12 48 49 26 1 18 53 59 13 22 14 41 25 24 39 6 57 16 23 19 34 32 8 4 20 27 45 29 52 9 35 42 40 46 15 56 11 43 33
c order 18 58 60 56 41 29 47 1 49 2 59 54 7 45 33 22 25 5 13 17 24 35 12 52 46 42 16 30 27 38 43 10 15 26 14 50 21 20 28 57 55 3 37 40 34 32 31 19 23 9 44 6 11 51 36 39 53 48 8 4
c order 22 46 10 1 25 21 53 6 31 12 2 59 37 4 28 38 19 39 48 60 23 49 33 27 43 7 58 52 41 24 8 36 14 32 55 51 17 9 11 20 44 26 15 3 45 47 42 34 18 50 13 5 30 35 54 29 40 16 56 57
c order 38 11 42 48 16 17 25 54 37 3 44 21 20 51 9 33 26 39 41 13 57 43 55 7 53 23 2 6 47 52 28 59 49 4 24 1 56 36 32 35 12 14 19 40 27 60 46 15 18 58 8 29 34 31 45 30 10 50 22 5
c order 5 21 30 50 48 27 4 40 26 37 60 52 33 49 10 16 32 38 7 46 29 12 41 34 58 8 47 25 28 51 20 31 56 55 44 19 57 14 11 6 43 59 1 53 23 9 35 54 22 42 39 13 2 18 45 36 3 17 15 24
p cnf 60 219
-1 -2 0
-3 -4 0
-5 -6 0
-7 -8 0
-9 -10 0
-11 -12 0
-13 -14 0
-15 -16 0
-17 -18 0
-19 -20 0
-21 -22 0
-23 -24 0
-25 -26 0
-27 -28 0
-29 -30 0
-31 -32 0
-33 -34 0
-35 -36 0
-37 -38 0
-39 -40 0
-41 -42 0
-43 -44 0
-45 -46 0
-47 -48 0
-49 -50 0
-51 -52 0
-53 -54 0
-55 -56 0
-57 -58 0
-59 -60 0
1 2 21 22 0
-1 2 -21 22 0
1 -2 21 -22 0
1 2 33 34 0
-1 2 -33 34 0
1 -2 33 -34 0
1 2 41 42 0
-1 2 -41 42 0
1 -2 41 -42 0
1 2 57 58 0
-1 2 -57 58 0
1 -2 57 -58 0
3 4 25 26 0
-3 4 -25 26 0
3 -4 25 -26 0
3 4 31 32 0
-3 4 -31 32 0
3 -4 31 -32 0
3 4 53 54 0
-3 4 -53 54 0
3 -4 53 -54 0
3 4 59 60 0
-3 4 -59 60 0
3 -4 59 -60 0
5 6 17 18 0
-5 6 -17 18 0
5 -6 17 -18 0
5 6 29 30 0
-5 6 -29 30 0
5 -6 29 -30 0
5 6 43 44 0
-5 6 -43 44 0
5 -6 43 -44 0
5 6 57 58 0
-5 6 -57 58 0
5 -6 57 -58 0
7 8 53 54 0
-7 8 -53 54 0
7 -8 53 -54 0
7 8 57 58 0
-7 8 -57 58 0
7 -8 57 -58 0
9 10 15 16 0
-9 10 -15 16 0
9 -10 15 -16 0
9 10 27 28 0
-9 10 -27 28 0
9 -10 27 -28 0
9 10 31 32 0
-9 10 -31 32 0
9 -10 31 -32 0
9 10 45 46 0
-9 10 -45 46 0
9 -10 45 -46 0
9 10 55 56 0
-9 10 -55 56 0
9 -10 55 -56 0
11 12 15 16 0
-11 12 -15 16 0
11 -12 15 -16 0
11 12 57 58 0
-11 12 -57 58 0
11 -12 57 -58 0
11 12 59 60 0
-11 12 -59 60 0
11 -12 59 -60 0
13 14 23 24 0
-13 14 -23 24 0
13 -14 23 -24 0
13 14 35 36 0
-13 14 -35 36 0
13 -14 35 -36 0
13 14 59 60 0
-13 14 -59 60 0
13 -14 59 -60 0
15 16 25 26 0
-15 16 -25 26 0
15 -16 25 -26 0
17 18 23 24 0
-17 18 -23 24 0
17 -18 23 -24 0
17 18 27 28 0
-17 18 -27 28 0
17 -18 27 -28 0
17 18 35 36 0
-17 18 -35 36 0
17 -18 35 -36 0
17 18 41 42 0
-17 18 -41 42 0
17 -18 41 -42 0
17 18 45 46 0
-17 18 -45 46 0
17 -18 45 -46 0
17 18 53 54 0
-17 18 -53 54 0
17 -18 53 -54 0
19 20 39 40 0
-19 20 -39 40 0
19 -20 39 -40 0
19 20 47 48 0
-19 20 -47 48 0
19 -20 47 -48 0
19 20 57 58 0
-19 20 -57 58 0
19 -20 57 -58 0
21 22 59 60 0
-21 22 -59 60 0
21 -22 59 -60 0
23 24 25 26 0
-23 24 -25 26 0
23 -24 25 -26 0
23 24 55 56 0
-23 24 -55 56 0
23 -24 55 -56 0
25 26 29 30 0
-25 26 -29 30 0
25 -26 29 -30 0
25 26 39 40 0
-25 26 -39 40 0
25 -26 39 -40 0
25 26 49 50 0
-25 26 -49 50 0
25 -26 49 -50 0
25 26 51 52 0
-25 26 -51 52 0
25 -26 51 -52 0
27 28 37 38 0
-27 28 -37 38 0
27 -28 37 -38 0
29 30 41 42 0
-29 30 -41 42 0
29 -30 41 -42 0
29 30 51 52 0
-29 30 -51 52 0
29 -30 51 -52 0
31 32 41 42 0
-31 32 -41 42 0
31 -32 41 -42 0
31 32 55 56 0
-31 32 -55 56 0
31 -32 55 -56 0
33 34 35 36 0
-33 34 -35 36 0
33 -34 35 -36 0
33 34 43 44 0
-33 34 -43 44 0
33 -34 43 -44 0
33 34 49 50 0
-33 34 -49 50 0
33 -34 49 -50 0
33 34 51 52 0
-33 34 -51 52 0
33 -34 51 -52 0
35 36 37 38 0
-35 36 -37 38 0
35 -36 37 -38 0
35 36 41 42 0
-35 36 -41 42 0
35 -36 41 -42 0
35 36 59 60 0
-35 36 -59 60 0
35 -36 59 -60 0
39 40 45 46 0
-39 40 -45 46 0
39 -40 45 -46 0
41 42 59 60 0
-41 42 -59 60 0
41 -42 59 -60 0
43 44 47 48 0
-43 44 -47 48 0
43 -44 47 -48 0
43 44 55 56 0
-43 44 -55 56 0
43 -44 55 -56 0
45 46 47 48 0
-45 46 -47 48 0
45 -46 47 -48 0
47 48 53 54 0
-47 48 -53 54 0
47 -48 53 -54 0
49 50 57 58 0
-49 50 -57 58 0
49 -50 57 -58 0
49 50 59 60 0
-49 50 -59 60 0
49 -50 59 -60 0
53 54 59 60 0
-53 54 -59 60 0
53 -54 59 -60 0
