c family=3-COL n=60 instance=4 seed=145502016 models=72
c order 19 1 15 5 26 40 35 28 51 27 45 18 49 16 47 23 30 31 34 32 21 11 44 24 4 37 33 3 43 38 22 59 42 13 57 14 7 41 58 60 25 53 54 56 6 36 10 17 20 12 50 29 9 48 46 8 39 55 52 2
c order 53 33 60 39 21 12 59 22 27 41 17 47 44 50 52 23 29 55 6 15 1 14 38 18 48 20 19 49 34 40 24 51 56 45 16 30 37 8 7 36 5 9 26 54 57 13 3 46 42 32 2 11 10 43 31 28 25 35 58 4
c order 43 46 23 27 14 24 7 32 55 45 38 2 50 51 6 56 31 17 53 44 42 47 57 25 3 28 10 30 13 11 9 4 1 59 18 39 52 40 60 36 19 34 20 41 22 8 21 15 48 33 37 5 49 12 26 16 58 29 35 54
c order 52 36 59 51 40 45 39 47 6 31 37 43 8 20 27 24 13 54 35 7 25 11 30 33 16 49 44 9 18 10 3 12 34 19 29 38 28 56 57 4 60 14 2 15 23 46 58 5 22 50 41 21 1 32 42 55 53 48 26 17
c order 57 59 35 34 41 23 38 20 5 40 54 55 24 46 1 31 44 6 4 49 36 21 10 45 2 37 16 51 14 26 7 28 29 48 17 39 8 30 60 11 15 33 52 13 18 27 22 56 58 53 42 19 47 50 12 9 32 25 3 43
c order 23 8 59 18 4 13 3 54 44 40 7 30 10 46 32 14 22 36 48 37 5 43 26 28 33 42 39 41 57 12 35 51 17 9 47 24 58 20 45 53 2 16 25 60 1 21 27 19 34 38 49 11 50 6 52 55 31 56 29 15
c order 2 17 54 30 15 52 41 55 42 5 37 36 50 14 48 29 9 25 21 44 32 40 28 20 47 11 57 45 18 43 1 27 8 16 39 4 24 58 7 33 46 60 23 13 19 49 6 38 56 12 31 35 34 10 22 26 51 59 53 3
c order 50 24 15 29 16 18 20 39 53 9 3 8 51 54 41 32 46 43 60 11 2 30 47 22 1 25 19 59 37 42 5 4 58 33 21 35 6 45 38 44 23 40 56 36 17 27 26 34 55 48 57 49 52 12 7 31 10 13 14 28
c order 5 17 48 51 41 21 55 37 13 19 44 32 27 52 1 58 53 42 35 30 8 50 16 43 29 57 15 26 31 36 24 33 20 38 23 10 28 14 47 34 59 18 22 6 56 46 45 2 12 49 3 4 40 54 11 60 7 9 39 25
c order 29 53 14 33 48 49 21 50 45 34 19 36 43 42 55 24 28 40 9 16 17 27 56 60 44 4 1 7 2 11 6 15 54 58 31 38 37 12 10 39 30 35 3 51 5 47 32 25 26 41 20 22 8 18 52 23 59 13 46 57
p cnf 60 219
-1 -2 0
-3 -4 0
-5 -6 0
-7 -8 0
-9 -10 0
-11 -12 0
-13 -14 0
-15 -16 0
-17 -18 0
-19 -20 0
-21 -22 0
-23 -24 0
-25 -26 0
-27 -28 0
-29 -30 0
-31 -32 0
-33 -34 0
-35 -36 0
-37 -38 0
-39 -40 0
-41 -42 0
-43 -44 0
-45 -46 0
-47 -48 0
-49 -50 0
-51 -52 0
-53 -54 0
-55 -56 0
-57 -58 0
-59 -60 0
1 2 29 30 0
-1 2 -29 30 0
1 -2 29 -30 0
1 2 51 52 0
-1 2 -51 52 0
1 -2 51 -52 0
3 4 5 6 0
-3 4 -5 6 0
3 -4 5 -6 0
3 4 13 14 0
-3 4 -13 14 0
3 -4 13 -14 0
3 4 33 34 0
-3 4 -33 34 0
3 -4 33 -34 0
3 4 35 36 0
-3 4 -35 36 0
3 -4 35 -36 0
5 6 31 32 0
-5 6 -31 32 0
5 -6 31 -32 0
7 8 15 16 0
-7 8 -15 16 0
7 -8 15 -16 0
7 8 23 24 0
-7 8 -23 24 0
7 -8 23 -24 0
7 8 27 28 0
-7 8 -27 28 0
7 -8 27 -28 0
9 10 21 22 0
-9 10 -21 22 0
9 -10 21 -22 0
9 10 29 30 0
-9 10 -29 30 0
9 -10 29 -30 0
9 10 31 32 0
-9 10 -31 32 0
9 -10 31 -32 0
9 10 43 44 0
-9 10 -43 44 0
9 -10 43 -44 0
9 10 55 56 0
-9 10 -55 56 0
9 -10 55 -56 0
11 12 23 24 0
-11 12 -23 24 0
11 -12 23 -24 0
11 12 25 26 0
-11 12 -25 26 0
11 -12 25 -26 0
11 12 53 54 0
-11 12 -53 54 0
11 -12 53 -54 0
11 12 59 60 0
-11 12 -59 60 0
11 -12 59 -60 0
13 14 19 20 0
-13 14 -19 20 0
13 -14 19 -20 0
13 14 55 56 0
-13 14 -55 56 0
13 -14 55 -56 0
13 14 59 60 0
-13 14 -59 60 0
13 -14 59 -60 0
15 16 17 18 0
-15 16 -17 18 0
15 -16 17 -18 0
15 16 21 22 0
-15 16 -21 22 0
15 -16 21 -22 0
17 18 21 22 0
-17 18 -21 22 0
17 -18 21 -22 0
17 18 35 36 0
-17 18 -35 36 0
17 -18 35 -36 0
17 18 37 38 0
-17 18 -37 38 0
17 -18 37 -38 0
17 18 51 52 0
-17 18 -51 52 0
17 -18 51 -52 0
19 20 39 40 0
-19 20 -39 40 0
19 -20 39 -40 0
21 22 41 42 0
-21 22 -41 42 0
21 -22 41 -42 0
21 22 57 58 0
-21 22 -57 58 0
21 -22 57 -58 0
23 24 31 32 0
-23 24 -31 32 0
23 -24 31 -32 0
23 24 33 34 0
-23 24 -33 34 0
23 -24 33 -34 0
23 24 39 40 0
-23 24 -39 40 0
23 -24 39 -40 0
25 26 37 38 0
-25 26 -37 38 0
25 -26 37 -38 0
25 26 39 40 0
-25 26 -39 40 0
25 -26 39 -40 0
25 26 47 48 0
-25 26 -47 48 0
25 -26 47 -48 0
25 26 53 54 0
-25 26 -53 54 0
25 -26 53 -54 0
25 26 55 56 0
-25 26 -55 56 0
25 -26 55 -56 0
27 28 47 48 0
-27 28 -47 48 0
27 -28 47 -48 0
27 28 57 58 0
-27 28 -57 58 0
27 -28 57 -58 0
29 30 43 44 0
-29 30 -43 44 0
29 -30 43 -44 0
29 30 45 46 0
-29 30 -45 46 0
29 -30 45 -46 0
31 32 33 34 0
-31 32 -33 34 0
31 -32 33 -34 0
31 32 37 38 0
-31 32 -37 38 0
31 -32 37 -38 0
31 32 55 56 0
-31 32 -55 56 0
31 -32 55 -56 0
33 34 45 46 0
-33 34 -45 46 0
33 -34 45 -46 0
33 34 49 50 0
-33 34 -49 50 0
33 -34 49 -50 0
35 36 41 42 0
-35 36 -41 42 0
35 -36 41 -42 0
35 36 49 50 0
-35 36 -49 50 0
35 -36 49 -50 0
35 36 51 52 0
-35 36 -51 52 0
35 -36 51 -52 0
35 36 53 54 0
-35 36 -53 54 0
35 -36 53 -54 0
35 36 59 60 0
-35 36 -59 60 0
35 -36 59 -60 0
37 38 49 50 0
-37 38 -49 50 0
37 -38 49 -50 0
37 38 59 60 0
-37 38 -59 60 0
37 -38 59 -60 0
39 40 47 48 0
-39 40 -47 48 0
39 -40 47 -48 0
41 42 43 44 0
-41 42 -43 44 0
41 -42 43 -44 0
41 42 47 48 0
-41 42 -47 48 0
41 -42 47 -48 0
41 42 59 60 0
-41 42 -59 60 0
41 -42 59 -60 0
43 44 55 56 0
-43 44 -55 56 0
43 -44 55 -56 0
45 46 57 58 0
-45 46 -57 58 0
45 -46 57 -58 0
47 48 53 54 0
-47 48 -53 54 0
47 -48 53 -54 0
51 52 53 54 0
-51 52 -53 54 0
51 -52 53 -54 0
