c family=3-COL n=60 instance=3 seed=145502016 models=1488
c order 3 52 9 14 41 33 6 18 24 27 59 45 19 48 39 36 20 44 15 60 22 54 30 57 35 10 29 49 32 25 21 28 8 34 56 53 51 37 12 26 55 23 40 11 43 4 47 2 50 16 1 58 42 13 7 5 31 38 17 46
c order 20 34 21 3 24 53 4 7 18 39 8 60 57 48 23 16 33 1 10 32 2 54 37 35 41 6 14 38 13 50 52 58 17 47 9 44 43 29 15 40 30 28 25 31 56 42 26 45 49 46 11 19 12 59 36 51 22 55 5 27
c order 53 39 19 56 44 12 22 40 52 21 15 27 32 23 45 14 48 43 34 26 38 4 16 28 41 20 60 24 51 2 31 55 54 49 9 5 50 8 7 57 58 59 30 18 13 1 10 29 35 47 42 17 46 33 6 37 11 25 3 36
c order 9 1 37 26 53 6 60 23 10 59 54 15 7 13 2 22 43 21 11 52 28 35 4 51 20 24 16 50 48 3 12 36 19 32 40 29 49 42 31 18 33 57 55 34 25 44 46 27 5 38 17 47 41 30 39 14 56 45 8 58
c order 20 39 4 15 46 45 29 57 3 44 27 37 43 52 6 33 24 60 9 25 53 59 19 18 21 56 49 8 12 34 17 26 28 31 30 35 48 11 16 47 50 32 38 7 55 51 1 22 14 13 23 58 10 54 41 5 40 42 36 2
c order 22 17 43 36 32 46 15 35 5 34 7 44 24 23 9 41 18 3 14 45 53 52 37 42 49 57 50 51 28 20 39 38 29 58 6 30 13 60 12 31 33 10 26 2 8 4 48 54 1 56 25 47 21 16 27 19 11 55 59 40
c order 34 39 58 54 6 22 15 49 36 44 32 55 21 2 28 45 9 46 19 18 1 23 30 29 48 52 10 14 20 25 16 27 56 43 33 24 11 31 37 7 57 60 4 50 41 47 12 35 40 26 59 13 53 3 8 38 51 17 5 42
c order 46 26 41 50 16 30 49 17 44 19 48 1 52 38 7 6 43 36 53 24 25 11 57 10 39 3 31 14 35 15 42 27 13 60 54 20 59 32 21 2 56 47 29 12 58 34 28 5 22 51 18 4 40 37 45 9 55 8 23 33
c order 32 58 50 55 40 29 23 31 18 14 38 56 33 37 49 12 25 15 45 30 48 60 46 41 24 1 4 42 10 53 35 47 17 52 27 54 7 44 5 8 9 26 6 2 51 57 28 16 36 21 43 20 34 39 3 59 19 13 22 11
c order 24 5 30 60 56 51 35 26 6 11 21 20 49 9 10 33 14 4 39 32 1 45 41 54 43 12 58 40 34 38 48 19 22 17 44 55 2 52 47 3 46 16 31 7 59 18 29 8 53 36 37 28 57 42 15 25 27 23 13 50
p cnf 60 219
-1 -2 0
-3 -4 0
-5 -6 0
-7 -8 0
-9 -10 0
-11 -12 0
-13 -14 0
-15 -16 0
-17 -18 0
-19 -20 0
-21 -22 0
-23 -24 0
-25 -26 0
-27 -28 0
-29 -30 0
-31 -32 0
-33 -34 0
-35 -36 0
-37 -38 0
-39 -40 0
-41 -42 0
-43 -44 0
-45 -46 0
-47 -48 0
-49 -50 0
-51 -52 0
-53 -54 0
-55 -56 0
-57 -58 0
-59 -60 0
1 2 11 12 0
-1 2 -11 12 0
1 -2 11 -12 0
1 2 27 28 0
-1 2 -27 28 0
1 -2 27 -28 0
1 2 33 34 0
-1 2 -33 34 0
1 -2 33 -34 0
1 2 39 40 0
-1 2 -39 40 0
1 -2 39 -40 0
1 2 43 44 0
-1 2 -43 44 0
1 -2 43 -44 0
1 2 47 48 0
-1 2 -47 48 0
1 -2 47 -48 0
1 2 57 58 0
-1 2 -57 58 0
1 -2 57 -58 0
3 4 13 14 0
-3 4 -13 14 0
3 -4 13 -14 0
3 4 17 18 0
-3 4 -17 18 0
3 -4 17 -18 0
3 4 21 22 0
-3 4 -21 22 0
3 -4 21 -22 0
5 6 27 28 0
-5 6 -27 28 0
5 -6 27 -28 0
5 6 33 34 0
-5 6 -33 34 0
5 -6 33 -34 0
5 6 41 42 0
-5 6 -41 42 0
5 -6 41 -42 0
5 6 55 56 0
-5 6 -55 56 0
5 -6 55 -56 0
7 8 21 22 0
-7 8 -21 22 0
7 -8 21 -22 0
7 8 27 28 0
-7 8 -27 28 0
7 -8 27 -28 0
7 8 35 36 0
-7 8 -35 36 0
7 -8 35 -36 0
7 8 51 52 0
-7 8 -51 52 0
7 -8 51 -52 0
7 8 53 54 0
-7 8 -53 54 0
7 -8 53 -54 0
7 8 59 60 0
-7 8 -59 60 0
7 -8 59 -60 0
9 10 11 12 0
-9 10 -11 12 0
9 -10 11 -12 0
9 10 35 36 0
-9 10 -35 36 0
9 -10 35 -36 0
9 10 37 38 0
-9 10 -37 38 0
9 -10 37 -38 0
9 10 59 60 0
-9 10 -59 60 0
9 -10 59 -60 0
11 12 41 42 0
-11 12 -41 42 0
11 -12 41 -42 0
11 12 43 44 0
-11 12 -43 44 0
11 -12 43 -44 0
11 12 53 54 0
-11 12 -53 54 0
11 -12 53 -54 0
13 14 21 22 0
-13 14 -21 22 0
13 -14 21 -22 0
13 14 25 26 0
-13 14 -25 26 0
13 -14 25 -26 0
13 14 27 28 0
-13 14 -27 28 0
13 -14 27 -28 0
13 14 31 32 0
-13 14 -31 32 0
13 -14 31 -32 0
13 14 55 56 0
-13 14 -55 56 0
13 -14 55 -56 0
15 16 29 30 0
-15 16 -29 30 0
15 -16 29 -30 0
15 16 35 36 0
-15 16 -35 36 0
15 -16 35 -36 0
15 16 41 42 0
-15 16 -41 42 0
15 -16 41 -42 0
15 16 51 52 0
-15 16 -51 52 0
15 -16 51 -52 0
15 16 55 56 0
-15 16 -55 56 0
15 -16 55 -56 0
17 18 43 44 0
-17 18 -43 44 0
17 -18 43 -44 0
19 20 21 22 0
-19 20 -21 22 0
19 -20 21 -22 0
19 20 41 42 0
-19 20 -41 42 0
19 -20 41 -42 0
21 22 35 36 0
-21 22 -35 36 0
21 -22 35 -36 0
21 22 37 38 0
-21 22 -37 38 0
21 -22 37 -38 0
21 22 59 60 0
-21 22 -59 60 0
21 -22 59 -60 0
23 24 51 52 0
-23 24 -51 52 0
23 -24 51 -52 0
25 26 27 28 0
-25 26 -27 28 0
25 -26 27 -28 0
25 26 47 48 0
-25 26 -47 48 0
25 -26 47 -48 0
25 26 53 54 0
-25 26 -53 54 0
25 -26 53 -54 0
29 30 57 58 0
-29 30 -57 58 0
29 -30 57 -58 0
31 32 41 42 0
-31 32 -41 42 0
31 -32 41 -42 0
31 32 45 46 0
-31 32 -45 46 0
31 -32 45 -46 0
31 32 59 60 0
-31 32 -59 60 0
31 -32 59 -60 0
33 34 45 46 0
-33 34 -45 46 0
33 -34 45 -46 0
35 36 41 42 0
-35 36 -41 42 0
35 -36 41 -42 0
35 36 55 56 0
-35 36 -55 56 0
35 -36 55 -56 0
37 38 39 40 0
-37 38 -39 40 0
37 -38 39 -40 0
37 38 57 58 0
-37 38 -57 58 0
37 -38 57 -58 0
39 40 43 44 0
-39 40 -43 44 0
39 -40 43 -44 0
43 44 45 46 0
-43 44 -45 46 0
43 -44 45 -46 0
43 44 57 58 0
-43 44 -57 58 0
43 -44 57 -58 0
45 46 47 48 0
-45 46 -47 48 0
45 -46 47 -48 0
45 46 49 50 0
-45 46 -49 50 0
45 -46 49 -50 0
45 46 57 58 0
-45 46 -57 58 0
45 -46 57 -58 0
55 56 57 58 0
-55 56 -57 58 0
55 -56 57 -58 0
