c family=3-COL n=60 instance=2 seed=145502016 models=2088
c order 5 12 44 6 56 33 32 34 49 9 1 40 58 17 8 21 26 14 52 57 59 30 41 51 43 10 4 22 39 54 35 31 60 47 7 24 37 42 28 50 29 53 19 38 13 48 45 23 11 18 36 25 27 3 15 16 20 55 2 46
c order 13 15 54 2 31 18 55 46 5 38 9 26 14 35 50 51 47 24 16 7 45 59 8 37 12 32 4 60 10 27 39 1 49 53 52 22 42 34 6 33 56 40 23 57 41 36 11 25 58 17 48 43 21 30 3 19 29 28 44 20
c order 26 48 2 52 54 60 3 37 27 16 17 7 25 12 9 33 58 22 47 28 34 32 56 30 40 5 4 41 18 44 29 46 21 59 55 24 11 6 51 49 38 8 39 23 19 10 20 13 35 1 31 36 15 43 45 50 53 57 14 42
c order 57 45 58 27 39 40 30 44 9 49 38 20 54 21 28 41 56 43 52 53 12 29 5 25 48 8 37 55 1 16 3 47 60 33 17 26 42 35 22 2 13 6 7 23 11 15 34 59 18 46 10 50 51 14 31 32 36 19 4 24
c order 31 55 9 18 59 54 19 3 47 6 22 15 13 25 28 45 33 36 39 4 17 23 10 43 37 12 32 8 50 20 11 29 44 27 52 49 42 7 56 40 24 51 57 2 26 38 1 48 35 30 34 14 53 41 16 46 5 58 21 60
c order 18 4 15 57 58 42 8 56 5 49 31 1 43 36 19 45 41 35 21 40 39 53 23 14 26 37 20 34 48 9 7 47 44 29 27 28 46 3 52 6 12 54 24 2 11 60 13 50 59 32 55 22 38 16 25 33 30 51 10 17
c order 31 26 37 55 56 46 28 18 27 48 5 17 52 19 58 50 2 4 41 59 13 33 9 21 43 44 39 47 49 8 57 53 11 32 35 3 30 36 51 1 54 7 40 16 34 23 25 38 60 6 14 24 15 12 29 45 22 20 10 42
c order 48 57 25 8 7 30 27 32 58 1 53 33 16 37 36 41 17 38 49 51 9 2 18 34 45 4 14 47 31 19 44 5 12 28 39 29 21 54 3 40 60 55 52 24 35 43 10 22 11 6 15 56 46 23 13 50 20 42 26 59
c order 9 33 51 2 17 56 48 20 19 43 26 5 13 39 29 14 4 55 58 23 11 44 22 37 32 18 40 47 27 28 31 10 53 6 15 30 50 21 7 8 25 36 34 38 49 59 41 16 54 1 46 52 3 35 57 42 24 60 45 12
c order 45 14 51 11 39 19 37 47 20 56 25 28 55 26 1 16 52 48 27 42 6 54 50 44 29 31 34 36 32 13 2 8 24 57 49 15 22 58 60 53 12 21 10 4 9 59 18 38 17 35 41 40 7 43 23 46 5 30 3 33
p cnf 60 219
-1 -2 0
-3 -4 0
-5 -6 0
-7 -8 0
-9 -10 0
-11 -12 0
-13 -14 0
-15 -16 0
-17 -18 0
-19 -20 0
-21 -22 0
-23 -24 0
-25 -26 0
-27 -28 0
-29 -30 0
-31 -32 0
-33 -34 0
-35 -36 0
-37 -38 0
-39 -40 0
-41 -42 0
-43 -44 0
-45 -46 0
-47 -48 0
-49 -50 0
-51 -52 0
-53 -54 0
-55 -56 0
-57 -58 0
-59 -60 0
1 2 5 6 0
-1 2 -5 6 0
1 -2 5 -6 0
1 2 7 8 0
-1 2 -7 8 0
1 -2 7 -8 0
1 2 17 18 0
-1 2 -17 18 0
1 -2 17 -18 0
1 2 59 60 0
-1 2 -59 60 0
1 -2 59 -60 0
3 4 17 18 0
-3 4 -17 18 0
3 -4 17 -18 0
3 4 33 34 0
-3 4 -33 34 0
3 -4 33 -34 0
3 4 37 38 0
-3 4 -37 38 0
3 -4 37 -38 0
3 4 51 52 0
-3 4 -51 52 0
3 -4 51 -52 0
5 6 15 16 0
-5 6 -15 16 0
5 -6 15 -16 0
5 6 23 24 0
-5 6 -23 24 0
5 -6 23 -24 0
7 8 15 16 0
-7 8 -15 16 0
7 -8 15 -16 0
9 10 25 26 0
-9 10 -25 26 0
9 -10 25 -26 0
9 10 39 40 0
-9 10 -39 40 0
9 -10 39 -40 0
9 10 43 44 0
-9 10 -43 44 0
9 -10 43 -44 0
9 10 51 52 0
-9 10 -51 52 0
9 -10 51 -52 0
9 10 55 56 0
-9 10 -55 56 0
9 -10 55 -56 0
11 12 29 30 0
-11 12 -29 30 0
11 -12 29 -30 0
11 12 33 34 0
-11 12 -33 34 0
11 -12 33 -34 0
11 12 59 60 0
-11 12 -59 60 0
11 -12 59 -60 0
13 14 25 26 0
-13 14 -25 26 0
13 -14 25 -26 0
15 16 41 42 0
-15 16 -41 42 0
15 -16 41 -42 0
15 16 51 52 0
-15 16 -51 52 0
15 -16 51 -52 0
15 16 57 58 0
-15 16 -57 58 0
15 -16 57 -58 0
17 18 35 36 0
-17 18 -35 36 0
17 -18 35 -36 0
17 18 41 42 0
-17 18 -41 42 0
17 -18 41 -42 0
17 18 45 46 0
-17 18 -45 46 0
17 -18 45 -46 0
17 18 53 54 0
-17 18 -53 54 0
17 -18 53 -54 0
19 20 21 22 0
-19 20 -21 22 0
19 -20 21 -22 0
19 20 23 24 0
-19 20 -23 24 0
19 -20 23 -24 0
19 20 41 42 0
-19 20 -41 42 0
19 -20 41 -42 0
21 22 23 24 0
-21 22 -23 24 0
21 -22 23 -24 0
21 22 25 26 0
-21 22 -25 26 0
21 -22 25 -26 0
21 22 27 28 0
-21 22 -27 28 0
21 -22 27 -28 0
21 22 37 38 0
-21 22 -37 38 0
21 -22 37 -38 0
21 22 39 40 0
-21 22 -39 40 0
21 -22 39 -40 0
21 22 53 54 0
-21 22 -53 54 0
21 -22 53 -54 0
23 24 49 50 0
-23 24 -49 50 0
23 -24 49 -50 0
23 24 53 54 0
-23 24 -53 54 0
23 -24 53 -54 0
25 26 31 32 0
-25 26 -31 32 0
25 -26 31 -32 0
25 26 33 34 0
-25 26 -33 34 0
25 -26 33 -34 0
27 28 31 32 0
-27 28 -31 32 0
27 -28 31 -32 0
27 28 49 50 0
-27 28 -49 50 0
27 -28 49 -50 0
27 28 57 58 0
-27 28 -57 58 0
27 -28 57 -58 0
29 30 35 36 0
-29 30 -35 36 0
29 -30 35 -36 0
29 30 51 52 0
-29 30 -51 52 0
29 -30 51 -52 0
29 30 55 56 0
-29 30 -55 56 0
29 -30 55 -56 0
33 34 47 48 0
-33 34 -47 48 0
33 -34 47 -48 0
33 34 55 56 0
-33 34 -55 56 0
33 -34 55 -56 0
33 34 57 58 0
-33 34 -57 58 0
33 -34 57 -58 0
33 34 59 60 0
-33 34 -59 60 0
33 -34 59 -60 0
35 36 51 52 0
-35 36 -51 52 0
35 -36 51 -52 0
37 38 39 40 0
-37 38 -39 40 0
37 -38 39 -40 0
37 38 47 48 0
-37 38 -47 48 0
37 -38 47 -48 0
39 40 43 44 0
-39 40 -43 44 0
39 -40 43 -44 0
39 40 45 46 0
-39 40 -45 46 0
39 -40 45 -46 0
39 40 49 50 0
-39 40 -49 50 0
39 -40 49 -50 0
41 42 53 54 0
-41 42 -53 54 0
41 -42 53 -54 0
43 44 47 48 0
-43 44 -47 48 0
43 -44 47 -48 0
43 44 49 50 0
-43 44 -49 50 0
43 -44 49 -50 0
49 50 51 52 0
-49 50 -51 52 0
49 -50 51 -52 0
49 50 53 54 0
-49 50 -53 54 0
49 -50 53 -54 0
51 52 57 58 0
-51 52 -57 58 0
51 -52 57 -58 0
55 56 57 58 0
-55 56 -57 58 0
55 -56 57 -58 0
