c family=3-COL n=60 instance=1 seed=145502016 models=384
c order 38 32 1 23 50 26 31 60 59 45 5 12 41 4 3 18 20 33 25 39 55 57 42 51 14 30 21 46 37 16 56 52 28 47 11 48 24 40 53 34 10 9 15 35 49 6 44 36 2 8 58 22 43 13 17 19 7 54 27 29
c order 23 58 21 5 18 22 26 57 44 35 37 27 45 9 13 47 60 24 28 19 46 50 17 42 8 11 6 7 25 39 40 3 43 1 38 49 54 32 53 14 36 41 4 10 29 34 52 2 15 31 56 30 12 51 48 16 59 33 55 20
c order 26 47 24 51 23 38 53 10 50 44 43 9 55 11 7 41 37 19 36 57 25 39 8 2 31 18 6 33 21 58 56 30 27 3 45 32 40 4 34 29 52 49 54 28 48 15 60 35 1 59 5 46 16 13 20 12 17 42 14 22
c order 20 36 7 50 37 39 10 49 14 18 2 58 57 53 42 17 40 9 15 24 29 27 56 54 33 22 28 31 32 23 45 51 5 41 52 44 35 60 59 25 12 26 34 46 38 48 8 4 11 21 1 55 3 6 16 43 13 47 30 19
c order 7 59 31 45 48 2 29 58 40 35 20 44 36 46 49 53 47 4 43 10 41 9 55 11 23 15 12 18 52 54 37 14 28 32 5 21 6 56 30 60 25 22 51 27 57 38 34 1 17 13 26 42 16 50 3 8 19 33 39 24
c order 47 54 39 52 30 55 31 26 3 22 40 34 1 44 9 10 13 7 24 15 25 18 20 60 6 23 43 28 2 29 51 56 27 33 57 41 49 38 19 12 59 14 17 53 58 16 46 11 48 42 35 4 8 36 5 50 37 21 45 32
c order 53 48 8 41 35 50 14 56 45 38 37 57 51 60 11 18 25 42 13 3 47 20 28 24 31 17 40 52 9 21 23 30 29 34 12 39 46 49 43 58 15 27 2 16 26 19 44 59 22 36 7 4 10 5 33 54 6 1 55 32
c order 41 38 10 60 14 17 23 57 13 27 35 28 12 39 11 49 34 58 55 19 33 24 21 7 8 51 52 5 59 1 46 30 15 29 18 45 22 48 6 56 47 43 42 26 2 3 31 44 25 9 36 32 37 54 20 53 16 50 40 4
c order 36 41 3 12 17 23 48 5 25 20 45 35 6 56 27 46 42 31 10 54 33 15 50 28 49 53 19 7 60 52 47 11 4 58 43 57 38 16 39 1 30 14 55 8 29 34 44 18 40 26 21 51 2 32 9 24 13 37 22 59
c order 45 47 26 43 25 59 23 51 39 36 18 31 38 21 60 9 12 11 5 13 1 41 17 6 19 53 54 35 15 33 30 24 58 56 7 16 29 46 22 48 20 49 34 44 4 40 3 55 27 2 52 32 37 14 8 57 42 50 10 28
p cnf 60 219
-1 -2 0
-3 -4 0
-5 -6 0
-7 -8 0
-9 -10 0
-11 -12 0
-13 -14 0
-15 -16 0
-17 -18 0
-19 -20 0
-21 -22 0
-23 -24 0
-25 -26 0
-27 -28 0
-29 -30 0
-31 -32 0
-33 -34 0
-35 -36 0
-37 -38 0
-39 -40 0
-41 -42 0
-43 -44 0
-45 -46 0
-47 -48 0
-49 -50 0
-51 -52 0
-53 -54 0
-55 -56 0
-57 -58 0
-59 -60 0
1 2 5 6 0
-1 2 -5 6 0
1 -2 5 -6 0
1 2 11 12 0
-1 2 -11 12 0
1 -2 11 -12 0
1 2 35 36 0
-1 2 -35 36 0
1 -2 35 -36 0
3 4 13 14 0
-3 4 -13 14 0
3 -4 13 -14 0
3 4 19 20 0
-3 4 -19 20 0
3 -4 19 -20 0
3 4 51 52 0
-3 4 -51 52 0
3 -4 51 -52 0
7 8 19 20 0
-7 8 -19 20 0
7 -8 19 -20 0
7 8 23 24 0
-7 8 -23 24 0
7 -8 23 -24 0
7 8 25 26 0
-7 8 -25 26 0
7 -8 25 -26 0
7 8 33 34 0
-7 8 -33 34 0
7 -8 33 -34 0
7 8 49 50 0
-7 8 -49 50 0
7 -8 49 -50 0
9 10 25 26 0
-9 10 -25 26 0
9 -10 25 -26 0
9 10 55 56 0
-9 10 -55 56 0
9 -10 55 -56 0
11 12 13 14 0
-11 12 -13 14 0
11 -12 13 -14 0
11 12 37 38 0
-11 12 -37 38 0
11 -12 37 -38 0
13 14 31 32 0
-13 14 -31 32 0
13 -14 31 -32 0
13 14 41 42 0
-13 14 -41 42 0
13 -14 41 -42 0
13 14 47 48 0
-13 14 -47 48 0
13 -14 47 -48 0
13 14 53 54 0
-13 14 -53 54 0
13 -14 53 -54 0
13 14 57 58 0
-13 14 -57 58 0
13 -14 57 -58 0
13 14 59 60 0
-13 14 -59 60 0
13 -14 59 -60 0
15 16 21 22 0
-15 16 -21 22 0
15 -16 21 -22 0
15 16 23 24 0
-15 16 -23 24 0
15 -16 23 -24 0
15 16 31 32 0
-15 16 -31 32 0
15 -16 31 -32 0
15 16 59 60 0
-15 16 -59 60 0
15 -16 59 -60 0
17 18 49 50 0
-17 18 -49 50 0
17 -18 49 -50 0
17 18 53 54 0
-17 18 -53 54 0
17 -18 53 -54 0
17 18 57 58 0
-17 18 -57 58 0
17 -18 57 -58 0
19 20 33 34 0
-19 20 -33 34 0
19 -20 33 -34 0
19 20 57 58 0
-19 20 -57 58 0
19 -20 57 -58 0
19 20 59 60 0
-19 20 -59 60 0
19 -20 59 -60 0
21 22 35 36 0
-21 22 -35 36 0
21 -22 35 -36 0
21 22 43 44 0
-21 22 -43 44 0
21 -22 43 -44 0
21 22 53 54 0
-21 22 -53 54 0
21 -22 53 -54 0
23 24 45 46 0
-23 24 -45 46 0
23 -24 45 -46 0
23 24 59 60 0
-23 24 -59 60 0
23 -24 59 -60 0
25 26 45 46 0
-25 26 -45 46 0
25 -26 45 -46 0
25 26 47 48 0
-25 26 -47 48 0
25 -26 47 -48 0
25 26 55 56 0
-25 26 -55 56 0
25 -26 55 -56 0
27 28 33 34 0
-27 28 -33 34 0
27 -28 33 -34 0
27 28 51 52 0
-27 28 -51 52 0
27 -28 51 -52 0
29 30 35 36 0
-29 30 -35 36 0
29 -30 35 -36 0
29 30 45 46 0
-29 30 -45 46 0
29 -30 45 -46 0
29 30 57 58 0
-29 30 -57 58 0
29 -30 57 -58 0
33 34 39 40 0
-33 34 -39 40 0
33 -34 39 -40 0
33 34 45 46 0
-33 34 -45 46 0
33 -34 45 -46 0
33 34 49 50 0
-33 34 -49 50 0
33 -34 49 -50 0
33 34 59 60 0
-33 34 -59 60 0
33 -34 59 -60 0
35 36 39 40 0
-35 36 -39 40 0
35 -36 39 -40 0
37 38 49 50 0
-37 38 -49 50 0
37 -38 49 -50 0
37 38 55 56 0
-37 38 -55 56 0
37 -38 55 -56 0
37 38 57 58 0
-37 38 -57 58 0
37 -38 57 -58 0
37 38 59 60 0
-37 38 -59 60 0
37 -38 59 -60 0
39 40 41 42 0
-39 40 -41 42 0
39 -40 41 -42 0
39 40 47 48 0
-39 40 -47 48 0
39 -40 47 -48 0
41 42 47 48 0
-41 42 -47 48 0
41 -42 47 -48 0
41 42 53 54 0
-41 42 -53 54 0
41 -42 53 -54 0
41 42 59 60 0
-41 42 -59 60 0
41 -42 59 -60 0
43 44 47 48 0
-43 44 -47 48 0
43 -44 47 -48 0
45 46 57 58 0
-45 46 -57 58 0
45 -46 57 -58 0
47 48 51 52 0
-47 48 -51 52 0
47 -48 51 -52 0
49 50 57 58 0
-49 50 -57 58 0
49 -50 57 -58 0
51 52 57 58 0
-51 52 -57 58 0
51 -52 57 -58 0
