c family=3-COL n=60 instance=5 seed=145502016 models=378
c order 33 40 44 6 56 35 59 48 10 39 45 54 1 46 19 4 37 14 23 38 28 32 25 22 31 42 7 3 52 18 2 15 41 50 17 26 29 55 53 12 5 20 9 49 16 30 58 21 57 51 60 11 13 8 34 47 36 24 27 43
c order 27 54 13 10 56 32 50 38 7 6 19 46 40 9 17 52 3 49 25 59 31 53 28 39 14 55 47 41 51 12 5 45 11 24 21 60 42 30 36 1 22 26 35 48 20 29 23 34 37 43 58 2 44 4 33 8 15 18 16 57
c order 30 57 37 27 31 39 40 14 6 21 4 20 50 60 12 43 38 5 9 55 35 49 18 58 16 51 17 28 32 19 53 45 10 56 36 2 47 34 15 23 13 59 48 11 42 25 33 1 46 54 22 7 26 29 44 52 41 8 24 3
c order 24 10 20 29 53 26 6 18 38 41 55 35 21 22 36 57 52 2 43 4 13 28 51 45 7 33 8 37 49 56 19 25 1 5 54 60 42 31 34 59 58 12 50 16 44 46 11 39 14 27 47 17 32 15 9 30 40 23 48 3
c order 44 54 49 50 52 20 53 19 40 8 58 1 9 4 28 41 7 36 5 18 24 55 47 13 14 3 23 34 21 15 22 10 46 57 11 43 48 37 2 29 26 45 25 42 59 33 51 30 27 17 56 32 16 12 35 39 60 31 38 6
c order 9 3 21 14 52 50 44 23 7 25 19 34 57 27 38 13 1 55 30 10 36 51 15 11 42 12 32 24 17 43 46 2 45 20 56 41 22 60 4 31 18 54 37 5 53 40 59 48 6 33 26 35 58 8 47 49 16 28 39 29
c order 42 21 15 40 32 48 44 36 18 41 1 34 56 19 2 8 10 14 55 38 20 7 5 60 49 58 16 43 51 39 59 24 53 47 50 27 12 13 4 9 28 11 17 23 45 35 46 6 57 31 30 54 29 37 25 22 3 26 52 33
c order 29 24 40 52 31 4 22 57 47 27 48 43 53 58 59 34 50 6 39 35 32 33 3 56 18 19 2 36 25 26 21 45 10 15 49 23 20 30 17 9 55 42 13 14 38 54 1 60 51 12 5 16 41 8 28 44 7 11 46 37
c order 49 5 47 21 50 9 16 25 42 3 31 23 54 52 51 11 39 14 24 48 17 18 2 55 28 27 33 13 26 44 46 35 45 56 36 41 4 22 34 7 6 43 32 19 12 57 8 10 59 53 37 60 30 29 58 20 1 38 40 15
c order 34 29 32 51 56 54 22 43 50 55 5 2 31 24 45 46 14 60 19 59 11 15 25 47 27 58 52 53 20 35 21 10 33 6 18 1 37 23 26 57 39 13 9 8 7 41 48 38 30 42 40 4 44 49 28 16 36 12 3 17
p cnf 60 219
-1 -2 0
-3 -4 0
-5 -6 0
-7 -8 0
-9 -10 0
-11 -12 0
-13 -14 0
-15 -16 0
-17 -18 0
-19 -20 0
-21 -22 0
-23 -24 0
-25 -26 0
-27 -28 0
-29 -30 0
-31 -32 0
-33 -34 0
-35 -36 0
-37 -38 0
-39 -40 0
-41 -42 0
-43 -44 0
-45 -46 0
-47 -48 0
-49 -50 0
-51 -52 0
-53 -54 0
-55 -56 0
-57 -58 0
-59 -60 0
1 2 17 18 0
-1 2 -17 18 0
1 -2 17 -18 0
1 2 23 24 0
-1 2 -23 24 0
1 -2 23 -24 0
1 2 31 32 0
-1 2 -31 32 0
1 -2 31 -32 0
1 2 35 36 0
-1 2 -35 36 0
1 -2 35 -36 0
3 4 11 12 0
-3 4 -11 12 0
3 -4 11 -12 0
3 4 41 42 0
-3 4 -41 42 0
3 -4 41 -42 0
3 4 55 56 0
-3 4 -55 56 0
3 -4 55 -56 0
3 4 57 58 0
-3 4 -57 58 0
3 -4 57 -58 0
5 6 27 28 0
-5 6 -27 28 0
5 -6 27 -28 0
5 6 43 44 0
-5 6 -43 44 0
5 -6 43 -44 0
5 6 59 60 0
-5 6 -59 60 0
5 -6 59 -60 0
7 8 9 10 0
-7 8 -9 10 0
7 -8 9 -10 0
7 8 31 32 0
-7 8 -31 32 0
7 -8 31 -32 0
7 8 37 38 0
-7 8 -37 38 0
7 -8 37 -38 0
7 8 39 40 0
-7 8 -39 40 0
7 -8 39 -40 0
7 8 45 46 0
-7 8 -45 46 0
7 -8 45 -46 0
7 8 47 48 0
-7 8 -47 48 0
7 -8 47 -48 0
7 8 49 50 0
-7 8 -49 50 0
7 -8 49 -50 0
7 8 57 58 0
-7 8 -57 58 0
7 -8 57 -58 0
9 10 15 16 0
-9 10 -15 16 0
9 -10 15 -16 0
9 10 55 56 0
-9 10 -55 56 0
9 -10 55 -56 0
9 10 57 58 0
-9 10 -57 58 0
9 -10 57 -58 0
9 10 59 60 0
-9 10 -59 60 0
9 -10 59 -60 0
11 12 13 14 0
-11 12 -13 14 0
11 -12 13 -14 0
11 12 17 18 0
-11 12 -17 18 0
11 -12 17 -18 0
11 12 19 20 0
-11 12 -19 20 0
11 -12 19 -20 0
11 12 31 32 0
-11 12 -31 32 0
11 -12 31 -32 0
11 12 33 34 0
-11 12 -33 34 0
11 -12 33 -34 0
11 12 57 58 0
-11 12 -57 58 0
11 -12 57 -58 0
13 14 15 16 0
-13 14 -15 16 0
13 -14 15 -16 0
13 14 21 22 0
-13 14 -21 22 0
13 -14 21 -22 0
15 16 35 36 0
-15 16 -35 36 0
15 -16 35 -36 0
15 16 43 44 0
-15 16 -43 44 0
15 -16 43 -44 0
15 16 49 50 0
-15 16 -49 50 0
15 -16 49 -50 0
15 16 51 52 0
-15 16 -51 52 0
15 -16 51 -52 0
19 20 29 30 0
-19 20 -29 30 0
19 -20 29 -30 0
19 20 59 60 0
-19 20 -59 60 0
19 -20 59 -60 0
21 22 23 24 0
-21 22 -23 24 0
21 -22 23 -24 0
21 22 41 42 0
-21 22 -41 42 0
21 -22 41 -42 0
21 22 43 44 0
-21 22 -43 44 0
21 -22 43 -44 0
21 22 51 52 0
-21 22 -51 52 0
21 -22 51 -52 0
23 24 35 36 0
-23 24 -35 36 0
23 -24 35 -36 0
25 26 35 36 0
-25 26 -35 36 0
25 -26 35 -36 0
25 26 37 38 0
-25 26 -37 38 0
25 -26 37 -38 0
25 26 55 56 0
-25 26 -55 56 0
25 -26 55 -56 0
27 28 33 34 0
-27 28 -33 34 0
27 -28 33 -34 0
27 28 37 38 0
-27 28 -37 38 0
27 -28 37 -38 0
27 28 39 40 0
-27 28 -39 40 0
27 -28 39 -40 0
29 30 31 32 0
-29 30 -31 32 0
29 -30 31 -32 0
29 30 59 60 0
-29 30 -59 60 0
29 -30 59 -60 0
31 32 39 40 0
-31 32 -39 40 0
31 -32 39 -40 0
33 34 51 52 0
-33 34 -51 52 0
33 -34 51 -52 0
37 38 45 46 0
-37 38 -45 46 0
37 -38 45 -46 0
37 38 47 48 0
-37 38 -47 48 0
37 -38 47 -48 0
37 38 53 54 0
-37 38 -53 54 0
37 -38 53 -54 0
37 38 59 60 0
-37 38 -59 60 0
37 -38 59 -60 0
39 40 55 56 0
-39 40 -55 56 0
39 -40 55 -56 0
43 44 49 50 0
-43 44 -49 50 0
43 -44 49 -50 0
43 44 53 54 0
-43 44 -53 54 0
43 -44 53 -54 0
45 46 49 50 0
-45 46 -49 50 0
45 -46 49 -50 0
45 46 53 54 0
-45 46 -53 54 0
45 -46 53 -54 0
47 48 53 54 0
-47 48 -53 54 0
47 -48 53 -54 0
47 48 57 58 0
-47 48 -57 58 0
47 -48 57 -58 0
