c family=3-COL n=60 instance=6 seed=145502016 models=432
c order 4 20 29 6 23 53 28 21 44 52 10 18 31 12 11 25 50 8 13 39 17 14 40 37 5 19 22 26 1 30 55 47 3 16 54 59 49 51 38 58 2 56 32 9 33 41 36 24 35 34 60 42 15 57 48 46 27 45 43 7
c order 19 31 36 18 22 23 37 39 59 6 45 15 52 28 60 54 9 20 50 16 43 30 21 41 7 11 55 25 32 38 51 8 2 24 3 34 46 27 5 4 35 26 29 44 33 12 48 40 42 49 56 14 58 10 17 13 57 53 1 47
c order 56 36 53 8 3 39 29 18 60 34 35 26 12 51 4 23 11 25 21 19 30 27 16 32 24 50 33 9 40 58 43 22 5 31 42 1 2 49 20 55 10 41 38 52 45 46 48 14 57 44 59 37 15 28 13 7 54 6 47 17
c order 50 44 47 1 8 29 41 13 39 14 53 48 46 34 12 28 52 20 5 21 26 27 42 43 10 56 31 59 7 4 33 35 32 9 58 36 49 30 45 19 3 11 25 23 37 18 38 57 40 60 6 55 54 51 16 24 22 17 2 15
c order 25 30 16 26 52 9 38 54 58 14 32 35 39 57 43 6 45 29 10 1 40 33 60 11 24 59 31 36 20 15 51 42 8 5 55 49 47 23 7 2 37 50 53 28 21 34 13 12 56 48 46 18 41 44 22 4 17 3 19 27
c order 10 59 19 22 42 55 25 16 34 24 51 14 23 49 60 17 6 31 13 3 57 46 44 12 11 29 43 15 1 32 18 36 40 35 21 8 20 45 38 2 7 50 28 27 26 47 30 4 54 58 41 37 9 56 52 33 5 48 39 53
c order 55 28 10 31 9 56 8 23 42 24 58 11 12 49 20 57 2 3 7 60 21 26 59 39 45 53 30 48 13 25 1 27 47 33 41 4 38 52 17 14 46 44 16 50 51 5 6 22 15 29 37 36 19 54 40 43 18 32 34 35
c order 14 2 39 60 18 57 3 16 41 6 27 26 54 32 34 42 25 13 7 19 21 49 46 24 59 47 58 30 48 40 51 12 55 22 9 8 53 45 50 23 4 5 36 56 20 52 33 1 43 10 35 11 37 29 28 44 17 31 38 15
c order 6 5 58 43 56 12 7 48 45 16 60 41 44 4 3 46 47 9 21 54 11 36 10 14 23 32 26 2 15 34 19 22 31 17 35 39 30 49 29 24 50 52 53 38 59 28 18 20 42 33 25 57 37 51 27 40 1 13 55 8
c order 17 1 40 18 44 49 52 6 21 22 24 15 5 35 23 29 51 42 37 54 9 20 7 32 33 36 27 53 14 10 3 60 26 28 19 16 43 59 50 55 57 41 45 30 46 56 4 2 25 12 58 47 39 38 13 11 31 8 48 34
p cnf 60 219
-1 -2 0
-3 -4 0
-5 -6 0
-7 -8 0
-9 -10 0
-11 -12 0
-13 -14 0
-15 -16 0
-17 -18 0
-19 -20 0
-21 -22 0
-23 -24 0
-25 -26 0
-27 -28 0
-29 -30 0
-31 -32 0
-33 -34 0
-35 -36 0
-37 -38 0
-39 -40 0
-41 -42 0
-43 -44 0
-45 -46 0
-47 -48 0
-49 -50 0
-51 -52 0
-53 -54 0
-55 -56 0
-57 -58 0
-59 -60 0
1 2 13 14 0
-1 2 -13 14 0
1 -2 13 -14 0
1 2 41 42 0
-1 2 -41 42 0
1 -2 41 -42 0
3 4 33 34 0
-3 4 -33 34 0
3 -4 33 -34 0
3 4 51 52 0
-3 4 -51 52 0
3 -4 51 -52 0
3 4 53 54 0
-3 4 -53 54 0
3 -4 53 -54 0
5 6 11 12 0
-5 6 -11 12 0
5 -6 11 -12 0
5 6 13 14 0
-5 6 -13 14 0
5 -6 13 -14 0
5 6 21 22 0
-5 6 -21 22 0
5 -6 21 -22 0
5 6 29 30 0
-5 6 -29 30 0
5 -6 29 -30 0
5 6 41 42 0
-5 6 -41 42 0
5 -6 41 -42 0
5 6 43 44 0
-5 6 -43 44 0
5 -6 43 -44 0
5 6 45 46 0
-5 6 -45 46 0
5 -6 45 -46 0
5 6 57 58 0
-5 6 -57 58 0
5 -6 57 -58 0
7 8 13 14 0
-7 8 -13 14 0
7 -8 13 -14 0
7 8 29 30 0
-7 8 -29 30 0
7 -8 29 -30 0
7 8 43 44 0
-7 8 -43 44 0
7 -8 43 -44 0
9 10 19 20 0
-9 10 -19 20 0
9 -10 19 -20 0
9 10 21 22 0
-9 10 -21 22 0
9 -10 21 -22 0
9 10 25 26 0
-9 10 -25 26 0
9 -10 25 -26 0
9 10 51 52 0
-9 10 -51 52 0
9 -10 51 -52 0
9 10 53 54 0
-9 10 -53 54 0
9 -10 53 -54 0
11 12 13 14 0
-11 12 -13 14 0
11 -12 13 -14 0
11 12 15 16 0
-11 12 -15 16 0
11 -12 15 -16 0
11 12 31 32 0
-11 12 -31 32 0
11 -12 31 -32 0
11 12 37 38 0
-11 12 -37 38 0
11 -12 37 -38 0
11 12 59 60 0
-11 12 -59 60 0
11 -12 59 -60 0
13 14 49 50 0
-13 14 -49 50 0
13 -14 49 -50 0
15 16 31 32 0
-15 16 -31 32 0
15 -16 31 -32 0
15 16 43 44 0
-15 16 -43 44 0
15 -16 43 -44 0
17 18 53 54 0
-17 18 -53 54 0
17 -18 53 -54 0
17 18 55 56 0
-17 18 -55 56 0
17 -18 55 -56 0
19 20 35 36 0
-19 20 -35 36 0
19 -20 35 -36 0
21 22 23 24 0
-21 22 -23 24 0
21 -22 23 -24 0
21 22 35 36 0
-21 22 -35 36 0
21 -22 35 -36 0
21 22 37 38 0
-21 22 -37 38 0
21 -22 37 -38 0
21 22 55 56 0
-21 22 -55 56 0
21 -22 55 -56 0
21 22 59 60 0
-21 22 -59 60 0
21 -22 59 -60 0
23 24 53 54 0
-23 24 -53 54 0
23 -24 53 -54 0
25 26 29 30 0
-25 26 -29 30 0
25 -26 29 -30 0
25 26 31 32 0
-25 26 -31 32 0
25 -26 31 -32 0
25 26 33 34 0
-25 26 -33 34 0
25 -26 33 -34 0
25 26 47 48 0
-25 26 -47 48 0
25 -26 47 -48 0
27 28 37 38 0
-27 28 -37 38 0
27 -28 37 -38 0
27 28 55 56 0
-27 28 -55 56 0
27 -28 55 -56 0
29 30 33 34 0
-29 30 -33 34 0
29 -30 33 -34 0
29 30 39 40 0
-29 30 -39 40 0
29 -30 39 -40 0
29 30 41 42 0
-29 30 -41 42 0
29 -30 41 -42 0
29 30 45 46 0
-29 30 -45 46 0
29 -30 45 -46 0
31 32 33 34 0
-31 32 -33 34 0
31 -32 33 -34 0
31 32 41 42 0
-31 32 -41 42 0
31 -32 41 -42 0
33 34 43 44 0
-33 34 -43 44 0
33 -34 43 -44 0
33 34 55 56 0
-33 34 -55 56 0
33 -34 55 -56 0
35 36 41 42 0
-35 36 -41 42 0
35 -36 41 -42 0
35 36 49 50 0
-35 36 -49 50 0
35 -36 49 -50 0
35 36 55 56 0
-35 36 -55 56 0
35 -36 55 -56 0
39 40 59 60 0
-39 40 -59 60 0
39 -40 59 -60 0
41 42 51 52 0
-41 42 -51 52 0
41 -42 51 -52 0
43 44 47 48 0
-43 44 -47 48 0
43 -44 47 -48 0
43 44 49 50 0
-43 44 -49 50 0
43 -44 49 -50 0
45 46 47 48 0
-45 46 -47 48 0
45 -46 47 -48 0
49 50 51 52 0
-49 50 -51 52 0
49 -50 51 -52 0
49 50 57 58 0
-49 50 -57 58 0
49 -50 57 -58 0
51 52 57 58 0
-51 52 -57 58 0
51 -52 57 -58 0
