c family=3-COL n=60 instance=9 seed=145502016 models=168
c order 51 10 25 21 46 2 14 39 30 19 29 57 15 31 1 33 34 32 7 47 24 9 52 48 58 8 22 54 55 23 20 18 38 4 49 17 37 5 35 50 43 41 59 26 28 13 40 3 12 11 60 6 16 44 36 27 56 42 45 53
c order 20 56 28 41 14 55 19 42 54 24 53 34 47 51 58 6 32 16 21 18 5 15 12 11 10 36 4 7 49 25 48 2 1 60 57 38 8 50 44 22 29 59 9 40 39 52 46 13 37 3 45 33 31 35 26 27 30 17 43 23
c order 26 17 28 32 50 23 21 10 54 19 11 20 14 45 52 25 9 13 1 56 16 59 60 5 8 39 47 30 3 34 57 6 7 38 40 58 42 2 33 15 51 37 44 35 31 55 29 53 43 24 4 22 49 36 48 41 18 46 27 12
c order 36 43 55 2 42 51 27 14 29 6 15 50 46 60 32 54 57 47 23 1 49 9 10 17 48 24 21 19 59 40 30 45 25 52 16 7 38 5 31 53 13 58 39 28 18 3 22 33 35 20 56 26 44 12 41 11 37 4 34 8
c order 11 16 7 60 39 25 27 18 49 51 58 24 56 33 44 4 14 12 19 52 30 3 50 38 42 45 23 35 1 28 5 57 37 20 29 40 59 54 32 26 21 8 15 9 36 41 46 53 17 22 48 55 2 10 31 13 43 6 34 47
c order 9 56 51 55 13 24 20 21 30 60 5 45 34 25 10 4 38 57 26 15 47 22 8 19 7 28 23 54 29 35 42 53 1 27 18 39 49 44 41 2 33 11 36 16 43 32 46 12 58 14 50 6 52 48 17 3 37 40 59 31
c order 6 47 34 7 1 51 36 41 25 29 35 46 38 19 55 49 12 60 4 30 11 28 42 57 26 54 45 27 32 33 3 43 23 15 31 52 58 5 39 14 17 9 53 50 48 56 10 2 22 24 16 40 21 8 20 37 44 13 18 59
c order 52 47 53 51 22 12 56 27 16 2 59 36 19 9 4 33 11 48 20 30 34 32 49 25 13 42 23 15 17 38 28 41 46 55 1 60 45 50 18 24 40 37 39 14 8 10 44 57 3 7 21 26 29 54 31 6 58 35 5 43
c order 39 16 34 59 25 18 40 60 1 44 4 56 22 17 42 21 26 29 20 50 37 49 7 30 13 57 51 46 23 54 55 35 19 41 32 8 58 3 31 11 52 10 28 38 24 47 53 33 45 14 48 5 6 15 12 9 36 43 2 27
c order 57 41 35 60 29 31 26 48 37 55 59 38 47 42 7 9 6 21 2 15 8 56 25 34 50 49 4 39 54 28 23 5 3 1 11 17 43 40 19 52 18 14 16 12 46 32 58 27 22 45 36 10 51 30 24 33 53 44 13 20
p cnf 60 219
-1 -2 0
-3 -4 0
-5 -6 0
-7 -8 0
-9 -10 0
-11 -12 0
-13 -14 0
-15 -16 0
-17 -18 0
-19 -20 0
-21 -22 0
-23 -24 0
-25 -26 0
-27 -28 0
-29 -30 0
-31 -32 0
-33 -34 0
-35 -36 0
-37 -38 0
-39 -40 0
-41 -42 0
-43 -44 0
-45 -46 0
-47 -48 0
-49 -50 0
-51 -52 0
-53 -54 0
-55 -56 0
-57 -58 0
-59 -60 0
1 2 43 44 0
-1 2 -43 44 0
1 -2 43 -44 0
1 2 45 46 0
-1 2 -45 46 0
1 -2 45 -46 0
1 2 51 52 0
-1 2 -51 52 0
1 -2 51 -52 0
1 2 57 58 0
-1 2 -57 58 0
1 -2 57 -58 0
3 4 5 6 0
-3 4 -5 6 0
3 -4 5 -6 0
3 4 23 24 0
-3 4 -23 24 0
3 -4 23 -24 0
3 4 37 38 0
-3 4 -37 38 0
3 -4 37 -38 0
3 4 57 58 0
-3 4 -57 58 0
3 -4 57 -58 0
5 6 47 48 0
-5 6 -47 48 0
5 -6 47 -48 0
7 8 23 24 0
-7 8 -23 24 0
7 -8 23 -24 0
7 8 41 42 0
-7 8 -41 42 0
7 -8 41 -42 0
7 8 47 48 0
-7 8 -47 48 0
7 -8 47 -48 0
7 8 55 56 0
-7 8 -55 56 0
7 -8 55 -56 0
7 8 57 58 0
-7 8 -57 58 0
7 -8 57 -58 0
9 10 27 28 0
-9 10 -27 28 0
9 -10 27 -28 0
11 12 27 28 0
-11 12 -27 28 0
11 -12 27 -28 0
11 12 29 30 0
-11 12 -29 30 0
11 -12 29 -30 0
11 12 37 38 0
-11 12 -37 38 0
11 -12 37 -38 0
11 12 59 60 0
-11 12 -59 60 0
11 -12 59 -60 0
13 14 49 50 0
-13 14 -49 50 0
13 -14 49 -50 0
13 14 51 52 0
-13 14 -51 52 0
13 -14 51 -52 0
15 16 27 28 0
-15 16 -27 28 0
15 -16 27 -28 0
15 16 31 32 0
-15 16 -31 32 0
15 -16 31 -32 0
15 16 33 34 0
-15 16 -33 34 0
15 -16 33 -34 0
15 16 35 36 0
-15 16 -35 36 0
15 -16 35 -36 0
15 16 45 46 0
-15 16 -45 46 0
15 -16 45 -46 0
17 18 49 50 0
-17 18 -49 50 0
17 -18 49 -50 0
17 18 53 54 0
-17 18 -53 54 0
17 -18 53 -54 0
19 20 25 26 0
-19 20 -25 26 0
19 -20 25 -26 0
19 20 53 54 0
-19 20 -53 54 0
19 -20 53 -54 0
19 20 57 58 0
-19 20 -57 58 0
19 -20 57 -58 0
21 22 27 28 0
-21 22 -27 28 0
21 -22 27 -28 0
21 22 35 36 0
-21 22 -35 36 0
21 -22 35 -36 0
21 22 41 42 0
-21 22 -41 42 0
21 -22 41 -42 0
21 22 55 56 0
-21 22 -55 56 0
21 -22 55 -56 0
21 22 59 60 0
-21 22 -59 60 0
21 -22 59 -60 0
23 24 29 30 0
-23 24 -29 30 0
23 -24 29 -30 0
23 24 33 34 0
-23 24 -33 34 0
23 -24 33 -34 0
23 24 47 48 0
-23 24 -47 48 0
23 -24 47 -48 0
25 26 39 40 0
-25 26 -39 40 0
25 -26 39 -40 0
25 26 41 42 0
-25 26 -41 42 0
25 -26 41 -42 0
25 26 51 52 0
-25 26 -51 52 0
25 -26 51 -52 0
25 26 59 60 0
-25 26 -59 60 0
25 -26 59 -60 0
27 28 31 32 0
-27 28 -31 32 0
27 -28 31 -32 0
27 28 33 34 0
-27 28 -33 34 0
27 -28 33 -34 0
27 28 49 50 0
-27 28 -49 50 0
27 -28 49 -50 0
29 30 43 44 0
-29 30 -43 44 0
29 -30 43 -44 0
33 34 35 36 0
-33 34 -35 36 0
33 -34 35 -36 0
33 34 47 48 0
-33 34 -47 48 0
33 -34 47 -48 0
33 34 55 56 0
-33 34 -55 56 0
33 -34 55 -56 0
35 36 41 42 0
-35 36 -41 42 0
35 -36 41 -42 0
37 38 47 48 0
-37 38 -47 48 0
37 -38 47 -48 0
39 40 45 46 0
-39 40 -45 46 0
39 -40 45 -46 0
39 40 57 58 0
-39 40 -57 58 0
39 -40 57 -58 0
41 42 47 48 0
-41 42 -47 48 0
41 -42 47 -48 0
43 44 47 48 0
-43 44 -47 48 0
43 -44 47 -48 0
43 44 49 50 0
-43 44 -49 50 0
43 -44 49 -50 0
45 46 49 50 0
-45 46 -49 50 0
45 -46 49 -50 0
45 46 57 58 0
-45 46 -57 58 0
45 -46 57 -58 0
45 46 59 60 0
-45 46 -59 60 0
45 -46 59 -60 0
47 48 55 56 0
-47 48 -55 56 0
47 -48 55 -56 0
49 50 59 60 0
-49 50 -59 60 0
49 -50 59 -60 0
51 52 53 54 0
-51 52 -53 54 0
51 -52 53 -54 0
