c family=3-COL n=60 instance=0 seed=145502016 models=672
c order 47 13 45 38 57 5 53 50 49 32 48 6 58 39 16 46 29 3 18 7 41 27 51 37 17 2 34 28 4 24 52 14 1 60 40 9 21 8 54 12 31 42 20 43 25 23 35 10 11 33 15 19 55 36 26 22 44 56 59 30
c order 27 34 29 40 6 38 22 60 56 19 46 45 10 8 4 15 23 20 18 5 31 54 17 33 30 25 44 35 55 47 13 43 16 50 48 21 3 26 57 7 58 2 24 59 32 36 53 1 39 37 12 51 49 11 52 28 42 9 41 14
c order 60 44 47 12 31 52 20 50 9 32 8 55 39 19 10 34 45 17 1 43 41 18 56 3 40 11 38 42 58 24 36 57 53 22 5 29 30 4 7 37 26 49 48 23 25 27 54 51 2 16 59 33 46 35 13 6 15 21 28 14
c order 58 41 9 44 10 38 6 19 14 4 53 39 36 23 25 33 45 26 18 60 20 32 51 11 2 54 12 31 52 30 49 47 46 42 21 17 50 40 16 56 24 57 37 13 27 5 48 35 55 1 22 3 15 43 7 8 28 59 29 34
c order 50 23 48 51 17 54 34 60 13 7 45 29 41 52 43 10 27 1 32 22 11 47 25 30 14 44 58 46 5 4 49 19 28 31 12 56 26 24 21 20 16 59 36 6 35 9 55 2 40 53 57 38 42 33 15 37 39 18 8 3
c order 26 43 27 14 34 41 29 22 1 7 10 44 30 51 6 38 42 49 20 5 40 23 3 8 58 39 60 11 25 2 33 16 36 46 35 32 59 21 12 31 28 18 17 9 55 15 56 4 37 47 45 52 50 48 19 57 13 53 54 24
c order 11 26 50 38 8 47 45 16 30 19 49 41 35 42 46 10 5 37 58 44 17 25 52 59 34 56 1 24 12 2 4 20 31 48 28 33 7 3 53 51 39 6 55 15 18 29 60 27 40 32 36 54 22 14 57 9 21 13 23 43
c order 27 35 2 25 39 30 45 15 5 44 24 6 59 7 23 36 20 43 34 49 53 31 33 54 12 1 26 47 46 22 17 41 3 4 60 50 9 51 11 57 8 48 40 19 10 29 56 32 16 38 37 58 14 42 13 55 52 28 18 21
c order 25 56 15 45 6 58 31 22 20 35 54 13 19 39 9 27 55 17 14 48 3 18 59 8 32 36 38 2 7 23 41 34 29 53 49 46 21 52 24 30 1 5 47 60 4 50 26 12 11 28 10 37 33 51 42 40 44 16 57 43
c order 36 13 10 46 4 25 31 60 54 12 52 22 58 7 49 1 27 37 9 33 38 15 32 51 19 43 16 8 59 11 34 39 30 18 48 14 17 26 50 56 28 55 6 20 53 24 5 47 29 3 2 41 35 45 57 23 42 40 44 21
p cnf 60 219
-1 -2 0
-3 -4 0
-5 -6 0
-7 -8 0
-9 -10 0
-11 -12 0
-13 -14 0
-15 -16 0
-17 -18 0
-19 -20 0
-21 -22 0
-23 -24 0
-25 -26 0
-27 -28 0
-29 -30 0
-31 -32 0
-33 -34 0
-35 -36 0
-37 -38 0
-39 -40 0
-41 -42 0
-43 -44 0
-45 -46 0
-47 -48 0
-49 -50 0
-51 -52 0
-53 -54 0
-55 -56 0
-57 -58 0
-59 -60 0
1 2 23 24 0
-1 2 -23 24 0
1 -2 23 -24 0
1 2 25 26 0
-1 2 -25 26 0
1 -2 25 -26 0
1 2 31 32 0
-1 2 -31 32 0
1 -2 31 -32 0
1 2 39 40 0
-1 2 -39 40 0
1 -2 39 -40 0
1 2 53 54 0
-1 2 -53 54 0
1 -2 53 -54 0
3 4 7 8 0
-3 4 -7 8 0
3 -4 7 -8 0
3 4 9 10 0
-3 4 -9 10 0
3 -4 9 -10 0
3 4 35 36 0
-3 4 -35 36 0
3 -4 35 -36 0
5 6 9 10 0
-5 6 -9 10 0
5 -6 9 -10 0
5 6 21 22 0
-5 6 -21 22 0
5 -6 21 -22 0
5 6 25 26 0
-5 6 -25 26 0
5 -6 25 -26 0
5 6 43 44 0
-5 6 -43 44 0
5 -6 43 -44 0
5 6 47 48 0
-5 6 -47 48 0
5 -6 47 -48 0
7 8 21 22 0
-7 8 -21 22 0
7 -8 21 -22 0
7 8 27 28 0
-7 8 -27 28 0
7 -8 27 -28 0
7 8 47 48 0
-7 8 -47 48 0
7 -8 47 -48 0
7 8 55 56 0
-7 8 -55 56 0
7 -8 55 -56 0
9 10 17 18 0
-9 10 -17 18 0
9 -10 17 -18 0
9 10 39 40 0
-9 10 -39 40 0
9 -10 39 -40 0
9 10 45 46 0
-9 10 -45 46 0
9 -10 45 -46 0
11 12 19 20 0
-11 12 -19 20 0
11 -12 19 -20 0
11 12 43 44 0
-11 12 -43 44 0
11 -12 43 -44 0
11 12 59 60 0
-11 12 -59 60 0
11 -12 59 -60 0
13 14 17 18 0
-13 14 -17 18 0
13 -14 17 -18 0
13 14 21 22 0
-13 14 -21 22 0
13 -14 21 -22 0
13 14 49 50 0
-13 14 -49 50 0
13 -14 49 -50 0
13 14 59 60 0
-13 14 -59 60 0
13 -14 59 -60 0
15 16 17 18 0
-15 16 -17 18 0
15 -16 17 -18 0
15 16 25 26 0
-15 16 -25 26 0
15 -16 25 -26 0
15 16 35 36 0
-15 16 -35 36 0
15 -16 35 -36 0
15 16 37 38 0
-15 16 -37 38 0
15 -16 37 -38 0
15 16 49 50 0
-15 16 -49 50 0
15 -16 49 -50 0
15 16 51 52 0
-15 16 -51 52 0
15 -16 51 -52 0
17 18 41 42 0
-17 18 -41 42 0
17 -18 41 -42 0
17 18 43 44 0
-17 18 -43 44 0
17 -18 43 -44 0
19 20 55 56 0
-19 20 -55 56 0
19 -20 55 -56 0
21 22 29 30 0
-21 22 -29 30 0
21 -22 29 -30 0
21 22 39 40 0
-21 22 -39 40 0
21 -22 39 -40 0
23 24 29 30 0
-23 24 -29 30 0
23 -24 29 -30 0
23 24 43 44 0
-23 24 -43 44 0
23 -24 43 -44 0
23 24 55 56 0
-23 24 -55 56 0
23 -24 55 -56 0
25 26 49 50 0
-25 26 -49 50 0
25 -26 49 -50 0
25 26 59 60 0
-25 26 -59 60 0
25 -26 59 -60 0
27 28 41 42 0
-27 28 -41 42 0
27 -28 41 -42 0
27 28 43 44 0
-27 28 -43 44 0
27 -28 43 -44 0
27 28 55 56 0
-27 28 -55 56 0
27 -28 55 -56 0
29 30 51 52 0
-29 30 -51 52 0
29 -30 51 -52 0
31 32 49 50 0
-31 32 -49 50 0
31 -32 49 -50 0
31 32 53 54 0
-31 32 -53 54 0
31 -32 53 -54 0
33 34 45 46 0
-33 34 -45 46 0
33 -34 45 -46 0
33 34 51 52 0
-33 34 -51 52 0
33 -34 51 -52 0
35 36 39 40 0
-35 36 -39 40 0
35 -36 39 -40 0
35 36 41 42 0
-35 36 -41 42 0
35 -36 41 -42 0
37 38 39 40 0
-37 38 -39 40 0
37 -38 39 -40 0
39 40 43 44 0
-39 40 -43 44 0
39 -40 43 -44 0
39 40 45 46 0
-39 40 -45 46 0
39 -40 45 -46 0
41 42 43 44 0
-41 42 -43 44 0
41 -42 43 -44 0
43 44 45 46 0
-43 44 -45 46 0
43 -44 45 -46 0
43 44 47 48 0
-43 44 -47 48 0
43 -44 47 -48 0
45 46 49 50 0
-45 46 -49 50 0
45 -46 49 -50 0
47 48 53 54 0
-47 48 -53 54 0
47 -48 53 -54 0
51 52 57 58 0
-51 52 -57 58 0
51 -52 57 -58 0
53 54 55 56 0
-53 54 -55 56 0
53 -54 55 -56 0
