c family=3-COL n=60 instance=8 seed=145502016 models=1206
c order 35 4 37 59 27 25 12 20 14 56 2 57 55 9 47 3 43 51 60 45 26 52 58 33 41 5 16 39 32 13 6 50 17 53 30 23 7 29 38 34 40 44 42 22 54 48 8 24 31 10 21 49 15 18 19 28 1 36 46 11
c order 57 24 40 22 60 49 33 46 54 59 50 38 43 29 20 51 31 9 16 23 8 47 19 56 14 10 42 55 39 13 45 12 53 32 5 28 34 41 7 36 15 37 17 25 58 26 27 11 6 3 44 21 18 30 1 48 52 35 4 2
c order 9 20 25 19 59 8 37 7 1 47 46 5 11 57 23 17 24 56 13 16 48 12 54 29 42 21 31 34 3 18 28 10 35 60 55 51 41 33 38 50 40 14 45 39 27 26 32 43 52 44 49 22 2 15 53 36 4 58 6 30
c order 19 34 5 12 45 48 22 13 41 39 58 27 52 18 26 20 46 1 37 31 15 7 38 24 55 8 60 11 25 9 23 40 16 50 56 32 42 49 47 51 4 30 2 29 28 57 14 59 3 33 53 54 17 21 10 35 43 36 6 44
c order 12 14 45 4 46 30 38 54 16 56 9 48 42 49 41 36 2 32 1 57 37 11 59 60 18 33 3 20 34 22 21 19 35 55 43 44 58 27 13 31 6 39 26 7 23 52 40 17 5 53 28 25 8 15 29 24 50 47 51 10
c order 47 58 20 59 42 3 50 55 40 25 14 46 9 48 35 51 38 28 18 13 56 10 34 45 1 60 7 41 29 15 49 22 53 27 24 36 23 16 33 6 32 37 17 43 21 5 4 30 44 8 12 57 2 26 52 39 54 19 31 11
c order 6 25 24 49 46 57 41 21 35 18 8 34 19 32 15 16 40 39 27 22 51 36 53 38 44 59 33 29 31 1 58 28 47 13 60 55 17 4 30 52 7 20 10 9 3 50 48 42 2 23 56 43 45 5 54 12 26 11 14 37
c order 29 37 54 18 6 33 55 44 9 5 14 19 39 22 47 7 40 51 16 34 28 57 53 10 15 48 30 23 38 3 35 31 56 50 24 26 25 11 49 58 42 21 32 41 1 2 20 60 52 27 36 4 12 8 17 45 46 43 13 59
c order 13 48 58 33 19 47 34 45 28 16 46 31 27 37 7 6 14 59 20 12 42 26 1 23 39 43 29 41 36 56 18 50 35 21 25 17 10 57 54 49 52 44 32 2 51 11 4 38 53 15 9 24 60 40 5 3 8 30 55 22
c order 17 30 33 36 44 18 22 26 12 13 46 6 4 16 31 37 52 54 51 25 1 42 11 39 59 58 38 29 19 45 10 28 14 49 41 23 53 40 9 43 60 57 47 7 35 48 55 34 2 3 56 27 24 15 21 20 50 32 5 8
p cnf 60 219
-1 -2 0
-3 -4 0
-5 -6 0
-7 -8 0
-9 -10 0
-11 -12 0
-13 -14 0
-15 -16 0
-17 -18 0
-19 -20 0
-21 -22 0
-23 -24 0
-25 -26 0
-27 -28 0
-29 -30 0
-31 -32 0
-33 -34 0
-35 -36 0
-37 -38 0
-39 -40 0
-41 -42 0
-43 -44 0
-45 -46 0
-47 -48 0
-49 -50 0
-51 -52 0
-53 -54 0
-55 -56 0
-57 -58 0
-59 -60 0
1 2 7 8 0
-1 2 -7 8 0
1 -2 7 -8 0
1 2 17 18 0
-1 2 -17 18 0
1 -2 17 -18 0
1 2 57 58 0
-1 2 -57 58 0
1 -2 57 -58 0
3 4 19 20 0
-3 4 -19 20 0
3 -4 19 -20 0
3 4 23 24 0
-3 4 -23 24 0
3 -4 23 -24 0
3 4 33 34 0
-3 4 -33 34 0
3 -4 33 -34 0
3 4 37 38 0
-3 4 -37 38 0
3 -4 37 -38 0
3 4 39 40 0
-3 4 -39 40 0
3 -4 39 -40 0
5 6 9 10 0
-5 6 -9 10 0
5 -6 9 -10 0
5 6 15 16 0
-5 6 -15 16 0
5 -6 15 -16 0
5 6 19 20 0
-5 6 -19 20 0
5 -6 19 -20 0
5 6 27 28 0
-5 6 -27 28 0
5 -6 27 -28 0
5 6 41 42 0
-5 6 -41 42 0
5 -6 41 -42 0
5 6 49 50 0
-5 6 -49 50 0
5 -6 49 -50 0
5 6 53 54 0
-5 6 -53 54 0
5 -6 53 -54 0
7 8 47 48 0
-7 8 -47 48 0
7 -8 47 -48 0
7 8 55 56 0
-7 8 -55 56 0
7 -8 55 -56 0
9 10 23 24 0
-9 10 -23 24 0
9 -10 23 -24 0
9 10 55 56 0
-9 10 -55 56 0
9 -10 55 -56 0
11 12 29 30 0
-11 12 -29 30 0
11 -12 29 -30 0
11 12 39 40 0
-11 12 -39 40 0
11 -12 39 -40 0
11 12 47 48 0
-11 12 -47 48 0
11 -12 47 -48 0
13 14 15 16 0
-13 14 -15 16 0
13 -14 15 -16 0
13 14 25 26 0
-13 14 -25 26 0
13 -14 25 -26 0
13 14 53 54 0
-13 14 -53 54 0
13 -14 53 -54 0
15 16 17 18 0
-15 16 -17 18 0
15 -16 17 -18 0
15 16 51 52 0
-15 16 -51 52 0
15 -16 51 -52 0
15 16 55 56 0
-15 16 -55 56 0
15 -16 55 -56 0
17 18 21 22 0
-17 18 -21 22 0
17 -18 21 -22 0
17 18 29 30 0
-17 18 -29 30 0
17 -18 29 -30 0
17 18 55 56 0
-17 18 -55 56 0
17 -18 55 -56 0
19 20 55 56 0
-19 20 -55 56 0
19 -20 55 -56 0
21 22 39 40 0
-21 22 -39 40 0
21 -22 39 -40 0
21 22 47 48 0
-21 22 -47 48 0
21 -22 47 -48 0
23 24 29 30 0
-23 24 -29 30 0
23 -24 29 -30 0
23 24 47 48 0
-23 24 -47 48 0
23 -24 47 -48 0
23 24 53 54 0
-23 24 -53 54 0
23 -24 53 -54 0
23 24 57 58 0
-23 24 -57 58 0
23 -24 57 -58 0
25 26 57 58 0
-25 26 -57 58 0
25 -26 57 -58 0
27 28 35 36 0
-27 28 -35 36 0
27 -28 35 -36 0
27 28 45 46 0
-27 28 -45 46 0
27 -28 45 -46 0
29 30 35 36 0
-29 30 -35 36 0
29 -30 35 -36 0
29 30 39 40 0
-29 30 -39 40 0
29 -30 39 -40 0
29 30 55 56 0
-29 30 -55 56 0
29 -30 55 -56 0
29 30 57 58 0
-29 30 -57 58 0
29 -30 57 -58 0
31 32 39 40 0
-31 32 -39 40 0
31 -32 39 -40 0
31 32 49 50 0
-31 32 -49 50 0
31 -32 49 -50 0
33 34 39 40 0
-33 34 -39 40 0
33 -34 39 -40 0
33 34 59 60 0
-33 34 -59 60 0
33 -34 59 -60 0
35 36 47 48 0
-35 36 -47 48 0
35 -36 47 -48 0
35 36 53 54 0
-35 36 -53 54 0
35 -36 53 -54 0
35 36 59 60 0
-35 36 -59 60 0
35 -36 59 -60 0
37 38 41 42 0
-37 38 -41 42 0
37 -38 41 -42 0
37 38 47 48 0
-37 38 -47 48 0
37 -38 47 -48 0
39 40 45 46 0
-39 40 -45 46 0
39 -40 45 -46 0
39 40 59 60 0
-39 40 -59 60 0
39 -40 59 -60 0
41 42 55 56 0
-41 42 -55 56 0
41 -42 55 -56 0
43 44 51 52 0
-43 44 -51 52 0
43 -44 51 -52 0
43 44 57 58 0
-43 44 -57 58 0
43 -44 57 -58 0
45 46 49 50 0
-45 46 -49 50 0
45 -46 49 -50 0
45 46 55 56 0
-45 46 -55 56 0
45 -46 55 -56 0
47 48 59 60 0
-47 48 -59 60 0
47 -48 59 -60 0
49 50 55 56 0
-49 50 -55 56 0
49 -50 55 -56 0
