c family=3-COL n=70 instance=5 seed=145502016 models=1308
c order 42 61 36 28 6 7 49 23 15 4 70 58 40 37 16 21 19 67 41 32 69 35 14 12 59 13 52 25 22 27 8 17 10 64 33 38 39 68 45 29 20 46 50 66 1 54 30 3 60 34 48 11 55 9 62 56 2 47 65 44 31 63 51 53 43 57 26 24 5 18
c order 7 23 60 47 37 50 52 10 29 11 42 38 4 3 1 53 2 48 22 5 56 33 14 62 45 44 12 27 15 55 31 43 64 18 39 46 49 57 36 54 34 16 41 6 28 9 61 68 67 58 25 63 13 65 51 26 69 40 32 30 17 70 20 8 66 59 21 24 19 35
c order 31 5 9 45 30 67 61 53 38 44 11 35 47 60 23 14 58 27 51 28 13 2 70 6 7 41 29 68 54 66 22 59 62 25 8 52 50 42 46 18 37 39 32 20 65 34 17 55 63 36 33 56 49 64 19 48 24 15 57 40 43 3 16 4 69 21 26 1 12 10
c order 47 13 31 64 27 58 17 40 55 39 6 38 49 18 68 12 67 61 52 50 4 11 16 56 41 70 43 60 8 26 65 36 25 42 30 32 69 21 33 22 44 53 2 23 59 7 37 14 20 46 9 28 54 19 24 34 51 66 5 29 3 35 15 10 62 1 48 63 57 45
c order 33 5 50 66 15 32 10 2 52 12 22 3 20 19 38 44 13 53 17 26 42 68 46 11 57 25 4 65 16 60 40 63 59 7 36 43 67 51 41 47 49 37 56 39 48 70 35 1 31 27 21 29 6 28 34 30 14 8 24 61 54 18 58 64 9 23 62 45 69 55
c order 38 20 48 24 27 16 55 36 21 39 23 63 56 44 26 52 45 10 5 64 53 6 60 34 15 17 3 28 35 59 7 18 69 22 40 65 12 61 19 4 31 66 47 14 54 13 33 46 49 32 9 1 30 43 37 2 70 25 57 41 42 68 8 50 67 11 29 51 58 62
c order 45 14 10 70 52 15 50 54 43 28 37 61 21 35 13 5 48 24 57 63 41 40 53 56 34 12 20 22 51 68 66 1 62 23 2 17 6 39 58 42 11 19 32 18 46 60 69 31 4 44 7 67 29 59 26 38 16 3 64 8 30 27 36 49 9 33 55 47 65 25
c order 68 8 31 4 17 21 57 2 20 26 47 3 37 35 53 25 42 15 14 32 65 6 67 51 50 70 52 59 46 10 69 22 11 61 12 49 56 5 23 19 24 1 30 16 62 13 43 28 36 48 58 45 39 60 33 38 64 44 29 27 7 41 18 63 34 40 9 55 66 54
c order 41 33 23 25 38 24 27 42 66 44 13 65 54 7 64 67 29 47 16 58 9 63 51 56 8 30 22 46 60 2 43 11 40 17 28 20 1 4 21 35 31 15 26 59 61 6 55 52 45 37 49 36 10 3 68 5 70 14 19 62 18 57 53 39 34 48 50 69 12 32
c order 39 57 6 41 61 3 29 20 26 10 51 43 9 47 14 28 52 45 46 22 18 44 38 7 8 36 59 4 48 70 12 25 33 65 23 1 30 27 21 34 24 37 53 13 58 16 40 2 55 35 56 67 54 5 42 62 19 15 63 31 60 50 68 49 11 17 69 66 64 32
p cnf 70 257
-1 -2 0
-3 -4 0
-5 -6 0
-7 -8 0
-9 -10 0
-11 -12 0
-13 -14 0
-15 -16 0
-17 -18 0
-19 -20 0
-21 -22 0
-23 -24 0
-25 -26 0
-27 -28 0
-29 -30 0
-31 -32 0
-33 -34 0
-35 -36 0
-37 -38 0
-39 -40 0
-41 -42 0
-43 -44 0
-45 -46 0
-47 -48 0
-49 -50 0
-51 -52 0
-53 -54 0
-55 -56 0
-57 -58 0
-59 -60 0
-61 -62 0
-63 -64 0
-65 -66 0
-67 -68 0
-69 -70 0
1 2 3 4 0
-1 2 -3 4 0
1 -2 3 -4 0
1 2 11 12 0
-1 2 -11 12 0
1 -2 11 -12 0
1 2 17 18 0
-1 2 -17 18 0
1 -2 17 -18 0
1 2 29 30 0
-1 2 -29 30 0
1 -2 29 -30 0
1 2 31 32 0
-1 2 -31 32 0
1 -2 31 -32 0
1 2 35 36 0
-1 2 -35 36 0
1 -2 35 -36 0
1 2 59 60 0
-1 2 -59 60 0
1 -2 59 -60 0
3 4 13 14 0
-3 4 -13 14 0
3 -4 13 -14 0
3 4 23 24 0
-3 4 -23 24 0
3 -4 23 -24 0
3 4 35 36 0
-3 4 -35 36 0
3 -4 35 -36 0
3 4 49 50 0
-3 4 -49 50 0
3 -4 49 -50 0
3 4 59 60 0
-3 4 -59 60 0
3 -4 59 -60 0
5 6 41 42 0
-5 6 -41 42 0
5 -6 41 -42 0
5 6 53 54 0
-5 6 -53 54 0
5 -6 53 -54 0
7 8 9 10 0
-7 8 -9 10 0
7 -8 9 -10 0
7 8 13 14 0
-7 8 -13 14 0
7 -8 13 -14 0
7 8 21 22 0
-7 8 -21 22 0
7 -8 21 -22 0
7 8 35 36 0
-7 8 -35 36 0
7 -8 35 -36 0
7 8 65 66 0
-7 8 -65 66 0
7 -8 65 -66 0
9 10 21 22 0
-9 10 -21 22 0
9 -10 21 -22 0
9 10 47 48 0
-9 10 -47 48 0
9 -10 47 -48 0
9 10 61 62 0
-9 10 -61 62 0
9 -10 61 -62 0
9 10 63 64 0
-9 10 -63 64 0
9 -10 63 -64 0
13 14 39 40 0
-13 14 -39 40 0
13 -14 39 -40 0
13 14 47 48 0
-13 14 -47 48 0
13 -14 47 -48 0
13 14 51 52 0
-13 14 -51 52 0
13 -14 51 -52 0
15 16 39 40 0
-15 16 -39 40 0
15 -16 39 -40 0
15 16 61 62 0
-15 16 -61 62 0
15 -16 61 -62 0
17 18 43 44 0
-17 18 -43 44 0
17 -18 43 -44 0
17 18 49 50 0
-17 18 -49 50 0
17 -18 49 -50 0
19 20 31 32 0
-19 20 -31 32 0
19 -20 31 -32 0
19 20 41 42 0
-19 20 -41 42 0
19 -20 41 -42 0
19 20 43 44 0
-19 20 -43 44 0
19 -20 43 -44 0
19 20 65 66 0
-19 20 -65 66 0
19 -20 65 -66 0
19 20 67 68 0
-19 20 -67 68 0
19 -20 67 -68 0
21 22 35 36 0
-21 22 -35 36 0
21 -22 35 -36 0
21 22 39 40 0
-21 22 -39 40 0
21 -22 39 -40 0
21 22 53 54 0
-21 22 -53 54 0
21 -22 53 -54 0
23 24 27 28 0
-23 24 -27 28 0
23 -24 27 -28 0
23 24 35 36 0
-23 24 -35 36 0
23 -24 35 -36 0
23 24 59 60 0
-23 24 -59 60 0
23 -24 59 -60 0
25 26 33 34 0
-25 26 -33 34 0
25 -26 33 -34 0
25 26 47 48 0
-25 26 -47 48 0
25 -26 47 -48 0
25 26 61 62 0
-25 26 -61 62 0
25 -26 61 -62 0
27 28 35 36 0
-27 28 -35 36 0
27 -28 35 -36 0
27 28 51 52 0
-27 28 -51 52 0
27 -28 51 -52 0
29 30 53 54 0
-29 30 -53 54 0
29 -30 53 -54 0
31 32 33 34 0
-31 32 -33 34 0
31 -32 33 -34 0
31 32 53 54 0
-31 32 -53 54 0
31 -32 53 -54 0
31 32 57 58 0
-31 32 -57 58 0
31 -32 57 -58 0
31 32 61 62 0
-31 32 -61 62 0
31 -32 61 -62 0
31 32 63 64 0
-31 32 -63 64 0
31 -32 63 -64 0
33 34 45 46 0
-33 34 -45 46 0
33 -34 45 -46 0
33 34 51 52 0
-33 34 -51 52 0
33 -34 51 -52 0
33 34 59 60 0
-33 34 -59 60 0
33 -34 59 -60 0
33 34 69 70 0
-33 34 -69 70 0
33 -34 69 -70 0
35 36 55 56 0
-35 36 -55 56 0
35 -36 55 -56 0
35 36 63 64 0
-35 36 -63 64 0
35 -36 63 -64 0
35 36 69 70 0
-35 36 -69 70 0
35 -36 69 -70 0
37 38 55 56 0
-37 38 -55 56 0
37 -38 55 -56 0
37 38 57 58 0
-37 38 -57 58 0
37 -38 57 -58 0
39 40 43 44 0
-39 40 -43 44 0
39 -40 43 -44 0
39 40 57 58 0
-39 40 -57 58 0
39 -40 57 -58 0
39 40 63 64 0
-39 40 -63 64 0
39 -40 63 -64 0
41 42 47 48 0
-41 42 -47 48 0
41 -42 47 -48 0
43 44 49 50 0
-43 44 -49 50 0
43 -44 49 -50 0
43 44 69 70 0
-43 44 -69 70 0
43 -44 69 -70 0
45 46 69 70 0
-45 46 -69 70 0
45 -46 69 -70 0
49 50 53 54 0
-49 50 -53 54 0
49 -50 53 -54 0
51 52 55 56 0
-51 52 -55 56 0
51 -52 55 -56 0
51 52 57 58 0
-51 52 -57 58 0
51 -52 57 -58 0
55 56 63 64 0
-55 56 -63 64 0
55 -56 63 -64 0
55 56 67 68 0
-55 56 -67 68 0
55 -56 67 -68 0
61 62 69 70 0
-61 62 -69 70 0
61 -62 69 -70 0
