c family=3-COL n=70 instance=4 seed=145502016 models=432
c order 5 32 27 61 51 19 26 65 17 36 16 68 49 15 31 45 22 25 54 55 59 62 39 42 23 58 8 46 21 2 57 24 11 4 6 20 47 50 33 10 28 37 53 43 3 1 41 12 64 30 66 13 52 48 7 29 69 18 34 70 14 63 67 38 60 56 35 44 9 40
c order 50 67 60 54 14 7 47 30 19 70 38 32 41 12 56 4 58 36 40 37 16 52 21 13 11 49 69 22 26 44 3 33 62 51 64 57 10 2 5 61 17 59 53 35 15 28 46 66 25 63 29 42 8 55 48 6 9 65 18 43 39 68 31 20 45 1 34 27 24 23
c order 48 60 2 37 68 11 40 67 51 14 4 30 64 23 46 10 49 19 38 50 36 1 34 47 32 7 66 21 65 18 44 55 20 5 26 45 22 15 59 31 6 58 33 16 35 29 12 54 69 3 17 70 28 63 27 8 61 41 62 39 24 53 52 13 57 25 43 56 9 42
c order 19 53 31 16 52 69 33 37 24 38 57 13 1 20 45 29 9 2 15 18 30 55 3 67 68 6 28 39 70 58 56 54 8 7 4 41 63 36 66 48 43 17 32 62 11 40 64 42 26 49 44 59 14 23 51 27 34 12 60 50 22 35 61 21 5 65 47 25 10 46
c order 47 2 44 61 4 6 37 27 3 7 17 30 63 58 10 31 42 22 32 43 53 5 60 26 11 65 52 33 48 59 20 66 35 34 36 69 38 54 51 67 19 29 21 70 41 15 14 39 1 46 68 57 16 62 28 40 18 64 8 25 49 56 23 55 50 13 24 12 9 45
c order 4 8 54 55 61 18 26 31 12 66 51 17 22 68 20 47 58 65 38 5 34 24 1 52 48 56 23 49 41 60 40 16 7 53 21 27 13 44 33 3 14 11 36 59 45 43 57 2 28 62 9 64 30 67 10 35 25 46 70 15 39 37 42 32 6 69 63 19 29 50
c order 48 22 51 19 30 39 64 10 5 60 15 70 29 9 4 35 21 36 7 68 44 52 12 38 18 34 11 58 6 31 62 56 54 50 27 8 16 13 32 53 67 33 25 46 28 57 37 23 65 55 49 47 17 26 61 3 63 14 1 24 40 69 43 59 2 42 20 45 41 66
c order 29 30 39 34 45 18 52 23 20 66 7 19 40 57 31 12 70 41 44 46 33 15 21 27 64 36 3 11 58 26 35 60 16 2 24 62 8 37 59 1 51 61 47 10 14 49 22 5 63 6 43 67 56 69 17 55 28 54 4 68 65 38 9 53 42 50 32 13 25 48
c order 56 49 17 42 61 1 12 28 36 29 32 59 48 14 63 53 66 5 30 8 19 43 33 47 27 45 68 2 6 20 23 34 21 11 54 52 3 55 22 41 60 24 38 50 4 58 10 40 44 39 69 67 18 25 26 7 46 57 37 62 31 16 65 15 9 13 70 35 64 51
c order 15 26 10 27 32 64 46 69 33 43 62 65 9 29 56 68 51 34 63 25 50 57 23 67 6 5 59 35 45 61 1 21 12 49 24 40 70 13 14 31 41 66 58 11 36 28 30 44 20 8 60 42 2 37 52 48 54 16 38 39 4 19 17 53 18 7 3 55 22 47
p cnf 70 257
-1 -2 0
-3 -4 0
-5 -6 0
-7 -8 0
-9 -10 0
-11 -12 0
-13 -14 0
-15 -16 0
-17 -18 0
-19 -20 0
-21 -22 0
-23 -24 0
-25 -26 0
-27 -28 0
-29 -30 0
-31 -32 0
-33 -34 0
-35 -36 0
-37 -38 0
-39 -40 0
-41 -42 0
-43 -44 0
-45 -46 0
-47 -48 0
-49 -50 0
-51 -52 0
-53 -54 0
-55 -56 0
-57 -58 0
-59 -60 0
-61 -62 0
-63 -64 0
-65 -66 0
-67 -68 0
-69 -70 0
1 2 9 10 0
-1 2 -9 10 0
1 -2 9 -10 0
1 2 29 30 0
-1 2 -29 30 0
1 -2 29 -30 0
1 2 57 58 0
-1 2 -57 58 0
1 -2 57 -58 0
3 4 25 26 0
-3 4 -25 26 0
3 -4 25 -26 0
3 4 31 32 0
-3 4 -31 32 0
3 -4 31 -32 0
3 4 37 38 0
-3 4 -37 38 0
3 -4 37 -38 0
5 6 7 8 0
-5 6 -7 8 0
5 -6 7 -8 0
5 6 59 60 0
-5 6 -59 60 0
5 -6 59 -60 0
7 8 9 10 0
-7 8 -9 10 0
7 -8 9 -10 0
7 8 13 14 0
-7 8 -13 14 0
7 -8 13 -14 0
7 8 17 18 0
-7 8 -17 18 0
7 -8 17 -18 0
7 8 29 30 0
-7 8 -29 30 0
7 -8 29 -30 0
7 8 49 50 0
-7 8 -49 50 0
7 -8 49 -50 0
7 8 53 54 0
-7 8 -53 54 0
7 -8 53 -54 0
9 10 51 52 0
-9 10 -51 52 0
9 -10 51 -52 0
9 10 61 62 0
-9 10 -61 62 0
9 -10 61 -62 0
9 10 65 66 0
-9 10 -65 66 0
9 -10 65 -66 0
11 12 23 24 0
-11 12 -23 24 0
11 -12 23 -24 0
11 12 31 32 0
-11 12 -31 32 0
11 -12 31 -32 0
13 14 15 16 0
-13 14 -15 16 0
13 -14 15 -16 0
13 14 19 20 0
-13 14 -19 20 0
13 -14 19 -20 0
13 14 43 44 0
-13 14 -43 44 0
13 -14 43 -44 0
13 14 55 56 0
-13 14 -55 56 0
13 -14 55 -56 0
13 14 69 70 0
-13 14 -69 70 0
13 -14 69 -70 0
15 16 17 18 0
-15 16 -17 18 0
15 -16 17 -18 0
15 16 31 32 0
-15 16 -31 32 0
15 -16 31 -32 0
15 16 33 34 0
-15 16 -33 34 0
15 -16 33 -34 0
15 16 51 52 0
-15 16 -51 52 0
15 -16 51 -52 0
17 18 39 40 0
-17 18 -39 40 0
17 -18 39 -40 0
17 18 51 52 0
-17 18 -51 52 0
17 -18 51 -52 0
17 18 57 58 0
-17 18 -57 58 0
17 -18 57 -58 0
19 20 37 38 0
-19 20 -37 38 0
19 -20 37 -38 0
19 20 53 54 0
-19 20 -53 54 0
19 -20 53 -54 0
19 20 59 60 0
-19 20 -59 60 0
19 -20 59 -60 0
21 22 33 34 0
-21 22 -33 34 0
21 -22 33 -34 0
21 22 51 52 0
-21 22 -51 52 0
21 -22 51 -52 0
21 22 53 54 0
-21 22 -53 54 0
21 -22 53 -54 0
21 22 59 60 0
-21 22 -59 60 0
21 -22 59 -60 0
21 22 67 68 0
-21 22 -67 68 0
21 -22 67 -68 0
23 24 29 30 0
-23 24 -29 30 0
23 -24 29 -30 0
23 24 37 38 0
-23 24 -37 38 0
23 -24 37 -38 0
23 24 39 40 0
-23 24 -39 40 0
23 -24 39 -40 0
23 24 41 42 0
-23 24 -41 42 0
23 -24 41 -42 0
23 24 47 48 0
-23 24 -47 48 0
23 -24 47 -48 0
23 24 51 52 0
-23 24 -51 52 0
23 -24 51 -52 0
23 24 53 54 0
-23 24 -53 54 0
23 -24 53 -54 0
25 26 37 38 0
-25 26 -37 38 0
25 -26 37 -38 0
25 26 55 56 0
-25 26 -55 56 0
25 -26 55 -56 0
25 26 61 62 0
-25 26 -61 62 0
25 -26 61 -62 0
25 26 65 66 0
-25 26 -65 66 0
25 -26 65 -66 0
27 28 55 56 0
-27 28 -55 56 0
27 -28 55 -56 0
27 28 57 58 0
-27 28 -57 58 0
27 -28 57 -58 0
27 28 61 62 0
-27 28 -61 62 0
27 -28 61 -62 0
27 28 63 64 0
-27 28 -63 64 0
27 -28 63 -64 0
29 30 47 48 0
-29 30 -47 48 0
29 -30 47 -48 0
29 30 57 58 0
-29 30 -57 58 0
29 -30 57 -58 0
29 30 63 64 0
-29 30 -63 64 0
29 -30 63 -64 0
31 32 67 68 0
-31 32 -67 68 0
31 -32 67 -68 0
31 32 69 70 0
-31 32 -69 70 0
31 -32 69 -70 0
35 36 59 60 0
-35 36 -59 60 0
35 -36 59 -60 0
39 40 47 48 0
-39 40 -47 48 0
39 -40 47 -48 0
39 40 55 56 0
-39 40 -55 56 0
39 -40 55 -56 0
39 40 63 64 0
-39 40 -63 64 0
39 -40 63 -64 0
41 42 47 48 0
-41 42 -47 48 0
41 -42 47 -48 0
41 42 55 56 0
-41 42 -55 56 0
41 -42 55 -56 0
41 42 63 64 0
-41 42 -63 64 0
41 -42 63 -64 0
43 44 47 48 0
-43 44 -47 48 0
43 -44 47 -48 0
43 44 63 64 0
-43 44 -63 64 0
43 -44 63 -64 0
49 50 55 56 0
-49 50 -55 56 0
49 -50 55 -56 0
51 52 67 68 0
-51 52 -67 68 0
51 -52 67 -68 0
53 54 55 56 0
-53 54 -55 56 0
53 -54 55 -56 0
55 56 59 60 0
-55 56 -59 60 0
55 -56 59 -60 0
59 60 65 66 0
-59 60 -65 66 0
59 -60 65 -66 0
61 62 69 70 0
-61 62 -69 70 0
61 -62 69 -70 0
