c family=3-COL n=70 instance=9 seed=145502016 models=1344
c order 66 64 45 27 30 67 69 47 8 19 4 13 7 10 20 51 61 26 65 6 46 41 21 49 1 70 39 17 25 24 15 48 5 22 38 9 57 50 42 31 32 56 11 35 33 2 37 28 55 34 36 44 68 23 43 63 58 3 52 40 16 54 62 14 59 29 53 12 18 60
c order 37 5 60 13 27 39 52 6 34 59 25 28 42 58 19 17 70 46 31 3 56 16 36 4 1 33 8 7 9 66 48 55 63 53 45 38 41 24 20 62 23 21 69 49 67 43 51 64 22 11 44 32 2 30 29 54 47 18 68 35 26 57 15 12 40 14 61 10 65 50
c order 41 33 23 45 3 60 53 20 34 36 24 1 8 62 40 10 68 39 61 69 52 6 7 31 19 51 64 14 54 59 29 58 12 43 46 4 9 30 49 42 66 16 57 44 11 48 67 22 65 35 5 70 56 55 26 50 13 28 38 15 63 32 27 18 47 21 25 17 2 37
c order 51 69 50 29 19 7 70 38 40 10 25 41 16 3 13 47 30 60 55 21 43 6 9 64 42 34 65 12 61 45 33 8 14 18 54 15 32 68 37 49 35 17 27 63 57 5 58 53 4 24 23 52 44 62 22 26 11 59 2 46 28 56 31 1 36 20 66 39 48 67
c order 34 19 33 60 12 68 56 15 48 30 50 51 4 31 55 21 43 5 66 40 8 53 63 26 47 10 37 35 29 2 38 22 62 46 23 9 27 3 45 6 20 52 54 36 13 28 7 41 16 49 39 25 44 64 65 57 18 14 59 24 32 11 58 70 42 61 67 1 69 17
c order 54 21 44 17 38 40 35 45 7 31 39 4 63 18 62 36 65 25 1 59 55 52 16 64 69 9 3 27 30 28 49 34 67 14 41 13 66 20 57 8 53 19 32 68 23 50 60 56 12 51 2 70 61 26 11 29 24 42 6 47 22 46 15 58 33 43 5 10 37 48
c order 32 22 6 28 12 48 27 30 51 21 26 63 67 14 57 36 70 33 11 68 64 29 15 44 59 38 10 35 56 66 69 54 1 20 8 16 47 50 18 46 40 5 60 24 19 53 43 45 3 4 58 65 62 39 34 37 9 61 17 42 49 7 31 2 41 55 23 25 13 52
c order 12 6 27 58 8 62 18 29 19 25 68 31 38 20 59 22 1 40 9 10 24 56 48 16 70 26 67 57 66 2 17 3 36 39 7 43 41 30 47 28 34 54 51 44 32 33 60 55 37 21 42 35 11 63 61 4 49 50 53 23 5 46 52 64 45 13 15 14 65 69
c order 29 10 65 18 49 37 41 45 53 48 15 67 52 13 22 12 21 11 43 56 26 14 47 62 51 32 30 68 17 6 42 63 8 3 57 34 39 20 31 69 44 16 55 24 54 38 2 59 25 9 1 40 60 50 46 27 64 58 66 35 4 70 7 28 19 61 5 23 33 36
c order 34 18 33 55 7 62 66 43 46 30 5 64 31 35 22 57 25 12 70 38 68 10 50 32 2 21 8 19 42 13 44 69 11 20 1 9 40 37 48 6 54 59 36 28 15 53 27 49 4 47 41 16 24 60 63 17 14 61 52 3 51 23 65 56 26 45 67 58 29 39
p cnf 70 257
-1 -2 0
-3 -4 0
-5 -6 0
-7 -8 0
-9 -10 0
-11 -12 0
-13 -14 0
-15 -16 0
-17 -18 0
-19 -20 0
-21 -22 0
-23 -24 0
-25 -26 0
-27 -28 0
-29 -30 0
-31 -32 0
-33 -34 0
-35 -36 0
-37 -38 0
-39 -40 0
-41 -42 0
-43 -44 0
-45 -46 0
-47 -48 0
-49 -50 0
-51 -52 0
-53 -54 0
-55 -56 0
-57 -58 0
-59 -60 0
-61 -62 0
-63 -64 0
-65 -66 0
-67 -68 0
-69 -70 0
1 2 21 22 0
-1 2 -21 22 0
1 -2 21 -22 0
1 2 25 26 0
-1 2 -25 26 0
1 -2 25 -26 0
1 2 35 36 0
-1 2 -35 36 0
1 -2 35 -36 0
1 2 43 44 0
-1 2 -43 44 0
1 -2 43 -44 0
1 2 63 64 0
-1 2 -63 64 0
1 -2 63 -64 0
1 2 65 66 0
-1 2 -65 66 0
1 -2 65 -66 0
3 4 7 8 0
-3 4 -7 8 0
3 -4 7 -8 0
3 4 11 12 0
-3 4 -11 12 0
3 -4 11 -12 0
3 4 31 32 0
-3 4 -31 32 0
3 -4 31 -32 0
5 6 13 14 0
-5 6 -13 14 0
5 -6 13 -14 0
5 6 59 60 0
-5 6 -59 60 0
5 -6 59 -60 0
5 6 65 66 0
-5 6 -65 66 0
5 -6 65 -66 0
7 8 27 28 0
-7 8 -27 28 0
7 -8 27 -28 0
7 8 37 38 0
-7 8 -37 38 0
7 -8 37 -38 0
7 8 43 44 0
-7 8 -43 44 0
7 -8 43 -44 0
7 8 53 54 0
-7 8 -53 54 0
7 -8 53 -54 0
9 10 25 26 0
-9 10 -25 26 0
9 -10 25 -26 0
9 10 35 36 0
-9 10 -35 36 0
9 -10 35 -36 0
9 10 55 56 0
-9 10 -55 56 0
9 -10 55 -56 0
11 12 51 52 0
-11 12 -51 52 0
11 -12 51 -52 0
13 14 19 20 0
-13 14 -19 20 0
13 -14 19 -20 0
13 14 31 32 0
-13 14 -31 32 0
13 -14 31 -32 0
13 14 35 36 0
-13 14 -35 36 0
13 -14 35 -36 0
13 14 41 42 0
-13 14 -41 42 0
13 -14 41 -42 0
13 14 43 44 0
-13 14 -43 44 0
13 -14 43 -44 0
13 14 47 48 0
-13 14 -47 48 0
13 -14 47 -48 0
15 16 17 18 0
-15 16 -17 18 0
15 -16 17 -18 0
15 16 19 20 0
-15 16 -19 20 0
15 -16 19 -20 0
15 16 47 48 0
-15 16 -47 48 0
15 -16 47 -48 0
15 16 51 52 0
-15 16 -51 52 0
15 -16 51 -52 0
15 16 57 58 0
-15 16 -57 58 0
15 -16 57 -58 0
17 18 47 48 0
-17 18 -47 48 0
17 -18 47 -48 0
17 18 49 50 0
-17 18 -49 50 0
17 -18 49 -50 0
19 20 29 30 0
-19 20 -29 30 0
19 -20 29 -30 0
19 20 39 40 0
-19 20 -39 40 0
19 -20 39 -40 0
19 20 47 48 0
-19 20 -47 48 0
19 -20 47 -48 0
19 20 51 52 0
-19 20 -51 52 0
19 -20 51 -52 0
19 20 53 54 0
-19 20 -53 54 0
19 -20 53 -54 0
19 20 55 56 0
-19 20 -55 56 0
19 -20 55 -56 0
21 22 29 30 0
-21 22 -29 30 0
21 -22 29 -30 0
21 22 51 52 0
-21 22 -51 52 0
21 -22 51 -52 0
21 22 53 54 0
-21 22 -53 54 0
21 -22 53 -54 0
21 22 69 70 0
-21 22 -69 70 0
21 -22 69 -70 0
23 24 45 46 0
-23 24 -45 46 0
23 -24 45 -46 0
23 24 47 48 0
-23 24 -47 48 0
23 -24 47 -48 0
25 26 37 38 0
-25 26 -37 38 0
25 -26 37 -38 0
27 28 29 30 0
-27 28 -29 30 0
27 -28 29 -30 0
27 28 39 40 0
-27 28 -39 40 0
27 -28 39 -40 0
27 28 53 54 0
-27 28 -53 54 0
27 -28 53 -54 0
27 28 65 66 0
-27 28 -65 66 0
27 -28 65 -66 0
29 30 63 64 0
-29 30 -63 64 0
29 -30 63 -64 0
31 32 39 40 0
-31 32 -39 40 0
31 -32 39 -40 0
31 32 49 50 0
-31 32 -49 50 0
31 -32 49 -50 0
31 32 57 58 0
-31 32 -57 58 0
31 -32 57 -58 0
31 32 65 66 0
-31 32 -65 66 0
31 -32 65 -66 0
33 34 51 52 0
-33 34 -51 52 0
33 -34 51 -52 0
37 38 45 46 0
-37 38 -45 46 0
37 -38 45 -46 0
37 38 63 64 0
-37 38 -63 64 0
37 -38 63 -64 0
37 38 67 68 0
-37 38 -67 68 0
37 -38 67 -68 0
39 40 49 50 0
-39 40 -49 50 0
39 -40 49 -50 0
41 42 61 62 0
-41 42 -61 62 0
41 -42 61 -62 0
43 44 57 58 0
-43 44 -57 58 0
43 -44 57 -58 0
45 46 53 54 0
-45 46 -53 54 0
45 -46 53 -54 0
45 46 57 58 0
-45 46 -57 58 0
45 -46 57 -58 0
45 46 63 64 0
-45 46 -63 64 0
45 -46 63 -64 0
45 46 65 66 0
-45 46 -65 66 0
45 -46 65 -66 0
45 46 67 68 0
-45 46 -67 68 0
45 -46 67 -68 0
49 50 65 66 0
-49 50 -65 66 0
49 -50 65 -66 0
49 50 67 68 0
-49 50 -67 68 0
49 -50 67 -68 0
51 52 59 60 0
-51 52 -59 60 0
51 -52 59 -60 0
53 54 55 56 0
-53 54 -55 56 0
53 -54 55 -56 0
55 56 57 58 0
-55 56 -57 58 0
55 -56 57 -58 0
57 58 59 60 0
-57 58 -59 60 0
57 -58 59 -60 0
59 60 63 64 0
-59 60 -63 64 0
59 -60 63 -64 0
