c family=3-COL n=70 instance=7 seed=145502016 models=3300
c order 26 38 2 22 41 10 47 8 46 28 62 14 56 52 34 70 23 66 13 40 55 60 1 59 54 35 44 16 18 5 11 29 39 50 67 49 4 19 24 69 12 63 36 33 61 53 58 6 65 32 51 17 42 48 27 3 57 21 15 31 7 64 43 25 68 45 9 20 30 37
c order 24 46 67 64 61 60 37 47 36 17 5 13 22 27 50 53 42 1 40 2 41 21 9 31 48 56 30 16 19 4 28 52 51 49 11 6 59 35 18 14 33 55 63 23 69 34 62 7 54 8 44 25 65 20 12 32 15 66 43 38 39 26 58 29 10 45 57 68 3 70
c order 52 70 68 44 54 15 22 40 4 31 61 59 5 35 43 58 60 17 37 36 6 66 26 45 11 16 7 28 18 9 69 64 32 63 57 14 24 41 51 13 30 19 65 46 34 23 38 47 62 39 10 55 3 49 29 25 27 12 20 56 50 42 53 33 2 8 48 67 1 21
c order 51 19 32 11 37 21 36 31 17 1 20 6 9 18 40 28 42 69 52 60 45 33 50 26 39 41 64 7 44 2 8 49 63 54 61 12 53 34 48 23 10 16 24 58 59 29 5 3 27 14 35 30 46 38 62 15 4 65 55 57 56 67 13 68 22 70 43 47 25 66
c order 20 17 38 36 7 29 59 33 32 51 4 57 52 68 13 21 5 55 10 25 26 62 70 24 14 37 35 3 8 54 23 56 42 34 16 31 50 53 64 65 2 27 49 22 63 15 45 47 12 40 18 6 9 48 19 44 66 1 46 58 39 67 41 30 69 28 60 11 61 43
c order 15 41 67 32 31 48 46 63 11 26 53 70 35 51 65 27 38 62 54 69 22 6 16 29 21 24 43 45 44 60 28 59 30 14 9 34 25 36 42 49 68 3 10 56 61 47 64 66 50 17 8 33 52 1 13 20 23 39 4 55 19 2 7 57 58 40 5 12 18 37
c order 34 49 57 41 51 63 52 23 10 26 59 58 67 69 20 55 29 65 68 46 66 17 21 30 54 8 16 11 56 27 53 6 24 15 50 64 1 3 38 39 19 40 35 33 14 37 43 31 32 2 47 18 60 13 28 25 4 48 12 70 36 7 62 44 5 22 9 61 45 42
c order 13 27 14 70 32 43 21 47 19 24 8 6 36 33 68 31 56 44 2 28 69 55 3 59 64 48 40 38 62 16 22 42 12 23 11 39 58 60 30 10 66 1 7 52 18 4 15 54 49 34 9 63 61 45 65 17 46 41 67 37 57 35 51 53 26 29 20 25 5 50
c order 28 5 69 65 27 18 51 39 42 53 54 22 40 52 56 31 63 20 7 60 70 44 49 3 59 58 43 13 36 47 24 17 21 48 57 29 30 11 2 55 14 37 15 35 45 62 19 6 1 38 64 12 10 67 32 33 4 26 8 25 9 66 16 61 34 23 41 46 68 50
c order 21 5 6 59 49 37 16 56 47 23 1 40 38 68 52 57 35 33 43 17 64 26 62 39 12 42 69 20 41 34 58 30 9 31 22 67 3 48 66 46 53 15 65 14 45 11 55 60 29 32 25 18 44 61 28 19 7 27 4 2 36 24 13 63 8 54 51 50 10 70
p cnf 70 257
-1 -2 0
-3 -4 0
-5 -6 0
-7 -8 0
-9 -10 0
-11 -12 0
-13 -14 0
-15 -16 0
-17 -18 0
-19 -20 0
-21 -22 0
-23 -24 0
-25 -26 0
-27 -28 0
-29 -30 0
-31 -32 0
-33 -34 0
-35 -36 0
-37 -38 0
-39 -40 0
-41 -42 0
-43 -44 0
-45 -46 0
-47 -48 0
-49 -50 0
-51 -52 0
-53 -54 0
-55 -56 0
-57 -58 0
-59 -60 0
-61 -62 0
-63 -64 0
-65 -66 0
-67 -68 0
-69 -70 0
1 2 21 22 0
-1 2 -21 22 0
1 -2 21 -22 0
1 2 29 30 0
-1 2 -29 30 0
1 -2 29 -30 0
1 2 39 40 0
-1 2 -39 40 0
1 -2 39 -40 0
1 2 51 52 0
-1 2 -51 52 0
1 -2 51 -52 0
3 4 9 10 0
-3 4 -9 10 0
3 -4 9 -10 0
3 4 21 22 0
-3 4 -21 22 0
3 -4 21 -22 0
3 4 33 34 0
-3 4 -33 34 0
3 -4 33 -34 0
5 6 21 22 0
-5 6 -21 22 0
5 -6 21 -22 0
5 6 27 28 0
-5 6 -27 28 0
5 -6 27 -28 0
5 6 51 52 0
-5 6 -51 52 0
5 -6 51 -52 0
5 6 69 70 0
-5 6 -69 70 0
5 -6 69 -70 0
7 8 15 16 0
-7 8 -15 16 0
7 -8 15 -16 0
7 8 23 24 0
-7 8 -23 24 0
7 -8 23 -24 0
7 8 51 52 0
-7 8 -51 52 0
7 -8 51 -52 0
7 8 59 60 0
-7 8 -59 60 0
7 -8 59 -60 0
7 8 67 68 0
-7 8 -67 68 0
7 -8 67 -68 0
7 8 69 70 0
-7 8 -69 70 0
7 -8 69 -70 0
9 10 25 26 0
-9 10 -25 26 0
9 -10 25 -26 0
9 10 29 30 0
-9 10 -29 30 0
9 -10 29 -30 0
9 10 31 32 0
-9 10 -31 32 0
9 -10 31 -32 0
9 10 35 36 0
-9 10 -35 36 0
9 -10 35 -36 0
9 10 63 64 0
-9 10 -63 64 0
9 -10 63 -64 0
11 12 13 14 0
-11 12 -13 14 0
11 -12 13 -14 0
11 12 17 18 0
-11 12 -17 18 0
11 -12 17 -18 0
11 12 19 20 0
-11 12 -19 20 0
11 -12 19 -20 0
11 12 37 38 0
-11 12 -37 38 0
11 -12 37 -38 0
11 12 53 54 0
-11 12 -53 54 0
11 -12 53 -54 0
13 14 41 42 0
-13 14 -41 42 0
13 -14 41 -42 0
13 14 55 56 0
-13 14 -55 56 0
13 -14 55 -56 0
13 14 59 60 0
-13 14 -59 60 0
13 -14 59 -60 0
15 16 17 18 0
-15 16 -17 18 0
15 -16 17 -18 0
15 16 37 38 0
-15 16 -37 38 0
15 -16 37 -38 0
15 16 43 44 0
-15 16 -43 44 0
15 -16 43 -44 0
15 16 67 68 0
-15 16 -67 68 0
15 -16 67 -68 0
17 18 27 28 0
-17 18 -27 28 0
17 -18 27 -28 0
17 18 35 36 0
-17 18 -35 36 0
17 -18 35 -36 0
17 18 41 42 0
-17 18 -41 42 0
17 -18 41 -42 0
17 18 63 64 0
-17 18 -63 64 0
17 -18 63 -64 0
19 20 35 36 0
-19 20 -35 36 0
19 -20 35 -36 0
19 20 63 64 0
-19 20 -63 64 0
19 -20 63 -64 0
19 20 65 66 0
-19 20 -65 66 0
19 -20 65 -66 0
19 20 69 70 0
-19 20 -69 70 0
19 -20 69 -70 0
21 22 27 28 0
-21 22 -27 28 0
21 -22 27 -28 0
21 22 33 34 0
-21 22 -33 34 0
21 -22 33 -34 0
21 22 41 42 0
-21 22 -41 42 0
21 -22 41 -42 0
23 24 25 26 0
-23 24 -25 26 0
23 -24 25 -26 0
23 24 33 34 0
-23 24 -33 34 0
23 -24 33 -34 0
23 24 51 52 0
-23 24 -51 52 0
23 -24 51 -52 0
23 24 63 64 0
-23 24 -63 64 0
23 -24 63 -64 0
25 26 39 40 0
-25 26 -39 40 0
25 -26 39 -40 0
25 26 69 70 0
-25 26 -69 70 0
25 -26 69 -70 0
27 28 39 40 0
-27 28 -39 40 0
27 -28 39 -40 0
27 28 45 46 0
-27 28 -45 46 0
27 -28 45 -46 0
29 30 47 48 0
-29 30 -47 48 0
29 -30 47 -48 0
31 32 59 60 0
-31 32 -59 60 0
31 -32 59 -60 0
33 34 43 44 0
-33 34 -43 44 0
33 -34 43 -44 0
35 36 43 44 0
-35 36 -43 44 0
35 -36 43 -44 0
35 36 65 66 0
-35 36 -65 66 0
35 -36 65 -66 0
37 38 39 40 0
-37 38 -39 40 0
37 -38 39 -40 0
37 38 47 48 0
-37 38 -47 48 0
37 -38 47 -48 0
37 38 59 60 0
-37 38 -59 60 0
37 -38 59 -60 0
43 44 57 58 0
-43 44 -57 58 0
43 -44 57 -58 0
43 44 61 62 0
-43 44 -61 62 0
43 -44 61 -62 0
43 44 63 64 0
-43 44 -63 64 0
43 -44 63 -64 0
45 46 49 50 0
-45 46 -49 50 0
45 -46 49 -50 0
47 48 61 62 0
-47 48 -61 62 0
47 -48 61 -62 0
47 48 63 64 0
-47 48 -63 64 0
47 -48 63 -64 0
49 50 67 68 0
-49 50 -67 68 0
49 -50 67 -68 0
51 52 65 66 0
-51 52 -65 66 0
51 -52 65 -66 0
55 56 57 58 0
-55 56 -57 58 0
55 -56 57 -58 0
55 56 59 60 0
-55 56 -59 60 0
55 -56 59 -60 0
55 56 69 70 0
-55 56 -69 70 0
55 -56 69 -70 0
57 58 59 60 0
-57 58 -59 60 0
57 -58 59 -60 0
61 62 65 66 0
-61 62 -65 66 0
61 -62 65 -66 0
