c family=3-COL n=70 instance=3 seed=145502016 models=108
c order 11 63 15 4 61 53 21 36 2 41 20 24 23 22 69 12 45 58 66 40 33 6 44 32 65 28 18 59 49 31 52 10 17 54 48 51 60 14 42 26 19 70 57 37 39 8 13 38 3 30 55 27 67 47 43 50 5 25 7 1 64 34 9 46 29 62 68 56 16 35
c order 16 64 14 42 19 48 70 2 12 31 65 36 66 53 46 35 37 52 68 59 11 62 57 4 61 10 58 8 43 9 7 21 15 51 5 26 30 50 34 33 28 40 6 32 13 63 24 47 3 60 39 55 54 69 22 67 29 17 44 23 41 18 56 38 27 49 25 45 20 1
c order 9 49 17 56 45 42 44 43 61 48 11 16 27 15 13 5 66 28 47 58 63 51 52 4 8 2 60 69 39 3 68 53 65 70 10 41 35 55 54 26 64 32 21 50 46 14 37 20 6 12 34 36 29 31 25 23 62 19 18 67 1 22 57 30 24 59 38 40 33 7
c order 52 58 14 18 40 66 46 43 17 3 38 25 44 48 49 22 12 45 8 10 62 27 51 26 65 23 35 69 7 2 64 41 39 16 42 19 31 6 1 20 67 5 56 70 59 29 33 55 54 50 60 36 21 32 15 24 30 47 4 63 28 37 61 34 57 53 9 13 11 68
c order 43 24 55 11 12 69 59 9 31 2 17 29 1 6 51 54 15 10 32 8 18 30 37 70 60 52 28 44 61 58 63 23 41 62 39 40 22 64 38 36 50 25 20 42 7 4 56 67 47 16 5 48 13 34 14 35 53 26 33 65 27 57 49 3 19 21 66 45 68 46
c order 53 21 8 28 65 35 47 5 55 1 27 33 38 17 3 18 44 60 31 15 24 62 2 7 42 59 32 69 13 46 45 10 56 30 51 49 63 50 36 29 40 61 48 64 14 37 57 34 39 23 66 43 26 67 70 54 25 4 19 52 16 12 22 9 68 20 41 58 11 6
c order 29 50 41 42 1 55 2 59 28 10 30 51 70 31 53 38 52 49 27 69 16 22 11 5 47 39 43 14 34 23 8 32 24 26 44 15 7 67 56 45 54 66 3 9 6 20 68 17 21 60 37 58 48 65 18 12 40 35 13 64 19 61 57 63 36 62 33 4 25 46
c order 67 23 7 33 2 36 39 40 5 47 11 1 51 20 61 50 18 70 9 27 37 46 6 28 43 35 48 16 41 24 65 58 25 44 15 60 30 42 31 12 29 62 56 64 53 8 49 69 54 55 10 38 19 22 45 66 17 52 34 21 3 68 32 14 4 57 13 63 59 26
c order 28 68 40 46 11 53 36 32 61 22 34 38 7 25 44 55 1 63 47 60 42 12 31 13 62 45 69 67 56 48 9 23 39 33 50 3 59 35 41 5 29 17 49 19 30 16 65 70 51 57 54 26 14 20 52 4 37 21 18 58 10 15 43 8 2 6 24 64 27 66
c order 62 6 32 61 58 20 9 54 29 1 7 4 16 24 48 38 66 26 22 55 8 70 11 65 42 33 49 31 41 30 68 44 10 18 5 57 3 39 2 59 25 63 40 45 34 12 14 52 56 19 28 21 36 46 50 13 60 23 53 43 51 27 69 64 47 67 15 37 35 17
p cnf 70 257
-1 -2 0
-3 -4 0
-5 -6 0
-7 -8 0
-9 -10 0
-11 -12 0
-13 -14 0
-15 -16 0
-17 -18 0
-19 -20 0
-21 -22 0
-23 -24 0
-25 -26 0
-27 -28 0
-29 -30 0
-31 -32 0
-33 -34 0
-35 -36 0
-37 -38 0
-39 -40 0
-41 -42 0
-43 -44 0
-45 -46 0
-47 -48 0
-49 -50 0
-51 -52 0
-53 -54 0
-55 -56 0
-57 -58 0
-59 -60 0
-61 -62 0
-63 -64 0
-65 -66 0
-67 -68 0
-69 -70 0
1 2 23 24 0
-1 2 -23 24 0
1 -2 23 -24 0
1 2 35 36 0
-1 2 -35 36 0
1 -2 35 -36 0
1 2 41 42 0
-1 2 -41 42 0
1 -2 41 -42 0
1 2 47 48 0
-1 2 -47 48 0
1 -2 47 -48 0
1 2 65 66 0
-1 2 -65 66 0
1 -2 65 -66 0
3 4 11 12 0
-3 4 -11 12 0
3 -4 11 -12 0
3 4 13 14 0
-3 4 -13 14 0
3 -4 13 -14 0
3 4 19 20 0
-3 4 -19 20 0
3 -4 19 -20 0
3 4 67 68 0
-3 4 -67 68 0
3 -4 67 -68 0
5 6 17 18 0
-5 6 -17 18 0
5 -6 17 -18 0
5 6 25 26 0
-5 6 -25 26 0
5 -6 25 -26 0
5 6 27 28 0
-5 6 -27 28 0
5 -6 27 -28 0
5 6 33 34 0
-5 6 -33 34 0
5 -6 33 -34 0
5 6 59 60 0
-5 6 -59 60 0
5 -6 59 -60 0
7 8 51 52 0
-7 8 -51 52 0
7 -8 51 -52 0
7 8 57 58 0
-7 8 -57 58 0
7 -8 57 -58 0
7 8 61 62 0
-7 8 -61 62 0
7 -8 61 -62 0
9 10 13 14 0
-9 10 -13 14 0
9 -10 13 -14 0
9 10 19 20 0
-9 10 -19 20 0
9 -10 19 -20 0
9 10 61 62 0
-9 10 -61 62 0
9 -10 61 -62 0
9 10 65 66 0
-9 10 -65 66 0
9 -10 65 -66 0
9 10 69 70 0
-9 10 -69 70 0
9 -10 69 -70 0
11 12 29 30 0
-11 12 -29 30 0
11 -12 29 -30 0
11 12 33 34 0
-11 12 -33 34 0
11 -12 33 -34 0
11 12 37 38 0
-11 12 -37 38 0
11 -12 37 -38 0
11 12 43 44 0
-11 12 -43 44 0
11 -12 43 -44 0
11 12 53 54 0
-11 12 -53 54 0
11 -12 53 -54 0
13 14 35 36 0
-13 14 -35 36 0
13 -14 35 -36 0
13 14 41 42 0
-13 14 -41 42 0
13 -14 41 -42 0
15 16 21 22 0
-15 16 -21 22 0
15 -16 21 -22 0
15 16 33 34 0
-15 16 -33 34 0
15 -16 33 -34 0
15 16 39 40 0
-15 16 -39 40 0
15 -16 39 -40 0
15 16 59 60 0
-15 16 -59 60 0
15 -16 59 -60 0
17 18 25 26 0
-17 18 -25 26 0
17 -18 25 -26 0
17 18 41 42 0
-17 18 -41 42 0
17 -18 41 -42 0
17 18 43 44 0
-17 18 -43 44 0
17 -18 43 -44 0
17 18 49 50 0
-17 18 -49 50 0
17 -18 49 -50 0
19 20 27 28 0
-19 20 -27 28 0
19 -20 27 -28 0
19 20 53 54 0
-19 20 -53 54 0
19 -20 53 -54 0
19 20 55 56 0
-19 20 -55 56 0
19 -20 55 -56 0
19 20 69 70 0
-19 20 -69 70 0
19 -20 69 -70 0
21 22 59 60 0
-21 22 -59 60 0
21 -22 59 -60 0
21 22 61 62 0
-21 22 -61 62 0
21 -22 61 -62 0
21 22 65 66 0
-21 22 -65 66 0
21 -22 65 -66 0
23 24 61 62 0
-23 24 -61 62 0
23 -24 61 -62 0
23 24 67 68 0
-23 24 -67 68 0
23 -24 67 -68 0
25 26 35 36 0
-25 26 -35 36 0
25 -26 35 -36 0
25 26 45 46 0
-25 26 -45 46 0
25 -26 45 -46 0
25 26 53 54 0
-25 26 -53 54 0
25 -26 53 -54 0
27 28 35 36 0
-27 28 -35 36 0
27 -28 35 -36 0
27 28 47 48 0
-27 28 -47 48 0
27 -28 47 -48 0
27 28 53 54 0
-27 28 -53 54 0
27 -28 53 -54 0
27 28 55 56 0
-27 28 -55 56 0
27 -28 55 -56 0
27 28 63 64 0
-27 28 -63 64 0
27 -28 63 -64 0
29 30 33 34 0
-29 30 -33 34 0
29 -30 33 -34 0
29 30 49 50 0
-29 30 -49 50 0
29 -30 49 -50 0
31 32 49 50 0
-31 32 -49 50 0
31 -32 49 -50 0
31 32 55 56 0
-31 32 -55 56 0
31 -32 55 -56 0
31 32 69 70 0
-31 32 -69 70 0
31 -32 69 -70 0
33 34 39 40 0
-33 34 -39 40 0
33 -34 39 -40 0
33 34 65 66 0
-33 34 -65 66 0
33 -34 65 -66 0
35 36 55 56 0
-35 36 -55 56 0
35 -36 55 -56 0
35 36 59 60 0
-35 36 -59 60 0
35 -36 59 -60 0
35 36 67 68 0
-35 36 -67 68 0
35 -36 67 -68 0
37 38 39 40 0
-37 38 -39 40 0
37 -38 39 -40 0
41 42 45 46 0
-41 42 -45 46 0
41 -42 45 -46 0
41 42 55 56 0
-41 42 -55 56 0
41 -42 55 -56 0
41 42 69 70 0
-41 42 -69 70 0
41 -42 69 -70 0
45 46 57 58 0
-45 46 -57 58 0
45 -46 57 -58 0
47 48 57 58 0
-47 48 -57 58 0
47 -48 57 -58 0
47 48 61 62 0
-47 48 -61 62 0
47 -48 61 -62 0
51 52 65 66 0
-51 52 -65 66 0
51 -52 65 -66 0
55 56 63 64 0
-55 56 -63 64 0
55 -56 63 -64 0
61 62 69 70 0
-61 62 -69 70 0
61 -62 69 -70 0
