c family=3-COL n=70 instance=1 seed=145502016 models=288
c order 65 25 30 49 54 50 4 15 47 63 40 48 61 59 14 29 28 64 23 36 68 57 11 60 34 32 3 22 44 26 13 53 2 39 33 17 24 16 38 62 35 19 66 1 7 5 69 21 67 42 56 31 58 20 6 8 10 55 12 9 52 45 43 18 46 41 51 27 70 37
c order 32 9 10 65 21 51 48 33 11 68 5 56 49 6 55 2 43 30 46 53 57 38 16 18 23 36 62 54 28 34 70 17 67 47 7 50 45 44 59 12 26 14 31 1 27 58 15 24 22 20 13 61 39 66 60 69 4 19 63 41 8 40 25 42 3 37 64 29 35 52
c order 23 56 66 64 15 61 53 25 8 62 6 16 42 48 43 11 12 28 17 37 70 39 52 22 29 18 59 24 3 19 57 58 31 26 20 9 50 65 30 7 46 1 36 21 55 27 60 40 5 51 35 34 10 54 47 2 41 38 44 69 14 67 63 33 4 32 49 13 45 68
c order 43 55 31 17 8 7 23 64 22 56 49 25 26 46 58 61 27 41 62 21 28 63 66 54 37 59 68 45 12 69 3 38 11 39 44 29 6 14 13 1 57 15 36 30 53 48 19 10 67 51 52 65 33 9 60 70 20 5 42 34 50 16 18 24 35 47 4 2 32 40
c order 13 40 27 49 68 42 65 44 43 29 19 58 28 56 15 22 62 16 3 12 14 24 37 64 6 45 7 25 54 31 47 57 48 5 51 21 63 39 67 66 69 59 46 18 1 52 20 8 2 11 36 30 38 9 17 33 55 34 41 4 26 70 53 60 50 10 23 32 35 61
c order 24 32 46 53 50 60 27 47 68 18 14 65 66 3 2 36 28 34 39 19 21 56 38 55 25 69 30 64 45 4 61 12 15 37 16 48 54 10 62 57 49 67 40 70 1 22 58 31 23 44 20 7 5 52 11 63 6 51 59 42 8 35 9 13 26 41 33 43 17 29
c order 33 31 42 59 52 68 18 45 62 6 11 12 28 38 70 5 14 3 35 49 34 21 46 26 60 39 47 4 55 43 54 64 44 16 13 23 8 37 53 69 10 30 29 61 36 22 24 63 15 1 7 2 50 20 17 27 66 41 51 32 58 25 57 65 40 48 19 56 9 67
c order 39 54 8 47 5 49 43 57 51 65 22 55 37 21 53 3 16 7 60 26 2 19 23 59 17 63 48 56 42 11 66 18 70 41 4 30 12 45 10 58 40 13 61 44 28 31 33 50 46 69 67 36 6 25 64 34 14 24 15 68 20 35 9 1 29 27 38 52 62 32
c order 45 33 56 61 38 10 8 16 14 47 15 37 36 35 67 12 31 43 59 41 60 55 54 24 9 28 18 27 68 4 66 30 58 21 39 29 53 32 1 63 42 49 5 69 20 25 26 40 51 13 7 65 46 34 23 6 17 11 19 64 22 70 3 52 48 62 50 2 57 44
c order 67 31 45 38 52 16 36 50 70 2 58 54 44 30 60 5 34 59 9 64 69 66 65 20 21 10 63 28 35 33 56 53 46 40 23 19 32 57 51 18 49 47 37 7 13 27 1 29 55 68 61 39 62 25 8 17 24 41 26 43 6 42 22 15 4 12 3 14 48 11
p cnf 70 257
-1 -2 0
-3 -4 0
-5 -6 0
-7 -8 0
-9 -10 0
-11 -12 0
-13 -14 0
-15 -16 0
-17 -18 0
-19 -20 0
-21 -22 0
-23 -24 0
-25 -26 0
-27 -28 0
-29 -30 0
-31 -32 0
-33 -34 0
-35 -36 0
-37 -38 0
-39 -40 0
-41 -42 0
-43 -44 0
-45 -46 0
-47 -48 0
-49 -50 0
-51 -52 0
-53 -54 0
-55 -56 0
-57 -58 0
-59 -60 0
-61 -62 0
-63 -64 0
-65 -66 0
-67 -68 0
-69 -70 0
1 2 11 12 0
-1 2 -11 12 0
1 -2 11 -12 0
1 2 35 36 0
-1 2 -35 36 0
1 -2 35 -36 0
1 2 43 44 0
-1 2 -43 44 0
1 -2 43 -44 0
3 4 7 8 0
-3 4 -7 8 0
3 -4 7 -8 0
3 4 29 30 0
-3 4 -29 30 0
3 -4 29 -30 0
3 4 45 46 0
-3 4 -45 46 0
3 -4 45 -46 0
3 4 49 50 0
-3 4 -49 50 0
3 -4 49 -50 0
3 4 67 68 0
-3 4 -67 68 0
3 -4 67 -68 0
5 6 17 18 0
-5 6 -17 18 0
5 -6 17 -18 0
5 6 45 46 0
-5 6 -45 46 0
5 -6 45 -46 0
5 6 47 48 0
-5 6 -47 48 0
5 -6 47 -48 0
5 6 61 62 0
-5 6 -61 62 0
5 -6 61 -62 0
7 8 15 16 0
-7 8 -15 16 0
7 -8 15 -16 0
7 8 23 24 0
-7 8 -23 24 0
7 -8 23 -24 0
7 8 37 38 0
-7 8 -37 38 0
7 -8 37 -38 0
7 8 39 40 0
-7 8 -39 40 0
7 -8 39 -40 0
7 8 51 52 0
-7 8 -51 52 0
7 -8 51 -52 0
7 8 63 64 0
-7 8 -63 64 0
7 -8 63 -64 0
9 10 25 26 0
-9 10 -25 26 0
9 -10 25 -26 0
11 12 13 14 0
-11 12 -13 14 0
11 -12 13 -14 0
11 12 21 22 0
-11 12 -21 22 0
11 -12 21 -22 0
11 12 27 28 0
-11 12 -27 28 0
11 -12 27 -28 0
11 12 33 34 0
-11 12 -33 34 0
11 -12 33 -34 0
11 12 57 58 0
-11 12 -57 58 0
11 -12 57 -58 0
13 14 21 22 0
-13 14 -21 22 0
13 -14 21 -22 0
13 14 59 60 0
-13 14 -59 60 0
13 -14 59 -60 0
13 14 63 64 0
-13 14 -63 64 0
13 -14 63 -64 0
13 14 69 70 0
-13 14 -69 70 0
13 -14 69 -70 0
15 16 35 36 0
-15 16 -35 36 0
15 -16 35 -36 0
15 16 45 46 0
-15 16 -45 46 0
15 -16 45 -46 0
17 18 43 44 0
-17 18 -43 44 0
17 -18 43 -44 0
17 18 45 46 0
-17 18 -45 46 0
17 -18 45 -46 0
17 18 55 56 0
-17 18 -55 56 0
17 -18 55 -56 0
19 20 31 32 0
-19 20 -31 32 0
19 -20 31 -32 0
19 20 35 36 0
-19 20 -35 36 0
19 -20 35 -36 0
19 20 47 48 0
-19 20 -47 48 0
19 -20 47 -48 0
21 22 29 30 0
-21 22 -29 30 0
21 -22 29 -30 0
21 22 69 70 0
-21 22 -69 70 0
21 -22 69 -70 0
23 24 45 46 0
-23 24 -45 46 0
23 -24 45 -46 0
23 24 57 58 0
-23 24 -57 58 0
23 -24 57 -58 0
25 26 37 38 0
-25 26 -37 38 0
25 -26 37 -38 0
25 26 53 54 0
-25 26 -53 54 0
25 -26 53 -54 0
25 26 59 60 0
-25 26 -59 60 0
25 -26 59 -60 0
27 28 49 50 0
-27 28 -49 50 0
27 -28 49 -50 0
27 28 61 62 0
-27 28 -61 62 0
27 -28 61 -62 0
27 28 69 70 0
-27 28 -69 70 0
27 -28 69 -70 0
29 30 47 48 0
-29 30 -47 48 0
29 -30 47 -48 0
29 30 53 54 0
-29 30 -53 54 0
29 -30 53 -54 0
29 30 61 62 0
-29 30 -61 62 0
29 -30 61 -62 0
31 32 49 50 0
-31 32 -49 50 0
31 -32 49 -50 0
31 32 59 60 0
-31 32 -59 60 0
31 -32 59 -60 0
35 36 55 56 0
-35 36 -55 56 0
35 -36 55 -56 0
35 36 69 70 0
-35 36 -69 70 0
35 -36 69 -70 0
37 38 41 42 0
-37 38 -41 42 0
37 -38 41 -42 0
37 38 51 52 0
-37 38 -51 52 0
37 -38 51 -52 0
37 38 55 56 0
-37 38 -55 56 0
37 -38 55 -56 0
37 38 57 58 0
-37 38 -57 58 0
37 -38 57 -58 0
37 38 59 60 0
-37 38 -59 60 0
37 -38 59 -60 0
39 40 43 44 0
-39 40 -43 44 0
39 -40 43 -44 0
39 40 49 50 0
-39 40 -49 50 0
39 -40 49 -50 0
39 40 59 60 0
-39 40 -59 60 0
39 -40 59 -60 0
39 40 65 66 0
-39 40 -65 66 0
39 -40 65 -66 0
41 42 55 56 0
-41 42 -55 56 0
41 -42 55 -56 0
43 44 57 58 0
-43 44 -57 58 0
43 -44 57 -58 0
45 46 53 54 0
-45 46 -53 54 0
45 -46 53 -54 0
45 46 67 68 0
-45 46 -67 68 0
45 -46 67 -68 0
45 46 69 70 0
-45 46 -69 70 0
45 -46 69 -70 0
47 48 61 62 0
-47 48 -61 62 0
47 -48 61 -62 0
49 50 55 56 0
-49 50 -55 56 0
49 -50 55 -56 0
53 54 61 62 0
-53 54 -61 62 0
53 -54 61 -62 0
53 54 67 68 0
-53 54 -67 68 0
53 -54 67 -68 0
53 54 69 70 0
-53 54 -69 70 0
53 -54 69 -70 0
55 56 67 68 0
-55 56 -67 68 0
55 -56 67 -68 0
63 64 67 68 0
-63 64 -67 68 0
63 -64 67 -68 0
