c family=3-COL n=70 instance=0 seed=145502016 models=4788
c order 61 40 22 52 66 13 34 12 23 68 29 54 24 3 42 51 46 31 39 9 47 8 38 45 55 56 53 11 5 36 27 35 37 49 60 16 6 10 50 57 62 67 63 32 21 26 25 65 7 33 2 17 18 30 44 1 4 69 28 64 70 43 20 15 59 58 14 19 48 41
c order 17 8 46 67 49 48 16 27 55 56 36 20 13 43 63 21 64 7 14 66 70 53 11 62 33 28 12 51 29 18 19 38 69 61 31 22 34 9 23 47 50 1 42 44 52 60 58 54 30 57 35 6 5 2 3 39 41 10 65 59 32 15 25 4 24 40 26 37 45 68
c order 16 3 35 60 15 63 52 14 33 28 19 30 48 57 40 6 70 24 47 38 59 62 22 51 55 69 32 29 12 66 39 53 34 1 58 7 68 17 20 43 65 42 27 25 11 21 56 18 44 37 2 46 26 8 45 49 64 9 31 13 61 10 41 23 54 5 67 4 36 50
c order 51 16 42 8 15 63 19 11 40 3 32 29 14 61 46 21 33 20 38 24 5 25 55 31 12 62 67 13 54 68 52 1 27 22 23 7 18 9 30 60 6 48 65 43 10 17 2 45 47 35 37 69 53 41 4 26 39 34 50 56 57 36 49 44 64 59 70 28 66 58
c order 14 35 9 11 8 3 58 19 13 31 50 57 67 48 27 40 22 65 42 2 68 37 55 20 41 30 25 32 59 6 1 52 45 15 5 49 47 66 34 62 16 60 43 51 4 17 39 26 63 10 56 24 33 29 7 64 70 46 54 36 28 69 44 12 61 23 53 38 18 21
c order 9 13 28 55 30 57 40 42 50 52 4 47 12 22 51 23 70 48 64 56 39 27 11 7 58 14 15 33 29 68 66 2 65 21 31 61 49 59 20 35 3 32 38 46 6 45 69 60 10 53 18 8 63 44 5 26 25 24 16 41 37 54 67 17 43 62 34 1 19 36
c order 37 29 41 27 67 43 11 40 26 31 22 1 33 25 52 65 15 58 39 32 66 68 50 70 14 36 61 49 24 2 10 59 30 28 55 19 34 54 46 56 35 53 57 45 20 63 6 18 64 38 42 51 48 3 8 62 21 9 13 16 44 12 23 5 69 17 4 7 47 60
c order 51 23 47 29 2 22 3 12 4 41 1 43 49 21 64 70 42 10 59 57 44 63 39 34 19 30 14 28 9 67 61 60 65 38 33 25 15 6 31 46 16 58 68 53 45 66 40 52 27 17 50 32 62 8 5 7 54 13 36 48 24 35 69 18 20 55 11 26 56 37
c order 21 31 56 13 63 42 58 35 8 70 30 5 15 47 67 36 28 19 60 17 33 12 10 37 66 38 44 29 53 27 55 6 1 69 61 68 18 52 23 39 2 22 26 41 57 49 65 48 3 43 20 54 62 24 11 4 45 32 64 59 34 40 14 25 50 16 51 46 7 9
c order 3 27 11 35 26 42 60 24 54 48 55 34 2 65 70 19 18 39 40 37 68 57 41 49 22 32 58 53 46 63 38 69 64 6 21 1 15 16 62 31 47 44 66 43 7 4 52 36 45 17 5 10 13 33 51 9 50 61 25 12 8 29 67 30 14 59 23 28 56 20
p cnf 70 257
-1 -2 0
-3 -4 0
-5 -6 0
-7 -8 0
-9 -10 0
-11 -12 0
-13 -14 0
-15 -16 0
-17 -18 0
-19 -20 0
-21 -22 0
-23 -24 0
-25 -26 0
-27 -28 0
-29 -30 0
-31 -32 0
-33 -34 0
-35 -36 0
-37 -38 0
-39 -40 0
-41 -42 0
-43 -44 0
-45 -46 0
-47 -48 0
-49 -50 0
-51 -52 0
-53 -54 0
-55 -56 0
-57 -58 0
-59 -60 0
-61 -62 0
-63 -64 0
-65 -66 0
-67 -68 0
-69 -70 0
1 2 5 6 0
-1 2 -5 6 0
1 -2 5 -6 0
1 2 25 26 0
-1 2 -25 26 0
1 -2 25 -26 0
1 2 43 44 0
-1 2 -43 44 0
1 -2 43 -44 0
1 2 49 50 0
-1 2 -49 50 0
1 -2 49 -50 0
1 2 55 56 0
-1 2 -55 56 0
1 -2 55 -56 0
1 2 59 60 0
-1 2 -59 60 0
1 -2 59 -60 0
1 2 67 68 0
-1 2 -67 68 0
1 -2 67 -68 0
3 4 43 44 0
-3 4 -43 44 0
3 -4 43 -44 0
3 4 63 64 0
-3 4 -63 64 0
3 -4 63 -64 0
3 4 65 66 0
-3 4 -65 66 0
3 -4 65 -66 0
5 6 13 14 0
-5 6 -13 14 0
5 -6 13 -14 0
5 6 47 48 0
-5 6 -47 48 0
5 -6 47 -48 0
5 6 67 68 0
-5 6 -67 68 0
5 -6 67 -68 0
7 8 23 24 0
-7 8 -23 24 0
7 -8 23 -24 0
7 8 25 26 0
-7 8 -25 26 0
7 -8 25 -26 0
7 8 27 28 0
-7 8 -27 28 0
7 -8 27 -28 0
7 8 31 32 0
-7 8 -31 32 0
7 -8 31 -32 0
7 8 43 44 0
-7 8 -43 44 0
7 -8 43 -44 0
9 10 13 14 0
-9 10 -13 14 0
9 -10 13 -14 0
9 10 21 22 0
-9 10 -21 22 0
9 -10 21 -22 0
9 10 51 52 0
-9 10 -51 52 0
9 -10 51 -52 0
9 10 53 54 0
-9 10 -53 54 0
9 -10 53 -54 0
9 10 65 66 0
-9 10 -65 66 0
9 -10 65 -66 0
11 12 53 54 0
-11 12 -53 54 0
11 -12 53 -54 0
13 14 25 26 0
-13 14 -25 26 0
13 -14 25 -26 0
13 14 53 54 0
-13 14 -53 54 0
13 -14 53 -54 0
13 14 63 64 0
-13 14 -63 64 0
13 -14 63 -64 0
15 16 29 30 0
-15 16 -29 30 0
15 -16 29 -30 0
15 16 35 36 0
-15 16 -35 36 0
15 -16 35 -36 0
15 16 65 66 0
-15 16 -65 66 0
15 -16 65 -66 0
15 16 67 68 0
-15 16 -67 68 0
15 -16 67 -68 0
17 18 31 32 0
-17 18 -31 32 0
17 -18 31 -32 0
17 18 41 42 0
-17 18 -41 42 0
17 -18 41 -42 0
17 18 45 46 0
-17 18 -45 46 0
17 -18 45 -46 0
17 18 47 48 0
-17 18 -47 48 0
17 -18 47 -48 0
19 20 25 26 0
-19 20 -25 26 0
19 -20 25 -26 0
19 20 59 60 0
-19 20 -59 60 0
19 -20 59 -60 0
19 20 67 68 0
-19 20 -67 68 0
19 -20 67 -68 0
21 22 23 24 0
-21 22 -23 24 0
21 -22 23 -24 0
21 22 31 32 0
-21 22 -31 32 0
21 -22 31 -32 0
21 22 49 50 0
-21 22 -49 50 0
21 -22 49 -50 0
21 22 53 54 0
-21 22 -53 54 0
21 -22 53 -54 0
21 22 65 66 0
-21 22 -65 66 0
21 -22 65 -66 0
23 24 51 52 0
-23 24 -51 52 0
23 -24 51 -52 0
25 26 31 32 0
-25 26 -31 32 0
25 -26 31 -32 0
27 28 29 30 0
-27 28 -29 30 0
27 -28 29 -30 0
27 28 41 42 0
-27 28 -41 42 0
27 -28 41 -42 0
27 28 53 54 0
-27 28 -53 54 0
27 -28 53 -54 0
27 28 59 60 0
-27 28 -59 60 0
27 -28 59 -60 0
27 28 69 70 0
-27 28 -69 70 0
27 -28 69 -70 0
29 30 33 34 0
-29 30 -33 34 0
29 -30 33 -34 0
29 30 63 64 0
-29 30 -63 64 0
29 -30 63 -64 0
31 32 41 42 0
-31 32 -41 42 0
31 -32 41 -42 0
31 32 69 70 0
-31 32 -69 70 0
31 -32 69 -70 0
33 34 47 48 0
-33 34 -47 48 0
33 -34 47 -48 0
33 34 53 54 0
-33 34 -53 54 0
33 -34 53 -54 0
33 34 65 66 0
-33 34 -65 66 0
33 -34 65 -66 0
35 36 53 54 0
-35 36 -53 54 0
35 -36 53 -54 0
37 38 51 52 0
-37 38 -51 52 0
37 -38 51 -52 0
37 38 55 56 0
-37 38 -55 56 0
37 -38 55 -56 0
37 38 57 58 0
-37 38 -57 58 0
37 -38 57 -58 0
39 40 43 44 0
-39 40 -43 44 0
39 -40 43 -44 0
39 40 45 46 0
-39 40 -45 46 0
39 -40 45 -46 0
39 40 57 58 0
-39 40 -57 58 0
39 -40 57 -58 0
41 42 53 54 0
-41 42 -53 54 0
41 -42 53 -54 0
41 42 59 60 0
-41 42 -59 60 0
41 -42 59 -60 0
43 44 61 62 0
-43 44 -61 62 0
43 -44 61 -62 0
45 46 47 48 0
-45 46 -47 48 0
45 -46 47 -48 0
45 46 65 66 0
-45 46 -65 66 0
45 -46 65 -66 0
49 50 59 60 0
-49 50 -59 60 0
49 -50 59 -60 0
51 52 55 56 0
-51 52 -55 56 0
51 -52 55 -56 0
51 52 61 62 0
-51 52 -61 62 0
51 -52 61 -62 0
59 60 63 64 0
-59 60 -63 64 0
59 -60 63 -64 0
63 64 69 70 0
-63 64 -69 70 0
63 -64 69 -70 0
