c family=3-COL n=70 instance=6 seed=145502016 models=192
c order 19 20 26 27 41 30 15 7 35 60 69 47 50 66 2 32 64 46 37 13 63 54 49 58 70 34 36 33 56 44 3 4 52 42 59 61 45 38 53 62 51 16 8 22 12 23 55 31 5 9 24 6 18 43 21 28 48 10 39 14 1 67 57 40 25 65 68 17 11 29
c order 51 18 21 12 66 45 5 27 50 7 57 64 42 54 47 39 44 11 61 56 20 24 63 10 3 48 65 60 38 26 62 2 16 46 29 13 1 67 34 58 52 28 19 59 4 68 17 8 55 30 23 6 36 35 41 14 25 49 37 22 32 31 40 33 70 9 53 43 69 15
c order 54 23 16 28 58 25 63 38 19 39 35 26 70 20 32 15 49 10 5 52 46 50 7 43 67 9 21 40 29 55 66 44 34 51 3 57 24 36 6 27 48 14 18 1 17 45 11 22 30 68 59 41 62 13 61 60 56 47 37 2 31 69 53 42 65 33 12 64 8 4
c order 18 58 53 26 52 22 56 66 29 36 16 61 55 30 43 45 7 31 11 19 62 50 27 32 63 25 35 5 33 34 65 23 60 68 41 8 37 13 70 15 9 28 20 47 40 12 46 48 1 42 14 17 4 54 2 57 64 24 44 38 6 21 49 69 51 39 3 59 67 10
c order 48 10 30 1 36 17 40 27 29 24 23 59 61 51 34 25 8 20 55 66 4 58 35 65 26 46 37 38 3 22 32 15 69 44 5 31 41 6 28 43 63 45 62 21 7 50 39 33 68 54 19 2 49 12 18 13 9 56 60 57 14 52 11 53 64 70 67 16 47 42
c order 6 39 12 70 29 9 47 67 41 21 43 33 20 58 11 34 64 37 57 69 30 32 26 45 46 35 25 66 55 19 38 22 5 51 44 17 60 48 28 61 10 56 52 16 53 2 23 13 54 3 14 27 8 1 4 68 50 42 15 31 24 36 18 40 65 49 62 7 63 59
c order 60 36 13 25 57 62 7 9 1 41 56 52 55 53 34 33 68 66 6 14 64 21 27 70 16 43 44 61 38 39 31 22 58 24 50 15 47 20 3 65 5 26 30 18 42 49 45 40 17 67 10 29 46 51 19 59 32 2 8 48 23 11 12 37 54 63 35 28 4 69
c order 22 43 24 31 20 7 11 26 40 47 9 37 59 17 65 14 69 18 52 39 58 8 44 53 12 55 3 70 16 67 49 62 6 30 41 15 2 56 42 38 5 64 50 51 48 23 13 28 4 45 1 57 68 19 46 32 35 66 34 60 27 63 33 25 54 21 29 10 61 36
c order 69 55 35 18 20 15 26 64 8 59 62 47 1 68 16 44 37 21 45 50 19 56 70 57 4 10 46 22 17 9 25 41 39 42 13 29 66 3 28 11 60 65 53 61 27 33 2 12 63 36 6 30 58 67 32 7 38 49 24 48 43 52 34 31 51 40 23 14 5 54
c order 40 31 16 5 60 68 53 48 13 39 20 46 49 35 64 36 42 45 32 51 57 3 34 52 55 43 67 56 33 14 66 58 37 30 61 41 65 44 21 6 19 1 15 62 28 54 8 50 24 23 59 47 2 27 29 9 11 12 38 4 69 63 25 7 18 26 70 10 22 17
p cnf 70 257
-1 -2 0
-3 -4 0
-5 -6 0
-7 -8 0
-9 -10 0
-11 -12 0
-13 -14 0
-15 -16 0
-17 -18 0
-19 -20 0
-21 -22 0
-23 -24 0
-25 -26 0
-27 -28 0
-29 -30 0
-31 -32 0
-33 -34 0
-35 -36 0
-37 -38 0
-39 -40 0
-41 -42 0
-43 -44 0
-45 -46 0
-47 -48 0
-49 -50 0
-51 -52 0
-53 -54 0
-55 -56 0
-57 -58 0
-59 -60 0
-61 -62 0
-63 -64 0
-65 -66 0
-67 -68 0
-69 -70 0
1 2 31 32 0
-1 2 -31 32 0
1 -2 31 -32 0
3 4 7 8 0
-3 4 -7 8 0
3 -4 7 -8 0
3 4 35 36 0
-3 4 -35 36 0
3 -4 35 -36 0
3 4 61 62 0
-3 4 -61 62 0
3 -4 61 -62 0
5 6 21 22 0
-5 6 -21 22 0
5 -6 21 -22 0
5 6 51 52 0
-5 6 -51 52 0
5 -6 51 -52 0
7 8 27 28 0
-7 8 -27 28 0
7 -8 27 -28 0
7 8 41 42 0
-7 8 -41 42 0
7 -8 41 -42 0
7 8 47 48 0
-7 8 -47 48 0
7 -8 47 -48 0
9 10 17 18 0
-9 10 -17 18 0
9 -10 17 -18 0
9 10 21 22 0
-9 10 -21 22 0
9 -10 21 -22 0
9 10 27 28 0
-9 10 -27 28 0
9 -10 27 -28 0
9 10 37 38 0
-9 10 -37 38 0
9 -10 37 -38 0
9 10 39 40 0
-9 10 -39 40 0
9 -10 39 -40 0
9 10 41 42 0
-9 10 -41 42 0
9 -10 41 -42 0
9 10 43 44 0
-9 10 -43 44 0
9 -10 43 -44 0
9 10 65 66 0
-9 10 -65 66 0
9 -10 65 -66 0
11 12 13 14 0
-11 12 -13 14 0
11 -12 13 -14 0
11 12 51 52 0
-11 12 -51 52 0
11 -12 51 -52 0
13 14 21 22 0
-13 14 -21 22 0
13 -14 21 -22 0
13 14 33 34 0
-13 14 -33 34 0
13 -14 33 -34 0
13 14 63 64 0
-13 14 -63 64 0
13 -14 63 -64 0
13 14 65 66 0
-13 14 -65 66 0
13 -14 65 -66 0
15 16 19 20 0
-15 16 -19 20 0
15 -16 19 -20 0
15 16 21 22 0
-15 16 -21 22 0
15 -16 21 -22 0
15 16 57 58 0
-15 16 -57 58 0
15 -16 57 -58 0
15 16 67 68 0
-15 16 -67 68 0
15 -16 67 -68 0
17 18 21 22 0
-17 18 -21 22 0
17 -18 21 -22 0
17 18 31 32 0
-17 18 -31 32 0
17 -18 31 -32 0
19 20 39 40 0
-19 20 -39 40 0
19 -20 39 -40 0
21 22 23 24 0
-21 22 -23 24 0
21 -22 23 -24 0
21 22 27 28 0
-21 22 -27 28 0
21 -22 27 -28 0
23 24 25 26 0
-23 24 -25 26 0
23 -24 25 -26 0
23 24 43 44 0
-23 24 -43 44 0
23 -24 43 -44 0
23 24 55 56 0
-23 24 -55 56 0
23 -24 55 -56 0
23 24 59 60 0
-23 24 -59 60 0
23 -24 59 -60 0
25 26 45 46 0
-25 26 -45 46 0
25 -26 45 -46 0
27 28 31 32 0
-27 28 -31 32 0
27 -28 31 -32 0
27 28 33 34 0
-27 28 -33 34 0
27 -28 33 -34 0
27 28 39 40 0
-27 28 -39 40 0
27 -28 39 -40 0
29 30 51 52 0
-29 30 -51 52 0
29 -30 51 -52 0
29 30 53 54 0
-29 30 -53 54 0
29 -30 53 -54 0
29 30 59 60 0
-29 30 -59 60 0
29 -30 59 -60 0
29 30 67 68 0
-29 30 -67 68 0
29 -30 67 -68 0
31 32 39 40 0
-31 32 -39 40 0
31 -32 39 -40 0
31 32 53 54 0
-31 32 -53 54 0
31 -32 53 -54 0
31 32 61 62 0
-31 32 -61 62 0
31 -32 61 -62 0
33 34 55 56 0
-33 34 -55 56 0
33 -34 55 -56 0
33 34 57 58 0
-33 34 -57 58 0
33 -34 57 -58 0
35 36 41 42 0
-35 36 -41 42 0
35 -36 41 -42 0
35 36 51 52 0
-35 36 -51 52 0
35 -36 51 -52 0
35 36 67 68 0
-35 36 -67 68 0
35 -36 67 -68 0
37 38 51 52 0
-37 38 -51 52 0
37 -38 51 -52 0
37 38 63 64 0
-37 38 -63 64 0
37 -38 63 -64 0
41 42 47 48 0
-41 42 -47 48 0
41 -42 47 -48 0
41 42 49 50 0
-41 42 -49 50 0
41 -42 49 -50 0
41 42 63 64 0
-41 42 -63 64 0
41 -42 63 -64 0
41 42 69 70 0
-41 42 -69 70 0
41 -42 69 -70 0
45 46 49 50 0
-45 46 -49 50 0
45 -46 49 -50 0
45 46 59 60 0
-45 46 -59 60 0
45 -46 59 -60 0
45 46 67 68 0
-45 46 -67 68 0
45 -46 67 -68 0
45 46 69 70 0
-45 46 -69 70 0
45 -46 69 -70 0
47 48 51 52 0
-47 48 -51 52 0
47 -48 51 -52 0
47 48 53 54 0
-47 48 -53 54 0
47 -48 53 -54 0
47 48 65 66 0
-47 48 -65 66 0
47 -48 65 -66 0
49 50 53 54 0
-49 50 -53 54 0
49 -50 53 -54 0
53 54 63 64 0
-53 54 -63 64 0
53 -54 63 -64 0
55 56 65 66 0
-55 56 -65 66 0
55 -56 65 -66 0
55 56 67 68 0
-55 56 -67 68 0
55 -56 67 -68 0
59 60 65 66 0
-59 60 -65 66 0
59 -60 65 -66 0
59 60 69 70 0
-59 60 -69 70 0
59 -60 69 -70 0
61 62 65 66 0
-61 62 -65 66 0
61 -62 65 -66 0
63 64 65 66 0
-63 64 -65 66 0
63 -64 65 -66 0
67 68 69 70 0
-67 68 -69 70 0
67 -68 69 -70 0
