c family=3-COL n=70 instance=8 seed=145502016 models=13824
c order 55 56 58 64 46 57 61 37 27 29 15 6 53 50 48 68 47 18 51 10 12 59 44 30 24 41 42 28 43 54 8 52 25 14 3 20 19 31 38 66 9 23 32 39 34 69 5 36 45 40 49 70 11 4 65 35 26 13 21 17 16 63 33 2 62 67 1 7 22 60
c order 1 21 58 3 25 27 4 65 68 20 37 30 34 43 26 53 7 61 57 15 18 13 63 38 17 35 28 45 60 31 32 23 46 64 56 22 11 52 2 59 41 48 14 69 50 29 24 19 55 40 16 62 44 33 54 9 42 39 66 6 70 49 12 47 10 36 51 8 67 5
c order 65 1 66 2 20 22 13 19 37 15 8 28 29 24 62 61 39 60 36 70 14 32 11 25 17 64 18 35 68 42 46 57 21 27 10 63 31 43 33 55 59 48 6 7 9 23 58 5 41 30 16 45 12 50 38 53 52 51 3 26 47 44 4 69 56 54 67 34 49 40
c order 25 64 20 11 46 36 59 43 31 9 7 49 41 56 44 19 32 60 8 4 68 51 33 39 27 15 30 13 70 69 47 1 16 22 57 37 53 5 6 54 17 55 58 63 62 28 52 34 26 48 12 3 18 2 21 29 40 23 67 38 50 65 14 66 24 35 45 10 61 42
c order 69 8 54 13 30 6 4 46 60 70 41 19 45 66 18 62 9 22 65 57 42 47 35 40 58 15 17 52 7 68 16 31 34 2 12 53 39 36 33 21 48 37 43 10 23 1 25 27 55 59 67 24 44 56 26 50 14 32 3 29 28 49 38 20 64 5 51 63 61 11
c order 48 62 46 49 11 25 64 45 16 23 44 55 70 18 69 29 40 8 31 59 54 27 2 42 34 1 66 67 15 43 13 3 36 52 60 14 28 5 10 9 37 65 6 19 50 61 21 33 63 35 30 41 56 68 58 17 47 7 39 22 12 57 51 24 4 20 38 26 32 53
c order 70 11 56 31 44 37 45 60 7 43 16 52 63 15 46 62 25 24 33 1 41 54 55 18 19 49 30 3 67 5 26 57 28 4 2 61 8 48 32 39 6 68 38 65 12 50 64 53 51 20 47 35 40 58 34 14 59 9 13 17 36 29 42 66 22 23 69 27 10 21
c order 30 25 7 14 5 51 42 2 52 44 56 58 35 57 68 53 8 26 22 69 46 4 3 41 24 19 47 34 64 12 31 43 21 23 49 11 66 40 6 38 67 1 48 36 39 55 15 18 61 50 17 16 28 63 60 32 45 29 27 70 33 59 20 37 65 9 10 54 62 13
c order 5 13 27 41 57 11 8 48 40 26 50 30 67 37 54 44 6 4 69 20 36 19 34 35 49 10 51 39 22 66 7 55 43 2 42 58 62 12 31 14 52 38 24 56 1 23 46 28 59 65 25 70 16 9 61 3 17 21 47 32 64 60 33 53 63 18 68 29 15 45
c order 40 66 25 32 49 19 6 18 16 31 50 12 29 55 70 26 51 64 35 38 53 52 65 8 41 7 54 47 45 1 67 24 63 62 9 4 27 60 58 34 14 21 42 22 69 61 39 23 46 48 43 3 11 30 2 59 28 15 17 68 5 37 44 56 33 13 57 36 20 10
p cnf 70 257
-1 -2 0
-3 -4 0
-5 -6 0
-7 -8 0
-9 -10 0
-11 -12 0
-13 -14 0
-15 -16 0
-17 -18 0
-19 -20 0
-21 -22 0
-23 -24 0
-25 -26 0
-27 -28 0
-29 -30 0
-31 -32 0
-33 -34 0
-35 -36 0
-37 -38 0
-39 -40 0
-41 -42 0
-43 -44 0
-45 -46 0
-47 -48 0
-49 -50 0
-51 -52 0
-53 -54 0
-55 -56 0
-57 -58 0
-59 -60 0
-61 -62 0
-63 -64 0
-65 -66 0
-67 -68 0
-69 -70 0
1 2 3 4 0
-1 2 -3 4 0
1 -2 3 -4 0
1 2 17 18 0
-1 2 -17 18 0
1 -2 17 -18 0
1 2 51 52 0
-1 2 -51 52 0
1 -2 51 -52 0
3 4 9 10 0
-3 4 -9 10 0
3 -4 9 -10 0
3 4 15 16 0
-3 4 -15 16 0
3 -4 15 -16 0
3 4 29 30 0
-3 4 -29 30 0
3 -4 29 -30 0
3 4 39 40 0
-3 4 -39 40 0
3 -4 39 -40 0
3 4 43 44 0
-3 4 -43 44 0
3 -4 43 -44 0
3 4 69 70 0
-3 4 -69 70 0
3 -4 69 -70 0
5 6 7 8 0
-5 6 -7 8 0
5 -6 7 -8 0
5 6 39 40 0
-5 6 -39 40 0
5 -6 39 -40 0
5 6 57 58 0
-5 6 -57 58 0
5 -6 57 -58 0
7 8 25 26 0
-7 8 -25 26 0
7 -8 25 -26 0
7 8 41 42 0
-7 8 -41 42 0
7 -8 41 -42 0
7 8 55 56 0
-7 8 -55 56 0
7 -8 55 -56 0
9 10 11 12 0
-9 10 -11 12 0
9 -10 11 -12 0
9 10 15 16 0
-9 10 -15 16 0
9 -10 15 -16 0
9 10 19 20 0
-9 10 -19 20 0
9 -10 19 -20 0
9 10 27 28 0
-9 10 -27 28 0
9 -10 27 -28 0
9 10 33 34 0
-9 10 -33 34 0
9 -10 33 -34 0
9 10 35 36 0
-9 10 -35 36 0
9 -10 35 -36 0
9 10 53 54 0
-9 10 -53 54 0
9 -10 53 -54 0
9 10 69 70 0
-9 10 -69 70 0
9 -10 69 -70 0
11 12 63 64 0
-11 12 -63 64 0
11 -12 63 -64 0
13 14 29 30 0
-13 14 -29 30 0
13 -14 29 -30 0
13 14 35 36 0
-13 14 -35 36 0
13 -14 35 -36 0
13 14 45 46 0
-13 14 -45 46 0
13 -14 45 -46 0
15 16 19 20 0
-15 16 -19 20 0
15 -16 19 -20 0
15 16 37 38 0
-15 16 -37 38 0
15 -16 37 -38 0
15 16 39 40 0
-15 16 -39 40 0
15 -16 39 -40 0
15 16 41 42 0
-15 16 -41 42 0
15 -16 41 -42 0
15 16 45 46 0
-15 16 -45 46 0
15 -16 45 -46 0
15 16 61 62 0
-15 16 -61 62 0
15 -16 61 -62 0
15 16 67 68 0
-15 16 -67 68 0
15 -16 67 -68 0
17 18 45 46 0
-17 18 -45 46 0
17 -18 45 -46 0
17 18 49 50 0
-17 18 -49 50 0
17 -18 49 -50 0
17 18 69 70 0
-17 18 -69 70 0
17 -18 69 -70 0
19 20 27 28 0
-19 20 -27 28 0
19 -20 27 -28 0
19 20 47 48 0
-19 20 -47 48 0
19 -20 47 -48 0
19 20 51 52 0
-19 20 -51 52 0
19 -20 51 -52 0
19 20 65 66 0
-19 20 -65 66 0
19 -20 65 -66 0
19 20 69 70 0
-19 20 -69 70 0
19 -20 69 -70 0
23 24 27 28 0
-23 24 -27 28 0
23 -24 27 -28 0
23 24 41 42 0
-23 24 -41 42 0
23 -24 41 -42 0
23 24 55 56 0
-23 24 -55 56 0
23 -24 55 -56 0
23 24 65 66 0
-23 24 -65 66 0
23 -24 65 -66 0
23 24 69 70 0
-23 24 -69 70 0
23 -24 69 -70 0
25 26 43 44 0
-25 26 -43 44 0
25 -26 43 -44 0
27 28 37 38 0
-27 28 -37 38 0
27 -28 37 -38 0
27 28 45 46 0
-27 28 -45 46 0
27 -28 45 -46 0
27 28 63 64 0
-27 28 -63 64 0
27 -28 63 -64 0
27 28 67 68 0
-27 28 -67 68 0
27 -28 67 -68 0
29 30 35 36 0
-29 30 -35 36 0
29 -30 35 -36 0
29 30 63 64 0
-29 30 -63 64 0
29 -30 63 -64 0
29 30 69 70 0
-29 30 -69 70 0
29 -30 69 -70 0
33 34 37 38 0
-33 34 -37 38 0
33 -34 37 -38 0
33 34 41 42 0
-33 34 -41 42 0
33 -34 41 -42 0
33 34 51 52 0
-33 34 -51 52 0
33 -34 51 -52 0
33 34 59 60 0
-33 34 -59 60 0
33 -34 59 -60 0
37 38 57 58 0
-37 38 -57 58 0
37 -38 57 -58 0
39 40 43 44 0
-39 40 -43 44 0
39 -40 43 -44 0
39 40 67 68 0
-39 40 -67 68 0
39 -40 67 -68 0
41 42 43 44 0
-41 42 -43 44 0
41 -42 43 -44 0
41 42 69 70 0
-41 42 -69 70 0
41 -42 69 -70 0
45 46 53 54 0
-45 46 -53 54 0
45 -46 53 -54 0
51 52 63 64 0
-51 52 -63 64 0
51 -52 63 -64 0
51 52 65 66 0
-51 52 -65 66 0
51 -52 65 -66 0
53 54 65 66 0
-53 54 -65 66 0
53 -54 65 -66 0
55 56 69 70 0
-55 56 -69 70 0
55 -56 69 -70 0
57 58 59 60 0
-57 58 -59 60 0
57 -58 59 -60 0
57 58 61 62 0
-57 58 -61 62 0
57 -58 61 -62 0
57 58 63 64 0
-57 58 -63 64 0
57 -58 63 -64 0
59 60 67 68 0
-59 60 -67 68 0
59 -60 67 -68 0
61 62 69 70 0
-61 62 -69 70 0
61 -62 69 -70 0
