c family=3-COL n=70 instance=2 seed=145502016 models=168
c order 22 12 4 41 21 18 55 47 2 52 36 8 25 59 61 70 34 27 69 9 29 48 17 44 57 56 23 58 54 64 42 46 24 49 40 51 50 30 35 38 37 53 5 66 65 63 3 31 15 11 62 32 1 7 19 67 16 10 68 28 39 20 6 45 33 60 43 26 13 14
c order 36 64 70 8 53 4 50 16 3 15 40 57 28 59 10 48 65 63 22 66 11 56 29 42 38 47 69 27 23 7 6 18 46 19 14 34 30 17 9 52 24 1 13 45 39 5 54 41 35 32 37 55 61 31 20 25 49 51 68 21 26 60 44 67 58 12 43 2 62 33
c order 32 21 49 34 44 68 37 19 31 5 70 20 6 48 54 50 25 45 8 33 11 63 65 30 47 12 3 40 58 35 26 43 62 51 23 41 29 56 38 53 27 1 61 64 10 22 52 57 69 36 9 24 42 59 7 60 39 13 28 15 17 55 14 46 18 16 67 4 66 2
c order 52 9 26 63 68 37 15 23 59 51 10 34 38 12 65 60 29 28 13 32 44 1 21 48 46 17 58 30 61 49 41 40 66 56 25 2 53 18 22 39 8 45 19 33 5 54 16 57 64 70 6 67 55 42 35 4 47 3 27 11 62 69 43 24 20 31 14 36 50 7
c order 6 67 33 8 16 26 48 44 32 61 12 10 69 14 25 29 62 63 5 65 7 23 28 17 13 15 45 55 52 38 34 30 42 11 59 37 51 4 19 3 58 70 68 1 18 35 57 24 40 66 60 27 9 22 21 43 47 46 20 41 36 54 53 56 49 50 31 39 64 2
c order 68 54 56 4 31 57 22 6 37 30 70 47 29 40 62 53 18 35 48 61 3 43 46 26 58 10 52 60 36 24 14 33 59 42 2 44 8 20 27 21 39 49 17 9 28 23 51 64 34 32 11 5 45 38 12 7 1 25 19 41 13 63 15 16 55 65 69 67 66 50
c order 41 43 51 26 5 55 9 24 45 25 35 50 16 1 37 21 47 32 63 64 65 13 8 7 49 53 69 44 15 29 10 12 62 18 70 42 19 30 66 56 6 39 60 59 22 57 36 23 46 34 61 4 3 20 58 68 52 2 17 11 54 38 48 31 40 27 33 67 14 28
c order 13 64 69 19 58 62 55 70 67 14 41 42 39 10 40 45 66 51 61 7 12 32 33 15 23 52 44 29 18 35 43 54 11 49 1 2 24 3 21 47 37 16 50 17 27 30 4 48 26 25 46 6 56 38 65 5 34 59 68 9 20 31 8 57 63 28 36 22 60 53
c order 70 52 28 13 37 56 42 8 23 67 14 34 54 45 7 46 3 39 22 61 5 21 18 25 53 20 19 48 24 11 68 17 59 35 27 38 2 15 29 16 9 12 44 33 30 62 58 60 50 43 63 66 47 64 36 41 4 10 32 26 65 51 49 69 57 1 6 40 55 31
c order 5 39 6 41 22 28 29 68 63 46 61 58 62 31 19 18 49 2 1 42 67 35 48 4 57 60 14 11 30 23 51 47 40 10 44 43 16 70 56 64 13 33 54 65 38 55 15 20 36 66 9 3 7 25 26 24 45 12 21 34 37 8 27 17 69 53 59 50 32 52
p cnf 70 257
-1 -2 0
-3 -4 0
-5 -6 0
-7 -8 0
-9 -10 0
-11 -12 0
-13 -14 0
-15 -16 0
-17 -18 0
-19 -20 0
-21 -22 0
-23 -24 0
-25 -26 0
-27 -28 0
-29 -30 0
-31 -32 0
-33 -34 0
-35 -36 0
-37 -38 0
-39 -40 0
-41 -42 0
-43 -44 0
-45 -46 0
-47 -48 0
-49 -50 0
-51 -52 0
-53 -54 0
-55 -56 0
-57 -58 0
-59 -60 0
-61 -62 0
-63 -64 0
-65 -66 0
-67 -68 0
-69 -70 0
1 2 31 32 0
-1 2 -31 32 0
1 -2 31 -32 0
1 2 33 34 0
-1 2 -33 34 0
1 -2 33 -34 0
1 2 35 36 0
-1 2 -35 36 0
1 -2 35 -36 0
1 2 63 64 0
-1 2 -63 64 0
1 -2 63 -64 0
3 4 13 14 0
-3 4 -13 14 0
3 -4 13 -14 0
3 4 21 22 0
-3 4 -21 22 0
3 -4 21 -22 0
3 4 33 34 0
-3 4 -33 34 0
3 -4 33 -34 0
3 4 55 56 0
-3 4 -55 56 0
3 -4 55 -56 0
5 6 25 26 0
-5 6 -25 26 0
5 -6 25 -26 0
5 6 49 50 0
-5 6 -49 50 0
5 -6 49 -50 0
5 6 57 58 0
-5 6 -57 58 0
5 -6 57 -58 0
5 6 59 60 0
-5 6 -59 60 0
5 -6 59 -60 0
5 6 61 62 0
-5 6 -61 62 0
5 -6 61 -62 0
7 8 9 10 0
-7 8 -9 10 0
7 -8 9 -10 0
7 8 11 12 0
-7 8 -11 12 0
7 -8 11 -12 0
7 8 51 52 0
-7 8 -51 52 0
7 -8 51 -52 0
7 8 65 66 0
-7 8 -65 66 0
7 -8 65 -66 0
7 8 67 68 0
-7 8 -67 68 0
7 -8 67 -68 0
9 10 15 16 0
-9 10 -15 16 0
9 -10 15 -16 0
9 10 39 40 0
-9 10 -39 40 0
9 -10 39 -40 0
9 10 55 56 0
-9 10 -55 56 0
9 -10 55 -56 0
9 10 67 68 0
-9 10 -67 68 0
9 -10 67 -68 0
11 12 13 14 0
-11 12 -13 14 0
11 -12 13 -14 0
11 12 17 18 0
-11 12 -17 18 0
11 -12 17 -18 0
11 12 19 20 0
-11 12 -19 20 0
11 -12 19 -20 0
11 12 23 24 0
-11 12 -23 24 0
11 -12 23 -24 0
11 12 29 30 0
-11 12 -29 30 0
11 -12 29 -30 0
11 12 47 48 0
-11 12 -47 48 0
11 -12 47 -48 0
11 12 57 58 0
-11 12 -57 58 0
11 -12 57 -58 0
11 12 69 70 0
-11 12 -69 70 0
11 -12 69 -70 0
13 14 19 20 0
-13 14 -19 20 0
13 -14 19 -20 0
13 14 25 26 0
-13 14 -25 26 0
13 -14 25 -26 0
13 14 47 48 0
-13 14 -47 48 0
13 -14 47 -48 0
15 16 17 18 0
-15 16 -17 18 0
15 -16 17 -18 0
15 16 39 40 0
-15 16 -39 40 0
15 -16 39 -40 0
15 16 45 46 0
-15 16 -45 46 0
15 -16 45 -46 0
17 18 27 28 0
-17 18 -27 28 0
17 -18 27 -28 0
19 20 25 26 0
-19 20 -25 26 0
19 -20 25 -26 0
19 20 27 28 0
-19 20 -27 28 0
19 -20 27 -28 0
19 20 39 40 0
-19 20 -39 40 0
19 -20 39 -40 0
19 20 69 70 0
-19 20 -69 70 0
19 -20 69 -70 0
21 22 31 32 0
-21 22 -31 32 0
21 -22 31 -32 0
23 24 25 26 0
-23 24 -25 26 0
23 -24 25 -26 0
23 24 33 34 0
-23 24 -33 34 0
23 -24 33 -34 0
23 24 45 46 0
-23 24 -45 46 0
23 -24 45 -46 0
23 24 51 52 0
-23 24 -51 52 0
23 -24 51 -52 0
25 26 33 34 0
-25 26 -33 34 0
25 -26 33 -34 0
27 28 47 48 0
-27 28 -47 48 0
27 -28 47 -48 0
27 28 51 52 0
-27 28 -51 52 0
27 -28 51 -52 0
29 30 57 58 0
-29 30 -57 58 0
29 -30 57 -58 0
29 30 65 66 0
-29 30 -65 66 0
29 -30 65 -66 0
31 32 59 60 0
-31 32 -59 60 0
31 -32 59 -60 0
33 34 35 36 0
-33 34 -35 36 0
33 -34 35 -36 0
33 34 65 66 0
-33 34 -65 66 0
33 -34 65 -66 0
35 36 43 44 0
-35 36 -43 44 0
35 -36 43 -44 0
35 36 51 52 0
-35 36 -51 52 0
35 -36 51 -52 0
35 36 69 70 0
-35 36 -69 70 0
35 -36 69 -70 0
37 38 51 52 0
-37 38 -51 52 0
37 -38 51 -52 0
37 38 65 66 0
-37 38 -65 66 0
37 -38 65 -66 0
39 40 51 52 0
-39 40 -51 52 0
39 -40 51 -52 0
41 42 47 48 0
-41 42 -47 48 0
41 -42 47 -48 0
41 42 53 54 0
-41 42 -53 54 0
41 -42 53 -54 0
41 42 65 66 0
-41 42 -65 66 0
41 -42 65 -66 0
43 44 49 50 0
-43 44 -49 50 0
43 -44 49 -50 0
43 44 51 52 0
-43 44 -51 52 0
43 -44 51 -52 0
43 44 69 70 0
-43 44 -69 70 0
43 -44 69 -70 0
47 48 69 70 0
-47 48 -69 70 0
47 -48 69 -70 0
49 50 51 52 0
-49 50 -51 52 0
49 -50 51 -52 0
49 50 65 66 0
-49 50 -65 66 0
49 -50 65 -66 0
51 52 59 60 0
-51 52 -59 60 0
51 -52 59 -60 0
53 54 61 62 0
-53 54 -61 62 0
53 -54 61 -62 0
53 54 67 68 0
-53 54 -67 68 0
53 -54 67 -68 0
55 56 69 70 0
-55 56 -69 70 0
55 -56 69 -70 0
59 60 69 70 0
-59 60 -69 70 0
59 -60 69 -70 0
