c family=3-COL n=80 instance=0 seed=145502016 models=6912
c order 17 51 20 47 52 60 57 14 48 68 13 28 61 71 49 38 3 27 65 26 78 66 55 72 41 2 16 19 58 37 59 76 33 4 15 35 1 32 69 23 43 24 7 9 44 12 50 10 54 40 62 30 46 42 21 34 22 25 31 5 63 8 11 73 39 53 74 67 70 64 77 80 6 18 45 56 29 36 79 75
c order 4 55 15 30 10 75 26 21 37 53 36 32 64 29 46 27 6 67 61 41 63 22 44 28 13 76 68 2 60 47 80 78 16 43 31 66 33 72 69 42 65 18 34 3 23 17 35 1 45 62 79 52 19 11 39 12 73 24 54 40 8 71 59 57 51 70 74 25 77 48 58 38 49 20 9 7 14 50 56 5
c order 10 55 37 7 56 53 17 2 47 13 3 26 59 18 54 49 68 66 38 29 8 70 24 12 46 43 61 57 19 31 79 27 48 45 40 65 51 74 64 36 63 20 21 69 44 73 77 80 28 42 71 33 23 62 30 6 5 58 22 32 60 52 41 9 67 76 34 25 4 75 15 14 11 50 35 78 72 16 1 39
c order 78 58 30 20 8 61 57 18 2 79 27 41 3 63 7 38 75 72 33 66 10 54 28 69 36 48 25 67 52 51 29 16 24 55 19 22 34 21 59 56 43 31 42 26 11 44 32 49 62 50 4 5 1 46 13 40 23 37 15 74 76 64 17 53 39 6 70 68 73 12 80 65 77 14 9 71 35 60 47 45
c order 13 29 74 75 2 71 57 68 14 56 76 77 47 30 8 33 61 28 9 70 49 4 19 21 50 65 25 16 34 46 12 54 7 51 39 48 26 31 78 42 1 53 52 24 6 79 60 17 11 80 3 73 43 18 10 69 15 64 5 59 35 62 40 58 45 63 44 36 38 37 27 72 67 32 66 20 22 23 55 41
c order 66 45 36 73 43 40 47 26 68 24 72 25 69 61 74 80 12 37 8 18 71 51 67 34 16 14 11 41 62 44 59 54 9 28 56 76 27 70 3 6 32 7 35 58 30 38 31 65 29 2 33 22 55 63 52 5 75 78 19 53 79 21 10 20 13 60 49 77 39 4 23 1 46 48 57 15 17 64 50 42
c order 1 74 21 11 47 68 51 38 41 42 3 7 15 14 49 18 34 56 70 36 76 33 17 27 63 2 43 58 46 73 24 28 23 53 75 60 19 78 65 13 55 32 8 72 48 67 31 62 79 35 10 5 39 4 59 30 12 77 69 80 22 29 37 54 50 66 52 25 6 45 44 9 16 26 64 40 61 20 57 71
c order 17 22 57 73 34 78 18 31 19 71 55 30 66 75 76 2 33 21 1 64 39 48 50 52 36 80 37 59 62 4 40 14 68 7 63 29 35 61 12 26 56 45 43 54 44 16 65 60 41 15 6 10 70 3 25 38 27 72 11 8 53 24 46 23 74 13 20 77 9 58 28 67 42 51 79 49 5 69 47 32
c order 74 44 8 42 70 43 30 48 66 31 18 11 62 12 65 45 67 68 56 53 79 39 16 7 1 60 78 47 28 40 33 38 72 52 80 29 21 51 69 76 49 26 32 27 73 2 13 36 24 20 23 64 14 58 61 75 6 9 34 37 41 54 3 46 17 19 57 10 4 55 77 25 71 63 59 50 22 15 5 35
c order 8 54 70 66 59 29 58 27 18 17 49 55 31 21 44 56 79 45 6 62 65 76 43 69 74 22 32 57 68 7 16 3 48 23 80 1 51 12 5 67 77 72 61 60 9 30 11 75 50 38 71 2 52 63 39 20 36 53 13 33 26 35 10 25 14 41 34 24 47 4 42 78 37 46 19 73 15 40 28 64
p cnf 80 292
-1 -2 0
-3 -4 0
-5 -6 0
-7 -8 0
-9 -10 0
-11 -12 0
-13 -14 0
-15 -16 0
-17 -18 0
-19 -20 0
-21 -22 0
-23 -24 0
-25 -26 0
-27 -28 0
-29 -30 0
-31 -32 0
-33 -34 0
-35 -36 0
-37 -38 0
-39 -40 0
-41 -42 0
-43 -44 0
-45 -46 0
-47 -48 0
-49 -50 0
-51 -52 0
-53 -54 0
-55 -56 0
-57 -58 0
-59 -60 0
-61 -62 0
-63 -64 0
-65 -66 0
-67 -68 0
-69 -70 0
-71 -72 0
-73 -74 0
-75 -76 0
-77 -78 0
-79 -80 0
1 2 9 10 0
-1 2 -9 10 0
1 -2 9 -10 0
1 2 63 64 0
-1 2 -63 64 0
1 -2 63 -64 0
1 2 73 74 0
-1 2 -73 74 0
1 -2 73 -74 0
3 4 19 20 0
-3 4 -19 20 0
3 -4 19 -20 0
3 4 29 30 0
-3 4 -29 30 0
3 -4 29 -30 0
3 4 35 36 0
-3 4 -35 36 0
3 -4 35 -36 0
3 4 59 60 0
-3 4 -59 60 0
3 -4 59 -60 0
5 6 13 14 0
-5 6 -13 14 0
5 -6 13 -14 0
5 6 27 28 0
-5 6 -27 28 0
5 -6 27 -28 0
5 6 31 32 0
-5 6 -31 32 0
5 -6 31 -32 0
5 6 47 48 0
-5 6 -47 48 0
5 -6 47 -48 0
5 6 53 54 0
-5 6 -53 54 0
5 -6 53 -54 0
5 6 77 78 0
-5 6 -77 78 0
5 -6 77 -78 0
7 8 9 10 0
-7 8 -9 10 0
7 -8 9 -10 0
7 8 39 40 0
-7 8 -39 40 0
7 -8 39 -40 0
7 8 63 64 0
-7 8 -63 64 0
7 -8 63 -64 0
7 8 75 76 0
-7 8 -75 76 0
7 -8 75 -76 0
9 10 31 32 0
-9 10 -31 32 0
9 -10 31 -32 0
9 10 57 58 0
-9 10 -57 58 0
9 -10 57 -58 0
11 12 77 78 0
-11 12 -77 78 0
11 -12 77 -78 0
13 14 17 18 0
-13 14 -17 18 0
13 -14 17 -18 0
13 14 39 40 0
-13 14 -39 40 0
13 -14 39 -40 0
13 14 41 42 0
-13 14 -41 42 0
13 -14 41 -42 0
13 14 69 70 0
-13 14 -69 70 0
13 -14 69 -70 0
13 14 71 72 0
-13 14 -71 72 0
13 -14 71 -72 0
13 14 79 80 0
-13 14 -79 80 0
13 -14 79 -80 0
15 16 31 32 0
-15 16 -31 32 0
15 -16 31 -32 0
15 16 35 36 0
-15 16 -35 36 0
15 -16 35 -36 0
15 16 45 46 0
-15 16 -45 46 0
15 -16 45 -46 0
17 18 31 32 0
-17 18 -31 32 0
17 -18 31 -32 0
17 18 49 50 0
-17 18 -49 50 0
17 -18 49 -50 0
17 18 71 72 0
-17 18 -71 72 0
17 -18 71 -72 0
19 20 21 22 0
-19 20 -21 22 0
19 -20 21 -22 0
19 20 43 44 0
-19 20 -43 44 0
19 -20 43 -44 0
19 20 45 46 0
-19 20 -45 46 0
19 -20 45 -46 0
19 20 65 66 0
-19 20 -65 66 0
19 -20 65 -66 0
19 20 77 78 0
-19 20 -77 78 0
19 -20 77 -78 0
21 22 35 36 0
-21 22 -35 36 0
21 -22 35 -36 0
21 22 71 72 0
-21 22 -71 72 0
21 -22 71 -72 0
23 24 41 42 0
-23 24 -41 42 0
23 -24 41 -42 0
23 24 47 48 0
-23 24 -47 48 0
23 -24 47 -48 0
23 24 73 74 0
-23 24 -73 74 0
23 -24 73 -74 0
25 26 37 38 0
-25 26 -37 38 0
25 -26 37 -38 0
25 26 47 48 0
-25 26 -47 48 0
25 -26 47 -48 0
25 26 71 72 0
-25 26 -71 72 0
25 -26 71 -72 0
27 28 55 56 0
-27 28 -55 56 0
27 -28 55 -56 0
29 30 45 46 0
-29 30 -45 46 0
29 -30 45 -46 0
29 30 59 60 0
-29 30 -59 60 0
29 -30 59 -60 0
31 32 59 60 0
-31 32 -59 60 0
31 -32 59 -60 0
31 32 65 66 0
-31 32 -65 66 0
31 -32 65 -66 0
31 32 69 70 0
-31 32 -69 70 0
31 -32 69 -70 0
33 34 45 46 0
-33 34 -45 46 0
33 -34 45 -46 0
35 36 37 38 0
-35 36 -37 38 0
35 -36 37 -38 0
35 36 41 42 0
-35 36 -41 42 0
35 -36 41 -42 0
35 36 49 50 0
-35 36 -49 50 0
35 -36 49 -50 0
35 36 75 76 0
-35 36 -75 76 0
35 -36 75 -76 0
37 38 63 64 0
-37 38 -63 64 0
37 -38 63 -64 0
37 38 67 68 0
-37 38 -67 68 0
37 -38 67 -68 0
37 38 73 74 0
-37 38 -73 74 0
37 -38 73 -74 0
39 40 41 42 0
-39 40 -41 42 0
39 -40 41 -42 0
39 40 43 44 0
-39 40 -43 44 0
39 -40 43 -44 0
39 40 77 78 0
-39 40 -77 78 0
39 -40 77 -78 0
41 42 59 60 0
-41 42 -59 60 0
41 -42 59 -60 0
43 44 57 58 0
-43 44 -57 58 0
43 -44 57 -58 0
43 44 59 60 0
-43 44 -59 60 0
43 -44 59 -60 0
43 44 75 76 0
-43 44 -75 76 0
43 -44 75 -76 0
45 46 53 54 0
-45 46 -53 54 0
45 -46 53 -54 0
45 46 63 64 0
-45 46 -63 64 0
45 -46 63 -64 0
45 46 79 80 0
-45 46 -79 80 0
45 -46 79 -80 0
47 48 53 54 0
-47 48 -53 54 0
47 -48 53 -54 0
47 48 55 56 0
-47 48 -55 56 0
47 -48 55 -56 0
47 48 79 80 0
-47 48 -79 80 0
47 -48 79 -80 0
49 50 53 54 0
-49 50 -53 54 0
49 -50 53 -54 0
49 50 63 64 0
-49 50 -63 64 0
49 -50 63 -64 0
51 52 57 58 0
-51 52 -57 58 0
51 -52 57 -58 0
53 54 55 56 0
-53 54 -55 56 0
53 -54 55 -56 0
55 56 65 66 0
-55 56 -65 66 0
55 -56 65 -66 0
55 56 75 76 0
-55 56 -75 76 0
55 -56 75 -76 0
55 56 79 80 0
-55 56 -79 80 0
55 -56 79 -80 0
59 60 79 80 0
-59 60 -79 80 0
59 -60 79 -80 0
61 62 63 64 0
-61 62 -63 64 0
61 -62 63 -64 0
63 64 71 72 0
-63 64 -71 72 0
63 -64 71 -72 0
69 70 73 74 0
-69 70 -73 74 0
69 -70 73 -74 0
71 72 75 76 0
-71 72 -75 76 0
71 -72 75 -76 0
