c family=3-COL n=80 instance=6 seed=145502016 models=960
c order 52 25 69 1 57 53 13 14 78 31 11 23 44 77 2 47 79 59 3 49 17 7 39 34 28 33 62 61 36 72 46 66 24 26 40 29 60 48 20 27 38 67 35 71 8 22 5 43 73 70 76 80 30 32 68 65 75 6 15 58 42 74 51 37 45 55 41 4 21 19 64 54 50 16 18 56 63 12 9 10
c order 46 56 64 61 77 32 28 73 71 63 41 19 1 12 27 37 50 80 40 59 47 30 17 76 36 33 15 2 22 60 66 14 78 55 13 7 70 74 4 29 79 25 6 38 45 3 10 62 8 65 42 43 5 20 31 21 44 52 58 54 69 51 26 49 67 34 72 16 24 57 11 39 18 53 48 75 23 68 9 35
c order 70 28 46 21 11 64 6 24 54 14 3 35 43 40 12 61 50 31 73 4 53 25 78 79 51 34 49 58 63 44 15 74 30 68 71 72 60 16 8 32 42 17 9 57 45 62 27 52 10 80 5 26 56 38 1 67 36 2 37 29 18 77 41 75 20 33 39 59 55 7 76 48 47 13 23 65 19 69 22 66
c order 16 30 73 14 37 63 28 38 60 29 74 15 10 67 22 49 69 31 45 35 27 65 7 9 44 80 8 77 62 52 42 1 6 55 54 78 72 13 61 47 66 2 3 25 41 18 12 68 70 34 76 50 23 40 24 48 33 79 4 71 26 43 17 39 46 56 20 36 53 75 11 32 59 58 51 64 57 19 21 5
c order 58 6 28 55 13 45 32 22 47 61 5 34 38 72 73 19 62 2 65 3 18 69 16 64 10 33 4 9 75 21 36 54 51 70 35 50 74 37 48 8 71 63 25 29 26 43 17 40 11 31 27 49 44 59 53 41 52 15 46 23 20 77 42 14 56 66 78 68 60 12 57 24 30 80 67 7 79 1 76 39
c order 25 19 40 54 70 44 68 38 62 3 67 57 79 56 21 16 37 30 60 74 64 80 32 33 71 18 35 50 8 63 24 58 49 39 61 55 23 20 1 47 36 11 12 14 27 78 53 51 15 5 26 2 31 75 45 7 59 9 72 17 73 13 76 6 46 65 28 52 48 29 22 77 66 42 34 10 41 69 43 4
c order 61 35 67 77 64 55 18 39 13 17 44 34 5 36 70 45 11 10 27 49 38 68 48 60 63 47 41 78 50 15 71 54 74 43 65 1 37 33 75 73 20 3 76 40 12 79 8 7 28 19 56 21 24 32 69 16 29 14 4 26 52 58 30 66 46 62 2 42 31 6 72 22 23 25 53 51 9 59 57 80
c order 12 13 15 68 32 65 78 17 23 80 69 8 73 29 1 22 41 64 21 70 20 26 46 14 66 59 27 54 71 51 2 25 11 67 42 39 47 79 3 57 35 44 30 33 31 45 9 58 61 56 7 19 74 48 38 77 75 63 10 52 60 36 18 6 37 50 24 55 16 40 53 43 62 4 49 72 34 76 5 28
c order 3 42 38 9 70 50 17 73 37 40 11 1 41 75 39 20 46 33 15 2 4 34 47 6 67 59 56 65 74 77 16 61 63 5 76 64 58 72 78 29 8 27 12 21 14 25 43 23 79 68 80 18 48 55 53 30 26 44 24 10 7 31 28 62 51 49 19 54 71 45 13 60 36 66 32 57 69 22 35 52
c order 4 7 75 46 31 20 15 71 72 43 26 36 45 14 61 10 42 22 62 30 64 44 37 28 55 57 29 19 70 18 40 68 21 48 41 66 11 1 69 49 50 34 39 32 53 78 73 74 27 24 56 76 67 80 6 79 2 33 38 8 16 5 51 60 65 52 9 59 58 3 47 17 77 54 23 12 13 25 63 35
p cnf 80 292
-1 -2 0
-3 -4 0
-5 -6 0
-7 -8 0
-9 -10 0
-11 -12 0
-13 -14 0
-15 -16 0
-17 -18 0
-19 -20 0
-21 -22 0
-23 -24 0
-25 -26 0
-27 -28 0
-29 -30 0
-31 -32 0
-33 -34 0
-35 -36 0
-37 -38 0
-39 -40 0
-41 -42 0
-43 -44 0
-45 -46 0
-47 -48 0
-49 -50 0
-51 -52 0
-53 -54 0
-55 -56 0
-57 -58 0
-59 -60 0
-61 -62 0
-63 -64 0
-65 -66 0
-67 -68 0
-69 -70 0
-71 -72 0
-73 -74 0
-75 -76 0
-77 -78 0
-79 -80 0
1 2 11 12 0
-1 2 -11 12 0
1 -2 11 -12 0
1 2 45 46 0
-1 2 -45 46 0
1 -2 45 -46 0
1 2 51 52 0
-1 2 -51 52 0
1 -2 51 -52 0
1 2 55 56 0
-1 2 -55 56 0
1 -2 55 -56 0
1 2 69 70 0
-1 2 -69 70 0
1 -2 69 -70 0
3 4 7 8 0
-3 4 -7 8 0
3 -4 7 -8 0
3 4 29 30 0
-3 4 -29 30 0
3 -4 29 -30 0
3 4 59 60 0
-3 4 -59 60 0
3 -4 59 -60 0
5 6 15 16 0
-5 6 -15 16 0
5 -6 15 -16 0
5 6 17 18 0
-5 6 -17 18 0
5 -6 17 -18 0
5 6 47 48 0
-5 6 -47 48 0
5 -6 47 -48 0
5 6 61 62 0
-5 6 -61 62 0
5 -6 61 -62 0
7 8 27 28 0
-7 8 -27 28 0
7 -8 27 -28 0
7 8 43 44 0
-7 8 -43 44 0
7 -8 43 -44 0
9 10 11 12 0
-9 10 -11 12 0
9 -10 11 -12 0
9 10 21 22 0
-9 10 -21 22 0
9 -10 21 -22 0
9 10 31 32 0
-9 10 -31 32 0
9 -10 31 -32 0
9 10 75 76 0
-9 10 -75 76 0
9 -10 75 -76 0
9 10 79 80 0
-9 10 -79 80 0
9 -10 79 -80 0
11 12 43 44 0
-11 12 -43 44 0
11 -12 43 -44 0
11 12 49 50 0
-11 12 -49 50 0
11 -12 49 -50 0
11 12 63 64 0
-11 12 -63 64 0
11 -12 63 -64 0
13 14 27 28 0
-13 14 -27 28 0
13 -14 27 -28 0
13 14 39 40 0
-13 14 -39 40 0
13 -14 39 -40 0
13 14 51 52 0
-13 14 -51 52 0
13 -14 51 -52 0
13 14 59 60 0
-13 14 -59 60 0
13 -14 59 -60 0
15 16 23 24 0
-15 16 -23 24 0
15 -16 23 -24 0
15 16 51 52 0
-15 16 -51 52 0
15 -16 51 -52 0
17 18 19 20 0
-17 18 -19 20 0
17 -18 19 -20 0
17 18 31 32 0
-17 18 -31 32 0
17 -18 31 -32 0
17 18 45 46 0
-17 18 -45 46 0
17 -18 45 -46 0
17 18 51 52 0
-17 18 -51 52 0
17 -18 51 -52 0
17 18 57 58 0
-17 18 -57 58 0
17 -18 57 -58 0
17 18 75 76 0
-17 18 -75 76 0
17 -18 75 -76 0
17 18 79 80 0
-17 18 -79 80 0
17 -18 79 -80 0
19 20 21 22 0
-19 20 -21 22 0
19 -20 21 -22 0
19 20 37 38 0
-19 20 -37 38 0
19 -20 37 -38 0
19 20 51 52 0
-19 20 -51 52 0
19 -20 51 -52 0
19 20 69 70 0
-19 20 -69 70 0
19 -20 69 -70 0
21 22 23 24 0
-21 22 -23 24 0
21 -22 23 -24 0
21 22 39 40 0
-21 22 -39 40 0
21 -22 39 -40 0
21 22 59 60 0
-21 22 -59 60 0
21 -22 59 -60 0
23 24 25 26 0
-23 24 -25 26 0
23 -24 25 -26 0
23 24 33 34 0
-23 24 -33 34 0
23 -24 33 -34 0
23 24 53 54 0
-23 24 -53 54 0
23 -24 53 -54 0
27 28 71 72 0
-27 28 -71 72 0
27 -28 71 -72 0
29 30 35 36 0
-29 30 -35 36 0
29 -30 35 -36 0
29 30 43 44 0
-29 30 -43 44 0
29 -30 43 -44 0
29 30 65 66 0
-29 30 -65 66 0
29 -30 65 -66 0
31 32 47 48 0
-31 32 -47 48 0
31 -32 47 -48 0
31 32 51 52 0
-31 32 -51 52 0
31 -32 51 -52 0
31 32 65 66 0
-31 32 -65 66 0
31 -32 65 -66 0
31 32 71 72 0
-31 32 -71 72 0
31 -32 71 -72 0
33 34 35 36 0
-33 34 -35 36 0
33 -34 35 -36 0
33 34 55 56 0
-33 34 -55 56 0
33 -34 55 -56 0
33 34 69 70 0
-33 34 -69 70 0
33 -34 69 -70 0
33 34 75 76 0
-33 34 -75 76 0
33 -34 75 -76 0
35 36 39 40 0
-35 36 -39 40 0
35 -36 39 -40 0
35 36 77 78 0
-35 36 -77 78 0
35 -36 77 -78 0
37 38 67 68 0
-37 38 -67 68 0
37 -38 67 -68 0
37 38 73 74 0
-37 38 -73 74 0
37 -38 73 -74 0
41 42 51 52 0
-41 42 -51 52 0
41 -42 51 -52 0
43 44 47 48 0
-43 44 -47 48 0
43 -44 47 -48 0
43 44 67 68 0
-43 44 -67 68 0
43 -44 67 -68 0
43 44 73 74 0
-43 44 -73 74 0
43 -44 73 -74 0
45 46 71 72 0
-45 46 -71 72 0
45 -46 71 -72 0
45 46 75 76 0
-45 46 -75 76 0
45 -46 75 -76 0
47 48 51 52 0
-47 48 -51 52 0
47 -48 51 -52 0
47 48 59 60 0
-47 48 -59 60 0
47 -48 59 -60 0
47 48 71 72 0
-47 48 -71 72 0
47 -48 71 -72 0
47 48 79 80 0
-47 48 -79 80 0
47 -48 79 -80 0
49 50 63 64 0
-49 50 -63 64 0
49 -50 63 -64 0
49 50 69 70 0
-49 50 -69 70 0
49 -50 69 -70 0
51 52 53 54 0
-51 52 -53 54 0
51 -52 53 -54 0
53 54 57 58 0
-53 54 -57 58 0
53 -54 57 -58 0
53 54 59 60 0
-53 54 -59 60 0
53 -54 59 -60 0
53 54 65 66 0
-53 54 -65 66 0
53 -54 65 -66 0
55 56 69 70 0
-55 56 -69 70 0
55 -56 69 -70 0
55 56 71 72 0
-55 56 -71 72 0
55 -56 71 -72 0
59 60 67 68 0
-59 60 -67 68 0
59 -60 67 -68 0
63 64 67 68 0
-63 64 -67 68 0
63 -64 67 -68 0
67 68 71 72 0
-67 68 -71 72 0
67 -68 71 -72 0
71 72 79 80 0
-71 72 -79 80 0
71 -72 79 -80 0
73 74 77 78 0
-73 74 -77 78 0
73 -74 77 -78 0
