c family=3-COL n=80 instance=2 seed=145502016 models=3840
c order 3 68 18 49 71 58 1 63 14 34 54 53 64 29 27 19 57 39 31 47 32 30 26 16 59 38 77 67 24 10 4 9 80 15 56 55 2 75 8 17 5 70 66 28 78 12 45 73 42 22 46 36 6 11 23 7 65 41 35 40 51 62 76 20 61 74 25 69 72 43 44 52 21 60 48 79 37 13 50 33
c order 64 62 30 23 21 53 47 3 46 61 18 32 44 33 25 10 28 52 16 34 60 65 76 67 6 45 79 31 14 38 37 43 75 35 26 20 5 55 19 80 71 42 11 63 7 78 57 73 50 39 49 54 69 36 12 2 13 74 48 17 9 72 27 77 58 40 8 70 1 24 68 29 4 15 56 66 41 22 59 51
c order 19 41 73 21 57 47 61 2 75 4 31 24 65 70 59 13 3 63 15 27 33 14 62 56 36 54 66 26 40 12 67 77 52 35 1 48 39 51 43 69 58 46 71 44 72 11 74 38 79 64 37 8 50 5 18 23 42 78 6 22 45 76 53 16 17 10 28 30 49 55 32 68 60 80 29 7 9 25 20 34
c order 57 12 30 76 65 64 62 11 71 77 54 37 46 16 31 17 24 70 40 47 61 32 48 39 22 21 69 51 10 49 33 72 14 43 80 27 41 68 79 6 60 19 45 25 58 34 42 23 55 75 2 35 28 26 73 66 67 1 74 20 59 53 9 18 38 44 13 36 5 63 29 3 50 15 7 78 56 8 4 52
c order 78 59 10 62 63 1 14 69 9 35 27 53 28 3 46 38 64 4 7 50 40 26 32 37 44 11 2 39 42 73 76 47 57 36 31 24 79 65 43 19 5 56 34 33 71 8 67 58 61 51 77 6 21 23 20 41 55 17 25 74 16 52 13 29 15 60 72 22 75 48 70 49 12 18 54 45 30 66 80 68
c order 7 72 40 23 56 63 26 57 42 16 8 13 48 14 25 51 78 74 41 61 45 46 55 32 38 70 15 49 62 36 37 79 28 20 66 35 12 31 29 22 59 44 53 69 73 2 58 71 43 24 54 34 60 77 27 64 50 6 17 75 18 47 67 11 10 76 52 4 39 21 33 1 5 30 9 3 19 68 65 80
c order 46 58 45 66 54 80 23 72 49 48 31 16 70 36 33 6 75 10 20 13 71 47 26 19 57 4 56 11 67 50 65 39 73 28 14 43 25 74 15 37 61 34 27 35 18 29 2 8 7 32 17 62 21 3 5 42 79 64 9 78 40 24 22 51 53 59 55 1 30 69 60 63 44 77 52 38 68 76 41 12
c order 64 37 27 55 45 62 43 19 11 9 57 42 33 76 29 46 36 58 74 21 41 31 47 75 3 71 14 59 53 6 80 24 5 50 61 51 65 15 23 52 48 68 8 18 72 40 2 66 28 25 12 73 77 4 69 49 10 63 38 35 13 22 70 78 39 44 60 54 34 1 20 26 17 7 67 16 30 32 56 79
c order 50 40 65 64 53 56 76 58 70 29 16 32 73 33 45 46 80 20 62 78 75 28 19 52 13 34 24 23 10 66 27 31 74 2 38 57 47 30 59 36 5 11 72 63 79 9 18 41 17 44 61 60 68 55 54 25 42 21 26 39 49 6 35 14 22 37 15 69 1 12 4 8 43 67 77 71 48 7 51 3
c order 1 34 15 75 26 2 27 68 62 5 76 39 74 25 44 55 61 42 69 79 48 13 19 14 22 33 32 24 8 6 23 57 35 11 28 67 65 80 37 38 72 4 9 70 29 54 41 71 18 52 58 31 66 46 30 7 50 56 49 16 45 47 12 64 53 40 21 63 78 36 77 3 20 73 51 10 43 60 17 59
p cnf 80 292
-1 -2 0
-3 -4 0
-5 -6 0
-7 -8 0
-9 -10 0
-11 -12 0
-13 -14 0
-15 -16 0
-17 -18 0
-19 -20 0
-21 -22 0
-23 -24 0
-25 -26 0
-27 -28 0
-29 -30 0
-31 -32 0
-33 -34 0
-35 -36 0
-37 -38 0
-39 -40 0
-41 -42 0
-43 -44 0
-45 -46 0
-47 -48 0
-49 -50 0
-51 -52 0
-53 -54 0
-55 -56 0
-57 -58 0
-59 -60 0
-61 -62 0
-63 -64 0
-65 -66 0
-67 -68 0
-69 -70 0
-71 -72 0
-73 -74 0
-75 -76 0
-77 -78 0
-79 -80 0
1 2 5 6 0
-1 2 -5 6 0
1 -2 5 -6 0
1 2 11 12 0
-1 2 -11 12 0
1 -2 11 -12 0
1 2 79 80 0
-1 2 -79 80 0
1 -2 79 -80 0
3 4 5 6 0
-3 4 -5 6 0
3 -4 5 -6 0
3 4 11 12 0
-3 4 -11 12 0
3 -4 11 -12 0
3 4 15 16 0
-3 4 -15 16 0
3 -4 15 -16 0
3 4 27 28 0
-3 4 -27 28 0
3 -4 27 -28 0
3 4 41 42 0
-3 4 -41 42 0
3 -4 41 -42 0
3 4 55 56 0
-3 4 -55 56 0
3 -4 55 -56 0
3 4 77 78 0
-3 4 -77 78 0
3 -4 77 -78 0
5 6 9 10 0
-5 6 -9 10 0
5 -6 9 -10 0
5 6 27 28 0
-5 6 -27 28 0
5 -6 27 -28 0
7 8 21 22 0
-7 8 -21 22 0
7 -8 21 -22 0
7 8 43 44 0
-7 8 -43 44 0
7 -8 43 -44 0
7 8 49 50 0
-7 8 -49 50 0
7 -8 49 -50 0
7 8 65 66 0
-7 8 -65 66 0
7 -8 65 -66 0
9 10 11 12 0
-9 10 -11 12 0
9 -10 11 -12 0
9 10 45 46 0
-9 10 -45 46 0
9 -10 45 -46 0
9 10 71 72 0
-9 10 -71 72 0
9 -10 71 -72 0
11 12 17 18 0
-11 12 -17 18 0
11 -12 17 -18 0
11 12 47 48 0
-11 12 -47 48 0
11 -12 47 -48 0
11 12 55 56 0
-11 12 -55 56 0
11 -12 55 -56 0
11 12 57 58 0
-11 12 -57 58 0
11 -12 57 -58 0
11 12 59 60 0
-11 12 -59 60 0
11 -12 59 -60 0
13 14 55 56 0
-13 14 -55 56 0
13 -14 55 -56 0
13 14 71 72 0
-13 14 -71 72 0
13 -14 71 -72 0
15 16 31 32 0
-15 16 -31 32 0
15 -16 31 -32 0
15 16 37 38 0
-15 16 -37 38 0
15 -16 37 -38 0
15 16 59 60 0
-15 16 -59 60 0
15 -16 59 -60 0
15 16 61 62 0
-15 16 -61 62 0
15 -16 61 -62 0
17 18 21 22 0
-17 18 -21 22 0
17 -18 21 -22 0
17 18 47 48 0
-17 18 -47 48 0
17 -18 47 -48 0
17 18 59 60 0
-17 18 -59 60 0
17 -18 59 -60 0
19 20 51 52 0
-19 20 -51 52 0
19 -20 51 -52 0
19 20 57 58 0
-19 20 -57 58 0
19 -20 57 -58 0
21 22 43 44 0
-21 22 -43 44 0
21 -22 43 -44 0
21 22 63 64 0
-21 22 -63 64 0
21 -22 63 -64 0
21 22 67 68 0
-21 22 -67 68 0
21 -22 67 -68 0
23 24 35 36 0
-23 24 -35 36 0
23 -24 35 -36 0
23 24 47 48 0
-23 24 -47 48 0
23 -24 47 -48 0
23 24 55 56 0
-23 24 -55 56 0
23 -24 55 -56 0
23 24 57 58 0
-23 24 -57 58 0
23 -24 57 -58 0
23 24 77 78 0
-23 24 -77 78 0
23 -24 77 -78 0
25 26 45 46 0
-25 26 -45 46 0
25 -26 45 -46 0
25 26 67 68 0
-25 26 -67 68 0
25 -26 67 -68 0
27 28 49 50 0
-27 28 -49 50 0
27 -28 49 -50 0
27 28 57 58 0
-27 28 -57 58 0
27 -28 57 -58 0
29 30 33 34 0
-29 30 -33 34 0
29 -30 33 -34 0
29 30 39 40 0
-29 30 -39 40 0
29 -30 39 -40 0
29 30 67 68 0
-29 30 -67 68 0
29 -30 67 -68 0
31 32 35 36 0
-31 32 -35 36 0
31 -32 35 -36 0
31 32 71 72 0
-31 32 -71 72 0
31 -32 71 -72 0
33 34 47 48 0
-33 34 -47 48 0
33 -34 47 -48 0
35 36 41 42 0
-35 36 -41 42 0
35 -36 41 -42 0
35 36 59 60 0
-35 36 -59 60 0
35 -36 59 -60 0
35 36 73 74 0
-35 36 -73 74 0
35 -36 73 -74 0
37 38 41 42 0
-37 38 -41 42 0
37 -38 41 -42 0
37 38 57 58 0
-37 38 -57 58 0
37 -38 57 -58 0
37 38 61 62 0
-37 38 -61 62 0
37 -38 61 -62 0
37 38 67 68 0
-37 38 -67 68 0
37 -38 67 -68 0
37 38 77 78 0
-37 38 -77 78 0
37 -38 77 -78 0
39 40 77 78 0
-39 40 -77 78 0
39 -40 77 -78 0
41 42 45 46 0
-41 42 -45 46 0
41 -42 45 -46 0
43 44 47 48 0
-43 44 -47 48 0
43 -44 47 -48 0
43 44 53 54 0
-43 44 -53 54 0
43 -44 53 -54 0
43 44 55 56 0
-43 44 -55 56 0
43 -44 55 -56 0
43 44 57 58 0
-43 44 -57 58 0
43 -44 57 -58 0
43 44 59 60 0
-43 44 -59 60 0
43 -44 59 -60 0
43 44 61 62 0
-43 44 -61 62 0
43 -44 61 -62 0
43 44 69 70 0
-43 44 -69 70 0
43 -44 69 -70 0
43 44 71 72 0
-43 44 -71 72 0
43 -44 71 -72 0
43 44 73 74 0
-43 44 -73 74 0
43 -44 73 -74 0
43 44 77 78 0
-43 44 -77 78 0
43 -44 77 -78 0
45 46 71 72 0
-45 46 -71 72 0
45 -46 71 -72 0
55 56 63 64 0
-55 56 -63 64 0
55 -56 63 -64 0
55 56 69 70 0
-55 56 -69 70 0
55 -56 69 -70 0
57 58 73 74 0
-57 58 -73 74 0
57 -58 73 -74 0
59 60 75 76 0
-59 60 -75 76 0
59 -60 75 -76 0
61 62 65 66 0
-61 62 -65 66 0
61 -62 65 -66 0
63 64 65 66 0
-63 64 -65 66 0
63 -64 65 -66 0
63 64 67 68 0
-63 64 -67 68 0
63 -64 67 -68 0
65 66 73 74 0
-65 66 -73 74 0
65 -66 73 -74 0
65 66 77 78 0
-65 66 -77 78 0
65 -66 77 -78 0
69 70 71 72 0
-69 70 -71 72 0
69 -70 71 -72 0
