c family=3-COL n=80 instance=7 seed=145502016 models=6102
c order 59 55 62 70 19 67 15 32 37 27 13 43 14 45 10 65 16 9 76 42 21 7 77 47 49 61 24 48 54 20 23 33 73 3 44 41 57 6 69 2 26 22 64 12 50 36 68 5 30 11 74 35 56 80 8 60 38 79 51 17 46 71 66 63 52 78 75 31 34 4 53 28 39 58 72 29 18 1 25 40
c order 29 66 42 61 54 68 28 52 8 33 19 53 4 11 67 40 80 26 72 51 55 2 15 62 41 23 10 32 47 75 7 79 25 27 20 38 13 34 43 65 77 63 21 73 74 18 48 64 69 60 14 3 37 30 22 5 44 39 36 76 35 46 70 24 9 6 16 1 49 17 59 45 56 57 50 78 12 71 58 31
c order 4 23 57 46 45 11 41 47 51 62 36 9 55 50 35 67 20 54 15 70 49 77 60 1 44 31 32 39 80 43 42 68 72 13 6 3 74 63 22 29 64 58 14 56 37 18 69 17 30 25 38 40 21 12 61 65 79 10 24 53 5 19 2 27 66 59 73 75 7 78 28 8 33 48 16 71 76 26 52 34
c order 41 79 9 26 44 27 43 36 5 63 65 78 22 30 40 39 15 25 17 7 75 73 69 20 24 57 38 6 10 18 48 76 58 34 49 52 8 47 72 28 80 74 11 60 21 62 12 71 70 32 66 46 67 53 3 37 2 31 14 59 33 55 45 23 61 4 51 77 64 16 50 68 54 19 29 35 42 13 1 56
c order 68 47 54 56 25 73 67 32 14 66 74 62 7 2 21 34 61 38 12 3 4 16 27 44 40 49 6 37 23 55 1 24 39 57 22 31 72 70 60 50 77 52 36 29 64 11 9 13 43 80 30 48 69 5 46 19 76 71 33 8 26 42 75 63 20 53 41 10 15 51 65 35 58 18 78 59 45 17 28 79
c order 17 24 67 25 71 23 33 11 35 8 65 10 7 74 21 20 5 43 78 73 9 46 63 15 3 47 49 62 48 55 14 58 44 79 31 42 57 32 38 54 53 22 76 51 45 19 16 13 52 61 6 72 69 29 1 80 36 59 28 37 64 50 66 26 39 75 2 4 34 41 40 18 27 60 70 30 12 77 68 56
c order 53 2 54 64 38 45 7 18 13 75 77 74 11 22 60 48 24 41 29 37 80 79 1 28 34 14 30 10 43 61 76 69 59 63 50 56 57 51 40 44 68 8 23 42 47 15 4 62 49 27 5 20 65 71 19 25 39 3 78 58 9 70 33 12 36 17 52 46 55 66 73 26 16 21 32 35 67 6 72 31
c order 78 5 52 51 64 4 15 21 68 49 40 2 66 3 7 50 41 46 58 26 32 22 16 54 24 19 11 77 1 25 6 60 8 28 43 35 80 23 57 34 39 72 31 13 30 10 75 38 59 63 36 71 61 48 62 37 14 73 44 79 33 29 76 45 20 69 67 70 47 17 65 18 42 53 55 56 27 74 9 12
c order 77 13 1 30 38 29 80 25 40 26 14 36 71 16 57 27 31 7 78 62 9 72 17 34 50 55 39 65 35 5 48 63 79 53 73 45 74 21 6 42 15 8 32 61 11 60 22 75 2 20 51 59 68 67 44 70 3 41 69 66 64 37 43 4 54 24 56 28 47 19 58 18 76 12 52 49 23 10 46 33
c order 32 49 70 68 35 31 65 12 62 2 29 79 45 23 15 76 54 64 75 37 40 60 20 16 10 80 19 61 5 66 67 1 50 44 69 25 36 48 53 4 28 18 74 34 71 24 59 57 78 22 33 51 11 73 46 30 63 9 42 27 55 52 47 21 6 7 39 72 43 56 41 38 58 17 77 3 14 8 13 26
p cnf 80 292
-1 -2 0
-3 -4 0
-5 -6 0
-7 -8 0
-9 -10 0
-11 -12 0
-13 -14 0
-15 -16 0
-17 -18 0
-19 -20 0
-21 -22 0
-23 -24 0
-25 -26 0
-27 -28 0
-29 -30 0
-31 -32 0
-33 -34 0
-35 -36 0
-37 -38 0
-39 -40 0
-41 -42 0
-43 -44 0
-45 -46 0
-47 -48 0
-49 -50 0
-51 -52 0
-53 -54 0
-55 -56 0
-57 -58 0
-59 -60 0
-61 -62 0
-63 -64 0
-65 -66 0
-67 -68 0
-69 -70 0
-71 -72 0
-73 -74 0
-75 -76 0
-77 -78 0
-79 -80 0
1 2 35 36 0
-1 2 -35 36 0
1 -2 35 -36 0
1 2 45 46 0
-1 2 -45 46 0
1 -2 45 -46 0
1 2 63 64 0
-1 2 -63 64 0
1 -2 63 -64 0
3 4 9 10 0
-3 4 -9 10 0
3 -4 9 -10 0
3 4 17 18 0
-3 4 -17 18 0
3 -4 17 -18 0
3 4 33 34 0
-3 4 -33 34 0
3 -4 33 -34 0
3 4 57 58 0
-3 4 -57 58 0
3 -4 57 -58 0
3 4 59 60 0
-3 4 -59 60 0
3 -4 59 -60 0
5 6 15 16 0
-5 6 -15 16 0
5 -6 15 -16 0
5 6 21 22 0
-5 6 -21 22 0
5 -6 21 -22 0
5 6 63 64 0
-5 6 -63 64 0
5 -6 63 -64 0
7 8 13 14 0
-7 8 -13 14 0
7 -8 13 -14 0
7 8 65 66 0
-7 8 -65 66 0
7 -8 65 -66 0
7 8 73 74 0
-7 8 -73 74 0
7 -8 73 -74 0
9 10 13 14 0
-9 10 -13 14 0
9 -10 13 -14 0
9 10 53 54 0
-9 10 -53 54 0
9 -10 53 -54 0
9 10 59 60 0
-9 10 -59 60 0
9 -10 59 -60 0
11 12 25 26 0
-11 12 -25 26 0
11 -12 25 -26 0
11 12 35 36 0
-11 12 -35 36 0
11 -12 35 -36 0
11 12 73 74 0
-11 12 -73 74 0
11 -12 73 -74 0
11 12 75 76 0
-11 12 -75 76 0
11 -12 75 -76 0
11 12 77 78 0
-11 12 -77 78 0
11 -12 77 -78 0
11 12 79 80 0
-11 12 -79 80 0
11 -12 79 -80 0
13 14 67 68 0
-13 14 -67 68 0
13 -14 67 -68 0
15 16 35 36 0
-15 16 -35 36 0
15 -16 35 -36 0
15 16 63 64 0
-15 16 -63 64 0
15 -16 63 -64 0
15 16 79 80 0
-15 16 -79 80 0
15 -16 79 -80 0
17 18 35 36 0
-17 18 -35 36 0
17 -18 35 -36 0
17 18 57 58 0
-17 18 -57 58 0
17 -18 57 -58 0
17 18 65 66 0
-17 18 -65 66 0
17 -18 65 -66 0
19 20 31 32 0
-19 20 -31 32 0
19 -20 31 -32 0
19 20 43 44 0
-19 20 -43 44 0
19 -20 43 -44 0
21 22 35 36 0
-21 22 -35 36 0
21 -22 35 -36 0
21 22 45 46 0
-21 22 -45 46 0
21 -22 45 -46 0
21 22 59 60 0
-21 22 -59 60 0
21 -22 59 -60 0
21 22 75 76 0
-21 22 -75 76 0
21 -22 75 -76 0
23 24 31 32 0
-23 24 -31 32 0
23 -24 31 -32 0
23 24 35 36 0
-23 24 -35 36 0
23 -24 35 -36 0
23 24 41 42 0
-23 24 -41 42 0
23 -24 41 -42 0
23 24 47 48 0
-23 24 -47 48 0
23 -24 47 -48 0
23 24 75 76 0
-23 24 -75 76 0
23 -24 75 -76 0
25 26 63 64 0
-25 26 -63 64 0
25 -26 63 -64 0
27 28 39 40 0
-27 28 -39 40 0
27 -28 39 -40 0
27 28 41 42 0
-27 28 -41 42 0
27 -28 41 -42 0
27 28 61 62 0
-27 28 -61 62 0
27 -28 61 -62 0
29 30 43 44 0
-29 30 -43 44 0
29 -30 43 -44 0
29 30 57 58 0
-29 30 -57 58 0
29 -30 57 -58 0
29 30 63 64 0
-29 30 -63 64 0
29 -30 63 -64 0
31 32 41 42 0
-31 32 -41 42 0
31 -32 41 -42 0
31 32 49 50 0
-31 32 -49 50 0
31 -32 49 -50 0
33 34 41 42 0
-33 34 -41 42 0
33 -34 41 -42 0
33 34 61 62 0
-33 34 -61 62 0
33 -34 61 -62 0
35 36 53 54 0
-35 36 -53 54 0
35 -36 53 -54 0
35 36 61 62 0
-35 36 -61 62 0
35 -36 61 -62 0
37 38 43 44 0
-37 38 -43 44 0
37 -38 43 -44 0
37 38 45 46 0
-37 38 -45 46 0
37 -38 45 -46 0
37 38 61 62 0
-37 38 -61 62 0
37 -38 61 -62 0
37 38 65 66 0
-37 38 -65 66 0
37 -38 65 -66 0
37 38 71 72 0
-37 38 -71 72 0
37 -38 71 -72 0
39 40 79 80 0
-39 40 -79 80 0
39 -40 79 -80 0
41 42 53 54 0
-41 42 -53 54 0
41 -42 53 -54 0
43 44 69 70 0
-43 44 -69 70 0
43 -44 69 -70 0
45 46 71 72 0
-45 46 -71 72 0
45 -46 71 -72 0
47 48 51 52 0
-47 48 -51 52 0
47 -48 51 -52 0
49 50 51 52 0
-49 50 -51 52 0
49 -50 51 -52 0
49 50 77 78 0
-49 50 -77 78 0
49 -50 77 -78 0
51 52 61 62 0
-51 52 -61 62 0
51 -52 61 -62 0
51 52 63 64 0
-51 52 -63 64 0
51 -52 63 -64 0
51 52 71 72 0
-51 52 -71 72 0
51 -52 71 -72 0
51 52 75 76 0
-51 52 -75 76 0
51 -52 75 -76 0
57 58 61 62 0
-57 58 -61 62 0
57 -58 61 -62 0
57 58 65 66 0
-57 58 -65 66 0
57 -58 65 -66 0
57 58 67 68 0
-57 58 -67 68 0
57 -58 67 -68 0
57 58 69 70 0
-57 58 -69 70 0
57 -58 69 -70 0
61 62 69 70 0
-61 62 -69 70 0
61 -62 69 -70 0
61 62 73 74 0
-61 62 -73 74 0
61 -62 73 -74 0
61 62 75 76 0
-61 62 -75 76 0
61 -62 75 -76 0
63 64 67 68 0
-63 64 -67 68 0
63 -64 67 -68 0
63 64 71 72 0
-63 64 -71 72 0
63 -64 71 -72 0
63 64 77 78 0
-63 64 -77 78 0
63 -64 77 -78 0
65 66 69 70 0
-65 66 -69 70 0
65 -66 69 -70 0
67 68 69 70 0
-67 68 -69 70 0
67 -68 69 -70 0
67 68 73 74 0
-67 68 -73 74 0
67 -68 73 -74 0
73 74 79 80 0
-73 74 -79 80 0
73 -74 79 -80 0
