c family=3-COL n=80 instance=1 seed=145502016 models=10224
c order 4 26 12 80 78 51 43 23 30 36 44 73 37 64 48 74 57 13 68 67 54 21 70 71 75 1 17 58 34 5 42 9 15 79 55 32 63 50 62 39 35 29 61 8 49 47 6 41 38 45 22 66 18 77 11 40 10 33 52 65 76 24 46 20 69 28 53 3 31 60 56 7 19 27 72 14 25 2 16 59
c order 12 9 61 70 74 39 20 67 80 29 69 55 13 15 63 71 31 41 23 62 77 32 58 51 36 33 57 50 22 43 35 21 46 11 8 24 52 59 10 27 5 14 17 73 19 6 49 75 42 30 56 78 34 47 26 2 53 4 25 45 1 3 48 79 28 60 37 40 65 66 38 16 54 72 44 68 76 7 64 18
c order 5 35 39 37 32 14 18 15 77 71 59 73 56 11 2 67 7 43 29 76 60 74 12 30 55 58 16 40 48 33 46 6 23 47 27 80 50 68 4 75 51 62 42 17 20 44 38 78 10 26 36 25 8 52 53 79 22 69 31 49 41 21 19 1 34 9 66 24 65 13 28 63 45 70 54 61 57 3 64 72
c order 56 43 78 10 74 80 75 28 15 72 2 31 12 46 65 17 25 30 64 34 52 22 27 57 55 70 21 54 5 37 50 68 66 51 53 32 47 45 14 33 18 73 79 42 48 24 23 1 60 16 13 19 44 41 20 61 38 63 59 77 40 39 4 76 35 71 36 29 9 49 8 69 6 3 62 67 58 26 7 11
c order 24 53 19 7 47 77 80 46 15 68 62 22 5 36 11 67 17 13 43 33 18 55 70 28 56 75 69 8 1 50 26 60 64 2 54 31 63 41 37 40 44 16 35 14 61 65 38 73 51 27 49 76 57 21 66 72 74 23 78 79 71 25 32 20 12 45 39 52 30 10 9 42 4 48 34 3 29 58 6 59
c order 60 22 55 63 58 25 14 38 21 69 4 79 26 61 1 7 28 15 37 45 52 74 27 46 30 3 66 13 56 32 65 68 80 23 44 75 2 42 24 5 34 76 17 71 9 19 33 36 39 49 50 35 73 11 64 78 70 54 10 8 12 77 57 16 31 41 18 51 20 6 67 40 72 53 47 59 62 48 43 29
c order 71 60 39 75 38 41 69 55 79 44 10 51 78 32 5 26 1 77 68 11 56 17 23 36 65 6 18 47 59 12 80 72 13 31 66 57 64 53 33 8 63 40 34 74 48 67 42 46 24 7 29 22 2 30 37 20 50 3 61 73 14 25 35 9 15 49 16 28 27 70 52 45 76 58 4 21 54 62 43 19
c order 33 18 39 16 5 12 40 27 23 63 8 57 24 48 17 46 19 62 29 50 75 25 21 15 20 34 79 76 47 7 51 77 64 11 3 44 74 73 13 56 22 31 72 60 10 68 70 4 14 36 43 66 32 71 2 42 59 45 80 6 61 37 28 55 53 41 49 38 35 65 58 26 69 9 67 52 78 30 1 54
c order 76 45 22 70 73 20 2 75 32 8 35 71 57 61 41 25 28 39 5 3 62 14 46 11 36 30 16 54 74 67 77 23 80 48 17 47 21 43 7 55 37 24 9 51 33 26 50 44 19 69 38 15 63 6 10 49 58 68 34 31 59 79 65 27 66 64 72 60 12 42 78 53 52 4 1 40 29 13 56 18
c order 18 11 41 4 19 15 2 78 22 57 56 45 53 60 65 37 43 59 8 10 40 49 54 58 3 33 77 46 67 47 50 27 66 79 6 48 42 74 7 14 28 17 52 9 70 61 29 36 69 51 13 12 20 34 38 32 55 1 44 25 23 71 73 63 39 75 76 31 72 5 68 26 35 16 30 62 21 80 64 24
p cnf 80 292
-1 -2 0
-3 -4 0
-5 -6 0
-7 -8 0
-9 -10 0
-11 -12 0
-13 -14 0
-15 -16 0
-17 -18 0
-19 -20 0
-21 -22 0
-23 -24 0
-25 -26 0
-27 -28 0
-29 -30 0
-31 -32 0
-33 -34 0
-35 -36 0
-37 -38 0
-39 -40 0
-41 -42 0
-43 -44 0
-45 -46 0
-47 -48 0
-49 -50 0
-51 -52 0
-53 -54 0
-55 -56 0
-57 -58 0
-59 -60 0
-61 -62 0
-63 -64 0
-65 -66 0
-67 -68 0
-69 -70 0
-71 -72 0
-73 -74 0
-75 -76 0
-77 -78 0
-79 -80 0
1 2 3 4 0
-1 2 -3 4 0
1 -2 3 -4 0
1 2 41 42 0
-1 2 -41 42 0
1 -2 41 -42 0
1 2 47 48 0
-1 2 -47 48 0
1 -2 47 -48 0
3 4 33 34 0
-3 4 -33 34 0
3 -4 33 -34 0
3 4 37 38 0
-3 4 -37 38 0
3 -4 37 -38 0
3 4 51 52 0
-3 4 -51 52 0
3 -4 51 -52 0
3 4 71 72 0
-3 4 -71 72 0
3 -4 71 -72 0
5 6 11 12 0
-5 6 -11 12 0
5 -6 11 -12 0
5 6 25 26 0
-5 6 -25 26 0
5 -6 25 -26 0
5 6 33 34 0
-5 6 -33 34 0
5 -6 33 -34 0
5 6 47 48 0
-5 6 -47 48 0
5 -6 47 -48 0
5 6 51 52 0
-5 6 -51 52 0
5 -6 51 -52 0
5 6 55 56 0
-5 6 -55 56 0
5 -6 55 -56 0
5 6 65 66 0
-5 6 -65 66 0
5 -6 65 -66 0
5 6 77 78 0
-5 6 -77 78 0
5 -6 77 -78 0
7 8 27 28 0
-7 8 -27 28 0
7 -8 27 -28 0
7 8 57 58 0
-7 8 -57 58 0
7 -8 57 -58 0
7 8 63 64 0
-7 8 -63 64 0
7 -8 63 -64 0
7 8 79 80 0
-7 8 -79 80 0
7 -8 79 -80 0
9 10 23 24 0
-9 10 -23 24 0
9 -10 23 -24 0
9 10 29 30 0
-9 10 -29 30 0
9 -10 29 -30 0
9 10 49 50 0
-9 10 -49 50 0
9 -10 49 -50 0
11 12 19 20 0
-11 12 -19 20 0
11 -12 19 -20 0
11 12 35 36 0
-11 12 -35 36 0
11 -12 35 -36 0
11 12 55 56 0
-11 12 -55 56 0
11 -12 55 -56 0
13 14 15 16 0
-13 14 -15 16 0
13 -14 15 -16 0
13 14 21 22 0
-13 14 -21 22 0
13 -14 21 -22 0
13 14 25 26 0
-13 14 -25 26 0
13 -14 25 -26 0
13 14 49 50 0
-13 14 -49 50 0
13 -14 49 -50 0
13 14 67 68 0
-13 14 -67 68 0
13 -14 67 -68 0
13 14 71 72 0
-13 14 -71 72 0
13 -14 71 -72 0
15 16 33 34 0
-15 16 -33 34 0
15 -16 33 -34 0
15 16 59 60 0
-15 16 -59 60 0
15 -16 59 -60 0
15 16 75 76 0
-15 16 -75 76 0
15 -16 75 -76 0
17 18 37 38 0
-17 18 -37 38 0
17 -18 37 -38 0
17 18 73 74 0
-17 18 -73 74 0
17 -18 73 -74 0
19 20 47 48 0
-19 20 -47 48 0
19 -20 47 -48 0
19 20 55 56 0
-19 20 -55 56 0
19 -20 55 -56 0
19 20 57 58 0
-19 20 -57 58 0
19 -20 57 -58 0
21 22 31 32 0
-21 22 -31 32 0
21 -22 31 -32 0
21 22 55 56 0
-21 22 -55 56 0
21 -22 55 -56 0
21 22 75 76 0
-21 22 -75 76 0
21 -22 75 -76 0
23 24 63 64 0
-23 24 -63 64 0
23 -24 63 -64 0
25 26 29 30 0
-25 26 -29 30 0
25 -26 29 -30 0
25 26 53 54 0
-25 26 -53 54 0
25 -26 53 -54 0
27 28 33 34 0
-27 28 -33 34 0
27 -28 33 -34 0
27 28 35 36 0
-27 28 -35 36 0
27 -28 35 -36 0
27 28 51 52 0
-27 28 -51 52 0
27 -28 51 -52 0
27 28 53 54 0
-27 28 -53 54 0
27 -28 53 -54 0
27 28 57 58 0
-27 28 -57 58 0
27 -28 57 -58 0
27 28 61 62 0
-27 28 -61 62 0
27 -28 61 -62 0
29 30 49 50 0
-29 30 -49 50 0
29 -30 49 -50 0
29 30 71 72 0
-29 30 -71 72 0
29 -30 71 -72 0
31 32 39 40 0
-31 32 -39 40 0
31 -32 39 -40 0
31 32 47 48 0
-31 32 -47 48 0
31 -32 47 -48 0
31 32 61 62 0
-31 32 -61 62 0
31 -32 61 -62 0
33 34 43 44 0
-33 34 -43 44 0
33 -34 43 -44 0
33 34 47 48 0
-33 34 -47 48 0
33 -34 47 -48 0
33 34 61 62 0
-33 34 -61 62 0
33 -34 61 -62 0
33 34 79 80 0
-33 34 -79 80 0
33 -34 79 -80 0
35 36 47 48 0
-35 36 -47 48 0
35 -36 47 -48 0
35 36 67 68 0
-35 36 -67 68 0
35 -36 67 -68 0
35 36 73 74 0
-35 36 -73 74 0
35 -36 73 -74 0
37 38 45 46 0
-37 38 -45 46 0
37 -38 45 -46 0
37 38 53 54 0
-37 38 -53 54 0
37 -38 53 -54 0
37 38 57 58 0
-37 38 -57 58 0
37 -38 57 -58 0
39 40 43 44 0
-39 40 -43 44 0
39 -40 43 -44 0
39 40 49 50 0
-39 40 -49 50 0
39 -40 49 -50 0
39 40 59 60 0
-39 40 -59 60 0
39 -40 59 -60 0
39 40 67 68 0
-39 40 -67 68 0
39 -40 67 -68 0
41 42 51 52 0
-41 42 -51 52 0
41 -42 51 -52 0
43 44 53 54 0
-43 44 -53 54 0
43 -44 53 -54 0
43 44 73 74 0
-43 44 -73 74 0
43 -44 73 -74 0
45 46 67 68 0
-45 46 -67 68 0
45 -46 67 -68 0
47 48 75 76 0
-47 48 -75 76 0
47 -48 75 -76 0
49 50 71 72 0
-49 50 -71 72 0
49 -50 71 -72 0
49 50 77 78 0
-49 50 -77 78 0
49 -50 77 -78 0
53 54 61 62 0
-53 54 -61 62 0
53 -54 61 -62 0
53 54 69 70 0
-53 54 -69 70 0
53 -54 69 -70 0
63 64 73 74 0
-63 64 -73 74 0
63 -64 73 -74 0
65 66 79 80 0
-65 66 -79 80 0
65 -66 79 -80 0
67 68 75 76 0
-67 68 -75 76 0
67 -68 75 -76 0
67 68 79 80 0
-67 68 -79 80 0
67 -68 79 -80 0
69 70 71 72 0
-69 70 -71 72 0
69 -70 71 -72 0
