c family=3-COL n=80 instance=3 seed=145502016 models=2880
c order 64 43 61 5 18 53 65 74 62 50 2 4 35 46 68 70 72 45 33 69 76 66 52 57 6 79 31 23 42 41 10 38 14 77 60 12 25 36 55 22 17 44 16 8 80 40 24 47 73 67 3 48 56 37 51 7 27 29 9 13 20 63 11 71 32 58 49 1 21 28 15 54 19 34 59 26 39 78 75 30
c order 34 18 48 79 8 27 65 69 41 55 42 60 46 10 45 67 73 26 76 78 44 72 13 31 17 75 20 22 58 68 1 38 3 19 37 50 36 21 62 63 64 2 29 49 32 80 54 66 7 23 6 53 59 56 70 40 47 28 61 51 25 4 12 39 33 35 14 9 71 43 11 74 24 52 15 57 30 77 16 5
c order 11 2 43 80 30 24 63 78 31 52 48 1 57 69 23 22 64 28 68 53 29 77 39 75 59 34 36 55 38 49 40 79 25 72 60 66 14 12 71 6 8 18 3 19 45 74 51 42 26 46 27 54 37 67 35 44 20 15 56 33 65 50 62 73 70 9 4 61 17 10 41 76 47 21 16 7 13 5 58 32
c order 39 40 23 62 30 14 80 47 34 49 52 76 13 21 56 79 58 55 71 35 38 44 7 77 59 19 68 51 69 3 12 50 36 43 5 24 73 15 67 60 57 18 27 37 61 45 42 20 29 72 6 46 66 9 33 32 65 54 16 11 41 22 2 28 64 4 48 75 1 70 8 10 74 31 53 17 26 63 25 78
c order 32 76 39 66 24 19 58 14 29 30 21 15 43 72 50 44 69 49 6 63 64 47 13 9 25 12 77 18 78 5 79 75 36 35 55 26 73 67 1 61 57 23 8 65 56 40 20 17 74 45 48 42 54 80 33 59 62 51 52 4 41 31 27 16 37 34 2 46 53 60 70 22 68 71 10 7 3 28 11 38
c order 5 41 46 23 32 21 55 44 65 74 25 57 14 22 42 24 75 76 58 37 50 16 73 72 20 28 53 40 38 31 9 18 33 71 7 1 34 8 13 56 68 77 79 3 64 45 63 80 15 69 29 35 52 54 17 19 61 4 27 10 2 11 66 48 6 26 78 49 39 51 36 12 43 67 59 60 30 62 70 47
c order 36 26 25 75 66 42 68 9 59 49 12 77 48 29 47 15 80 61 50 31 79 65 52 51 8 45 7 5 53 72 43 11 22 56 23 19 44 69 35 38 76 34 1 20 70 3 17 46 63 28 2 55 27 16 32 40 33 60 18 74 73 37 13 21 30 57 71 54 41 78 14 58 6 67 4 62 39 10 64 24
c order 21 52 5 31 40 80 68 42 67 49 27 55 69 58 34 8 46 2 33 45 15 16 29 74 73 76 24 79 43 57 44 71 37 13 20 39 56 19 59 64 9 75 65 26 28 63 1 6 78 11 48 47 17 23 77 12 36 66 50 72 10 25 4 14 61 7 35 51 32 60 41 3 18 30 22 70 62 38 54 53
c order 59 22 64 67 32 10 41 63 2 46 12 33 4 78 55 31 75 26 56 42 35 57 43 51 71 5 37 79 52 68 53 69 54 14 76 7 16 18 48 44 19 77 29 39 20 50 40 38 3 15 24 27 61 34 11 60 70 62 36 74 17 6 1 49 73 30 72 13 58 47 80 66 8 28 45 25 21 23 65 9
c order 61 74 39 31 49 70 5 38 71 35 29 57 48 53 69 12 67 46 54 9 66 16 62 22 23 44 65 2 58 56 37 25 15 17 41 55 3 72 30 11 73 1 63 28 36 40 59 43 51 50 18 76 78 77 79 75 21 45 20 14 24 7 26 32 8 10 4 80 68 42 19 64 60 52 47 34 33 13 6 27
p cnf 80 292
-1 -2 0
-3 -4 0
-5 -6 0
-7 -8 0
-9 -10 0
-11 -12 0
-13 -14 0
-15 -16 0
-17 -18 0
-19 -20 0
-21 -22 0
-23 -24 0
-25 -26 0
-27 -28 0
-29 -30 0
-31 -32 0
-33 -34 0
-35 -36 0
-37 -38 0
-39 -40 0
-41 -42 0
-43 -44 0
-45 -46 0
-47 -48 0
-49 -50 0
-51 -52 0
-53 -54 0
-55 -56 0
-57 -58 0
-59 -60 0
-61 -62 0
-63 -64 0
-65 -66 0
-67 -68 0
-69 -70 0
-71 -72 0
-73 -74 0
-75 -76 0
-77 -78 0
-79 -80 0
1 2 15 16 0
-1 2 -15 16 0
1 -2 15 -16 0
1 2 27 28 0
-1 2 -27 28 0
1 -2 27 -28 0
1 2 75 76 0
-1 2 -75 76 0
1 -2 75 -76 0
3 4 9 10 0
-3 4 -9 10 0
3 -4 9 -10 0
3 4 15 16 0
-3 4 -15 16 0
3 -4 15 -16 0
3 4 21 22 0
-3 4 -21 22 0
3 -4 21 -22 0
3 4 23 24 0
-3 4 -23 24 0
3 -4 23 -24 0
3 4 27 28 0
-3 4 -27 28 0
3 -4 27 -28 0
3 4 57 58 0
-3 4 -57 58 0
3 -4 57 -58 0
3 4 75 76 0
-3 4 -75 76 0
3 -4 75 -76 0
5 6 11 12 0
-5 6 -11 12 0
5 -6 11 -12 0
5 6 19 20 0
-5 6 -19 20 0
5 -6 19 -20 0
5 6 45 46 0
-5 6 -45 46 0
5 -6 45 -46 0
5 6 51 52 0
-5 6 -51 52 0
5 -6 51 -52 0
5 6 57 58 0
-5 6 -57 58 0
5 -6 57 -58 0
5 6 73 74 0
-5 6 -73 74 0
5 -6 73 -74 0
7 8 17 18 0
-7 8 -17 18 0
7 -8 17 -18 0
7 8 39 40 0
-7 8 -39 40 0
7 -8 39 -40 0
9 10 33 34 0
-9 10 -33 34 0
9 -10 33 -34 0
9 10 47 48 0
-9 10 -47 48 0
9 -10 47 -48 0
9 10 63 64 0
-9 10 -63 64 0
9 -10 63 -64 0
11 12 13 14 0
-11 12 -13 14 0
11 -12 13 -14 0
11 12 15 16 0
-11 12 -15 16 0
11 -12 15 -16 0
11 12 35 36 0
-11 12 -35 36 0
11 -12 35 -36 0
11 12 73 74 0
-11 12 -73 74 0
11 -12 73 -74 0
11 12 79 80 0
-11 12 -79 80 0
11 -12 79 -80 0
13 14 21 22 0
-13 14 -21 22 0
13 -14 21 -22 0
13 14 35 36 0
-13 14 -35 36 0
13 -14 35 -36 0
13 14 57 58 0
-13 14 -57 58 0
13 -14 57 -58 0
13 14 67 68 0
-13 14 -67 68 0
13 -14 67 -68 0
13 14 75 76 0
-13 14 -75 76 0
13 -14 75 -76 0
13 14 79 80 0
-13 14 -79 80 0
13 -14 79 -80 0
15 16 49 50 0
-15 16 -49 50 0
15 -16 49 -50 0
15 16 55 56 0
-15 16 -55 56 0
15 -16 55 -56 0
17 18 51 52 0
-17 18 -51 52 0
17 -18 51 -52 0
19 20 43 44 0
-19 20 -43 44 0
19 -20 43 -44 0
19 20 77 78 0
-19 20 -77 78 0
19 -20 77 -78 0
21 22 27 28 0
-21 22 -27 28 0
21 -22 27 -28 0
21 22 57 58 0
-21 22 -57 58 0
21 -22 57 -58 0
23 24 55 56 0
-23 24 -55 56 0
23 -24 55 -56 0
25 26 27 28 0
-25 26 -27 28 0
25 -26 27 -28 0
25 26 35 36 0
-25 26 -35 36 0
25 -26 35 -36 0
25 26 51 52 0
-25 26 -51 52 0
25 -26 51 -52 0
25 26 55 56 0
-25 26 -55 56 0
25 -26 55 -56 0
27 28 49 50 0
-27 28 -49 50 0
27 -28 49 -50 0
27 28 51 52 0
-27 28 -51 52 0
27 -28 51 -52 0
27 28 55 56 0
-27 28 -55 56 0
27 -28 55 -56 0
29 30 37 38 0
-29 30 -37 38 0
29 -30 37 -38 0
29 30 39 40 0
-29 30 -39 40 0
29 -30 39 -40 0
29 30 53 54 0
-29 30 -53 54 0
29 -30 53 -54 0
29 30 71 72 0
-29 30 -71 72 0
29 -30 71 -72 0
29 30 75 76 0
-29 30 -75 76 0
29 -30 75 -76 0
31 32 49 50 0
-31 32 -49 50 0
31 -32 49 -50 0
31 32 55 56 0
-31 32 -55 56 0
31 -32 55 -56 0
31 32 63 64 0
-31 32 -63 64 0
31 -32 63 -64 0
31 32 75 76 0
-31 32 -75 76 0
31 -32 75 -76 0
31 32 77 78 0
-31 32 -77 78 0
31 -32 77 -78 0
33 34 55 56 0
-33 34 -55 56 0
33 -34 55 -56 0
33 34 63 64 0
-33 34 -63 64 0
33 -34 63 -64 0
33 34 65 66 0
-33 34 -65 66 0
33 -34 65 -66 0
33 34 69 70 0
-33 34 -69 70 0
33 -34 69 -70 0
35 36 49 50 0
-35 36 -49 50 0
35 -36 49 -50 0
35 36 61 62 0
-35 36 -61 62 0
35 -36 61 -62 0
35 36 77 78 0
-35 36 -77 78 0
35 -36 77 -78 0
37 38 71 72 0
-37 38 -71 72 0
37 -38 71 -72 0
39 40 43 44 0
-39 40 -43 44 0
39 -40 43 -44 0
39 40 51 52 0
-39 40 -51 52 0
39 -40 51 -52 0
39 40 55 56 0
-39 40 -55 56 0
39 -40 55 -56 0
39 40 79 80 0
-39 40 -79 80 0
39 -40 79 -80 0
41 42 75 76 0
-41 42 -75 76 0
41 -42 75 -76 0
45 46 49 50 0
-45 46 -49 50 0
45 -46 49 -50 0
45 46 57 58 0
-45 46 -57 58 0
45 -46 57 -58 0
45 46 67 68 0
-45 46 -67 68 0
45 -46 67 -68 0
49 50 57 58 0
-49 50 -57 58 0
49 -50 57 -58 0
53 54 61 62 0
-53 54 -61 62 0
53 -54 61 -62 0
53 54 73 74 0
-53 54 -73 74 0
53 -54 73 -74 0
53 54 79 80 0
-53 54 -79 80 0
53 -54 79 -80 0
57 58 65 66 0
-57 58 -65 66 0
57 -58 65 -66 0
57 58 69 70 0
-57 58 -69 70 0
57 -58 69 -70 0
57 58 71 72 0
-57 58 -71 72 0
57 -58 71 -72 0
59 60 77 78 0
-59 60 -77 78 0
59 -60 77 -78 0
61 62 63 64 0
-61 62 -63 64 0
61 -62 63 -64 0
61 62 73 74 0
-61 62 -73 74 0
61 -62 73 -74 0
75 76 77 78 0
-75 76 -77 78 0
75 -76 77 -78 0
