c family=3-COL n=80 instance=8 seed=145502016 models=1440
c order 20 72 49 65 48 46 35 37 4 71 75 3 59 74 67 5 41 64 10 61 18 16 62 27 1 33 79 39 40 7 6 32 8 26 55 76 21 2 60 14 50 69 78 43 11 52 17 77 45 25 80 51 34 30 22 73 31 28 24 13 44 15 12 66 47 53 54 9 58 19 36 63 29 23 38 70 57 56 68 42
c order 35 68 26 50 36 42 46 64 57 75 15 69 22 65 1 5 27 4 49 18 16 78 6 40 17 72 21 59 34 61 14 38 24 80 8 48 71 10 73 39 20 77 52 79 37 32 28 30 25 12 11 53 29 3 67 9 47 19 58 7 45 62 60 56 23 76 43 63 2 55 74 33 66 31 51 44 70 54 41 13
c order 43 69 20 16 23 67 8 29 61 75 41 6 1 54 58 64 73 10 72 57 3 2 62 79 7 17 68 27 52 77 47 42 49 37 32 22 80 63 25 66 70 76 48 46 19 39 34 24 60 40 26 51 5 50 33 31 9 38 45 44 11 14 4 36 18 53 28 74 78 15 56 59 13 55 65 35 30 71 21 12
c order 41 37 59 29 25 67 11 31 18 62 14 57 78 15 47 39 7 1 68 40 73 44 9 70 80 24 32 5 3 34 79 17 30 75 58 69 36 61 50 2 64 53 21 65 20 38 4 71 56 10 43 22 46 8 16 49 52 42 55 23 35 76 13 74 66 77 6 12 26 45 54 51 60 72 28 48 27 19 63 33
c order 33 67 77 38 37 20 50 64 75 41 65 52 26 72 8 48 22 15 12 21 66 55 73 51 74 40 42 35 69 68 58 76 60 46 34 17 59 4 63 16 62 44 7 25 10 6 28 9 11 18 71 53 1 47 78 31 57 5 30 13 32 19 70 61 80 27 45 54 23 29 3 36 49 39 14 56 79 24 2 43
c order 53 24 64 74 2 48 42 37 18 21 45 39 59 20 79 12 58 13 35 80 43 67 61 47 65 62 54 25 16 19 56 57 71 76 69 63 60 1 68 14 29 51 31 7 15 55 3 8 22 23 46 17 5 41 4 30 77 73 34 66 32 49 28 10 44 38 75 6 70 78 33 11 52 36 40 9 50 27 72 26
c order 57 67 9 26 2 7 46 50 58 5 56 12 14 3 63 62 1 16 48 34 27 64 75 41 8 72 31 20 77 78 43 19 39 44 38 6 65 51 15 21 71 36 40 10 17 60 70 37 13 45 74 73 69 11 22 61 47 79 32 4 59 35 68 29 54 30 42 80 76 28 23 18 55 25 53 52 24 49 33 66
c order 41 17 20 28 37 25 11 57 47 67 13 44 63 52 36 51 64 7 16 58 15 14 39 27 4 77 34 75 35 68 8 2 43 5 31 19 32 45 40 18 46 29 3 1 59 38 9 54 73 6 61 42 79 21 33 50 66 24 62 26 55 53 10 76 65 78 22 80 69 23 30 60 48 12 74 71 72 56 70 49
c order 25 65 71 30 76 26 63 15 28 53 72 66 2 80 50 4 32 57 22 79 54 78 9 69 41 55 39 34 43 45 17 77 27 7 11 68 18 5 73 19 67 56 49 52 74 10 3 29 36 16 60 21 40 42 35 51 75 12 62 48 38 20 8 24 33 13 31 14 37 59 47 46 58 1 70 61 44 23 6 64
c order 35 48 46 23 65 41 62 69 64 43 8 21 42 39 78 55 72 59 77 11 13 7 36 15 6 63 49 14 33 70 5 29 75 2 47 30 40 34 53 56 61 50 45 4 58 66 25 24 68 51 9 22 57 20 80 74 31 17 18 38 16 3 73 52 1 19 71 37 54 26 27 60 12 10 44 79 32 28 76 67
p cnf 80 292
-1 -2 0
-3 -4 0
-5 -6 0
-7 -8 0
-9 -10 0
-11 -12 0
-13 -14 0
-15 -16 0
-17 -18 0
-19 -20 0
-21 -22 0
-23 -24 0
-25 -26 0
-27 -28 0
-29 -30 0
-31 -32 0
-33 -34 0
-35 -36 0
-37 -38 0
-39 -40 0
-41 -42 0
-43 -44 0
-45 -46 0
-47 -48 0
-49 -50 0
-51 -52 0
-53 -54 0
-55 -56 0
-57 -58 0
-59 -60 0
-61 -62 0
-63 -64 0
-65 -66 0
-67 -68 0
-69 -70 0
-71 -72 0
-73 -74 0
-75 -76 0
-77 -78 0
-79 -80 0
1 2 5 6 0
-1 2 -5 6 0
1 -2 5 -6 0
1 2 7 8 0
-1 2 -7 8 0
1 -2 7 -8 0
1 2 27 28 0
-1 2 -27 28 0
1 -2 27 -28 0
1 2 77 78 0
-1 2 -77 78 0
1 -2 77 -78 0
3 4 27 28 0
-3 4 -27 28 0
3 -4 27 -28 0
3 4 61 62 0
-3 4 -61 62 0
3 -4 61 -62 0
3 4 69 70 0
-3 4 -69 70 0
3 -4 69 -70 0
3 4 73 74 0
-3 4 -73 74 0
3 -4 73 -74 0
5 6 33 34 0
-5 6 -33 34 0
5 -6 33 -34 0
5 6 39 40 0
-5 6 -39 40 0
5 -6 39 -40 0
5 6 47 48 0
-5 6 -47 48 0
5 -6 47 -48 0
7 8 9 10 0
-7 8 -9 10 0
7 -8 9 -10 0
7 8 43 44 0
-7 8 -43 44 0
7 -8 43 -44 0
7 8 57 58 0
-7 8 -57 58 0
7 -8 57 -58 0
7 8 75 76 0
-7 8 -75 76 0
7 -8 75 -76 0
7 8 77 78 0
-7 8 -77 78 0
7 -8 77 -78 0
9 10 17 18 0
-9 10 -17 18 0
9 -10 17 -18 0
9 10 29 30 0
-9 10 -29 30 0
9 -10 29 -30 0
9 10 39 40 0
-9 10 -39 40 0
9 -10 39 -40 0
9 10 67 68 0
-9 10 -67 68 0
9 -10 67 -68 0
9 10 79 80 0
-9 10 -79 80 0
9 -10 79 -80 0
11 12 21 22 0
-11 12 -21 22 0
11 -12 21 -22 0
11 12 23 24 0
-11 12 -23 24 0
11 -12 23 -24 0
11 12 25 26 0
-11 12 -25 26 0
11 -12 25 -26 0
11 12 29 30 0
-11 12 -29 30 0
11 -12 29 -30 0
11 12 69 70 0
-11 12 -69 70 0
11 -12 69 -70 0
13 14 51 52 0
-13 14 -51 52 0
13 -14 51 -52 0
13 14 59 60 0
-13 14 -59 60 0
13 -14 59 -60 0
13 14 61 62 0
-13 14 -61 62 0
13 -14 61 -62 0
13 14 71 72 0
-13 14 -71 72 0
13 -14 71 -72 0
13 14 79 80 0
-13 14 -79 80 0
13 -14 79 -80 0
15 16 37 38 0
-15 16 -37 38 0
15 -16 37 -38 0
15 16 51 52 0
-15 16 -51 52 0
15 -16 51 -52 0
17 18 35 36 0
-17 18 -35 36 0
17 -18 35 -36 0
17 18 45 46 0
-17 18 -45 46 0
17 -18 45 -46 0
17 18 59 60 0
-17 18 -59 60 0
17 -18 59 -60 0
17 18 65 66 0
-17 18 -65 66 0
17 -18 65 -66 0
17 18 75 76 0
-17 18 -75 76 0
17 -18 75 -76 0
19 20 35 36 0
-19 20 -35 36 0
19 -20 35 -36 0
19 20 75 76 0
-19 20 -75 76 0
19 -20 75 -76 0
25 26 31 32 0
-25 26 -31 32 0
25 -26 31 -32 0
25 26 33 34 0
-25 26 -33 34 0
25 -26 33 -34 0
25 26 47 48 0
-25 26 -47 48 0
25 -26 47 -48 0
25 26 53 54 0
-25 26 -53 54 0
25 -26 53 -54 0
27 28 33 34 0
-27 28 -33 34 0
27 -28 33 -34 0
27 28 41 42 0
-27 28 -41 42 0
27 -28 41 -42 0
27 28 49 50 0
-27 28 -49 50 0
27 -28 49 -50 0
27 28 77 78 0
-27 28 -77 78 0
27 -28 77 -78 0
29 30 37 38 0
-29 30 -37 38 0
29 -30 37 -38 0
29 30 55 56 0
-29 30 -55 56 0
29 -30 55 -56 0
29 30 75 76 0
-29 30 -75 76 0
29 -30 75 -76 0
31 32 33 34 0
-31 32 -33 34 0
31 -32 33 -34 0
31 32 37 38 0
-31 32 -37 38 0
31 -32 37 -38 0
31 32 49 50 0
-31 32 -49 50 0
31 -32 49 -50 0
31 32 51 52 0
-31 32 -51 52 0
31 -32 51 -52 0
31 32 61 62 0
-31 32 -61 62 0
31 -32 61 -62 0
31 32 69 70 0
-31 32 -69 70 0
31 -32 69 -70 0
33 34 39 40 0
-33 34 -39 40 0
33 -34 39 -40 0
33 34 61 62 0
-33 34 -61 62 0
33 -34 61 -62 0
33 34 65 66 0
-33 34 -65 66 0
33 -34 65 -66 0
33 34 69 70 0
-33 34 -69 70 0
33 -34 69 -70 0
35 36 41 42 0
-35 36 -41 42 0
35 -36 41 -42 0
35 36 53 54 0
-35 36 -53 54 0
35 -36 53 -54 0
37 38 75 76 0
-37 38 -75 76 0
37 -38 75 -76 0
39 40 51 52 0
-39 40 -51 52 0
39 -40 51 -52 0
39 40 63 64 0
-39 40 -63 64 0
39 -40 63 -64 0
41 42 45 46 0
-41 42 -45 46 0
41 -42 45 -46 0
41 42 69 70 0
-41 42 -69 70 0
41 -42 69 -70 0
43 44 57 58 0
-43 44 -57 58 0
43 -44 57 -58 0
43 44 67 68 0
-43 44 -67 68 0
43 -44 67 -68 0
43 44 73 74 0
-43 44 -73 74 0
43 -44 73 -74 0
47 48 65 66 0
-47 48 -65 66 0
47 -48 65 -66 0
49 50 63 64 0
-49 50 -63 64 0
49 -50 63 -64 0
51 52 53 54 0
-51 52 -53 54 0
51 -52 53 -54 0
51 52 65 66 0
-51 52 -65 66 0
51 -52 65 -66 0
55 56 61 62 0
-55 56 -61 62 0
55 -56 61 -62 0
59 60 61 62 0
-59 60 -61 62 0
59 -60 61 -62 0
59 60 65 66 0
-59 60 -65 66 0
59 -60 65 -66 0
63 64 67 68 0
-63 64 -67 68 0
63 -64 67 -68 0
63 64 77 78 0
-63 64 -77 78 0
63 -64 77 -78 0
69 70 77 78 0
-69 70 -77 78 0
69 -70 77 -78 0
73 74 75 76 0
-73 74 -75 76 0
73 -74 75 -76 0
73 74 79 80 0
-73 74 -79 80 0
73 -74 79 -80 0
75 76 77 78 0
-75 76 -77 78 0
75 -76 77 -78 0
