c family=3-COL n=80 instance=4 seed=145502016 models=1056
c order 54 38 74 27 63 67 47 15 8 12 80 32 65 71 42 31 17 1 11 9 16 50 10 75 21 68 48 77 37 70 20 30 39 41 53 62 46 52 72 34 78 24 73 13 26 28 35 5 59 61 58 29 55 60 44 40 22 2 49 3 69 57 14 7 23 33 66 6 19 76 56 4 51 36 43 25 45 64 79 18
c order 11 75 39 59 65 77 58 37 76 48 63 25 51 32 31 1 72 41 9 7 79 43 34 46 52 55 68 50 33 24 21 78 38 3 5 64 18 61 56 69 80 53 26 14 16 67 29 27 15 8 12 62 30 66 49 23 10 70 73 57 74 54 4 40 42 71 17 45 36 19 6 47 2 13 22 44 20 35 60 28
c order 67 71 46 72 42 55 61 35 52 16 78 43 58 37 9 32 48 10 47 44 26 40 3 23 4 59 68 28 27 39 77 70 34 57 53 21 13 12 8 22 74 11 54 62 56 38 63 19 24 6 20 41 25 18 64 66 17 51 75 33 60 49 45 79 2 76 30 50 1 73 36 31 14 5 80 15 69 29 7 65
c order 67 51 60 79 38 69 53 46 6 4 35 20 12 75 78 45 76 5 47 23 41 61 40 17 66 34 77 49 55 9 70 62 7 73 37 42 26 14 11 13 22 74 63 71 27 64 52 18 48 29 72 57 44 31 21 15 58 32 43 19 59 80 56 68 36 39 25 28 65 16 10 3 50 24 1 54 8 33 30 2
c order 76 69 77 22 80 40 71 51 8 38 18 63 12 9 16 48 42 56 58 31 54 64 28 20 26 50 59 30 29 75 5 55 44 34 32 14 41 17 62 73 10 72 61 47 13 53 3 35 43 78 7 36 24 46 60 70 27 19 49 1 45 57 67 65 4 15 6 74 37 23 21 39 2 79 25 52 33 66 68 11
c order 61 67 74 62 75 53 23 16 14 56 54 27 1 58 50 70 69 66 49 63 15 33 65 10 68 48 8 17 44 55 47 5 40 41 60 76 37 45 25 20 11 64 21 36 24 78 77 32 19 51 42 22 46 38 52 35 6 71 72 80 30 9 26 57 3 7 13 39 18 28 29 31 4 73 2 79 34 59 43 12
c order 36 48 63 40 1 70 46 28 56 14 75 66 5 17 37 76 24 55 68 53 74 7 77 19 60 27 2 51 79 39 45 69 11 59 65 35 25 34 54 80 71 42 15 4 18 73 62 8 21 41 9 23 12 52 44 72 31 64 16 67 29 6 3 78 33 32 50 10 13 58 30 43 61 57 26 38 49 22 20 47
c order 71 31 73 70 2 60 77 38 20 7 78 72 79 16 45 48 56 62 13 54 5 75 6 76 15 14 51 74 35 22 4 53 28 40 9 36 49 30 42 44 65 64 43 25 55 8 11 68 10 17 37 67 57 12 63 1 39 18 34 58 32 41 46 80 66 29 21 27 69 33 23 26 52 59 3 47 24 61 19 50
c order 63 58 6 36 28 16 25 4 56 38 35 47 15 11 75 77 51 23 78 1 29 60 74 57 27 80 9 43 71 21 13 62 31 10 66 17 42 24 73 14 69 54 67 64 41 2 53 59 5 68 37 72 8 34 12 50 39 65 45 22 3 46 20 61 55 44 76 49 32 40 70 52 48 19 7 26 79 30 18 33
c order 49 60 20 65 10 34 22 1 18 45 23 31 66 68 5 30 36 12 55 27 43 76 39 59 17 75 67 64 15 38 57 8 77 42 54 13 52 21 25 14 74 80 32 71 3 26 11 35 37 53 70 29 56 28 41 58 72 7 40 48 24 2 44 6 78 47 16 46 4 61 62 69 33 9 51 73 63 79 50 19
p cnf 80 292
-1 -2 0
-3 -4 0
-5 -6 0
-7 -8 0
-9 -10 0
-11 -12 0
-13 -14 0
-15 -16 0
-17 -18 0
-19 -20 0
-21 -22 0
-23 -24 0
-25 -26 0
-27 -28 0
-29 -30 0
-31 -32 0
-33 -34 0
-35 -36 0
-37 -38 0
-39 -40 0
-41 -42 0
-43 -44 0
-45 -46 0
-47 -48 0
-49 -50 0
-51 -52 0
-53 -54 0
-55 -56 0
-57 -58 0
-59 -60 0
-61 -62 0
-63 -64 0
-65 -66 0
-67 -68 0
-69 -70 0
-71 -72 0
-73 -74 0
-75 -76 0
-77 -78 0
-79 -80 0
1 2 25 26 0
-1 2 -25 26 0
1 -2 25 -26 0
1 2 27 28 0
-1 2 -27 28 0
1 -2 27 -28 0
1 2 29 30 0
-1 2 -29 30 0
1 -2 29 -30 0
1 2 35 36 0
-1 2 -35 36 0
1 -2 35 -36 0
1 2 49 50 0
-1 2 -49 50 0
1 -2 49 -50 0
1 2 79 80 0
-1 2 -79 80 0
1 -2 79 -80 0
3 4 5 6 0
-3 4 -5 6 0
3 -4 5 -6 0
3 4 17 18 0
-3 4 -17 18 0
3 -4 17 -18 0
3 4 47 48 0
-3 4 -47 48 0
3 -4 47 -48 0
3 4 59 60 0
-3 4 -59 60 0
3 -4 59 -60 0
3 4 69 70 0
-3 4 -69 70 0
3 -4 69 -70 0
5 6 35 36 0
-5 6 -35 36 0
5 -6 35 -36 0
5 6 55 56 0
-5 6 -55 56 0
5 -6 55 -56 0
5 6 57 58 0
-5 6 -57 58 0
5 -6 57 -58 0
5 6 65 66 0
-5 6 -65 66 0
5 -6 65 -66 0
5 6 77 78 0
-5 6 -77 78 0
5 -6 77 -78 0
7 8 17 18 0
-7 8 -17 18 0
7 -8 17 -18 0
7 8 73 74 0
-7 8 -73 74 0
7 -8 73 -74 0
7 8 75 76 0
-7 8 -75 76 0
7 -8 75 -76 0
9 10 11 12 0
-9 10 -11 12 0
9 -10 11 -12 0
9 10 35 36 0
-9 10 -35 36 0
9 -10 35 -36 0
9 10 41 42 0
-9 10 -41 42 0
9 -10 41 -42 0
9 10 47 48 0
-9 10 -47 48 0
9 -10 47 -48 0
11 12 63 64 0
-11 12 -63 64 0
11 -12 63 -64 0
11 12 69 70 0
-11 12 -69 70 0
11 -12 69 -70 0
13 14 15 16 0
-13 14 -15 16 0
13 -14 15 -16 0
13 14 27 28 0
-13 14 -27 28 0
13 -14 27 -28 0
13 14 35 36 0
-13 14 -35 36 0
13 -14 35 -36 0
13 14 39 40 0
-13 14 -39 40 0
13 -14 39 -40 0
13 14 47 48 0
-13 14 -47 48 0
13 -14 47 -48 0
15 16 17 18 0
-15 16 -17 18 0
15 -16 17 -18 0
15 16 41 42 0
-15 16 -41 42 0
15 -16 41 -42 0
15 16 73 74 0
-15 16 -73 74 0
15 -16 73 -74 0
15 16 75 76 0
-15 16 -75 76 0
15 -16 75 -76 0
17 18 21 22 0
-17 18 -21 22 0
17 -18 21 -22 0
19 20 27 28 0
-19 20 -27 28 0
19 -20 27 -28 0
19 20 47 48 0
-19 20 -47 48 0
19 -20 47 -48 0
19 20 57 58 0
-19 20 -57 58 0
19 -20 57 -58 0
19 20 59 60 0
-19 20 -59 60 0
19 -20 59 -60 0
21 22 35 36 0
-21 22 -35 36 0
21 -22 35 -36 0
21 22 41 42 0
-21 22 -41 42 0
21 -22 41 -42 0
21 22 69 70 0
-21 22 -69 70 0
21 -22 69 -70 0
23 24 33 34 0
-23 24 -33 34 0
23 -24 33 -34 0
23 24 53 54 0
-23 24 -53 54 0
23 -24 53 -54 0
27 28 33 34 0
-27 28 -33 34 0
27 -28 33 -34 0
29 30 35 36 0
-29 30 -35 36 0
29 -30 35 -36 0
29 30 51 52 0
-29 30 -51 52 0
29 -30 51 -52 0
29 30 55 56 0
-29 30 -55 56 0
29 -30 55 -56 0
29 30 61 62 0
-29 30 -61 62 0
29 -30 61 -62 0
31 32 37 38 0
-31 32 -37 38 0
31 -32 37 -38 0
31 32 45 46 0
-31 32 -45 46 0
31 -32 45 -46 0
33 34 49 50 0
-33 34 -49 50 0
33 -34 49 -50 0
33 34 61 62 0
-33 34 -61 62 0
33 -34 61 -62 0
33 34 63 64 0
-33 34 -63 64 0
33 -34 63 -64 0
33 34 73 74 0
-33 34 -73 74 0
33 -34 73 -74 0
35 36 65 66 0
-35 36 -65 66 0
35 -36 65 -66 0
35 36 77 78 0
-35 36 -77 78 0
35 -36 77 -78 0
37 38 57 58 0
-37 38 -57 58 0
37 -38 57 -58 0
37 38 61 62 0
-37 38 -61 62 0
37 -38 61 -62 0
39 40 51 52 0
-39 40 -51 52 0
39 -40 51 -52 0
39 40 73 74 0
-39 40 -73 74 0
39 -40 73 -74 0
41 42 43 44 0
-41 42 -43 44 0
41 -42 43 -44 0
41 42 49 50 0
-41 42 -49 50 0
41 -42 49 -50 0
41 42 57 58 0
-41 42 -57 58 0
41 -42 57 -58 0
41 42 67 68 0
-41 42 -67 68 0
41 -42 67 -68 0
45 46 51 52 0
-45 46 -51 52 0
45 -46 51 -52 0
45 46 77 78 0
-45 46 -77 78 0
45 -46 77 -78 0
47 48 67 68 0
-47 48 -67 68 0
47 -48 67 -68 0
49 50 73 74 0
-49 50 -73 74 0
49 -50 73 -74 0
51 52 55 56 0
-51 52 -55 56 0
51 -52 55 -56 0
51 52 63 64 0
-51 52 -63 64 0
51 -52 63 -64 0
51 52 77 78 0
-51 52 -77 78 0
51 -52 77 -78 0
53 54 55 56 0
-53 54 -55 56 0
53 -54 55 -56 0
53 54 65 66 0
-53 54 -65 66 0
53 -54 65 -66 0
57 58 59 60 0
-57 58 -59 60 0
57 -58 59 -60 0
59 60 79 80 0
-59 60 -79 80 0
59 -60 79 -80 0
63 64 65 66 0
-63 64 -65 66 0
63 -64 65 -66 0
63 64 69 70 0
-63 64 -69 70 0
63 -64 69 -70 0
63 64 75 76 0
-63 64 -75 76 0
63 -64 75 -76 0
63 64 79 80 0
-63 64 -79 80 0
63 -64 79 -80 0
67 68 71 72 0
-67 68 -71 72 0
67 -68 71 -72 0
67 68 77 78 0
-67 68 -77 78 0
67 -68 77 -78 0
69 70 73 74 0
-69 70 -73 74 0
69 -70 73 -74 0
71 72 75 76 0
-71 72 -75 76 0
71 -72 75 -76 0
