c family=3-COL n=80 instance=9 seed=145502016 models=720
c order 6 1 79 57 78 60 63 77 61 46 68 36 73 12 55 33 5 69 42 53 25 67 41 29 15 59 32 40 58 51 48 74 22 66 14 19 39 26 52 31 70 4 11 21 75 3 16 80 2 27 56 64 30 17 62 76 38 49 34 7 18 71 65 47 44 45 28 43 37 9 35 54 23 72 8 24 10 13 50 20
c order 24 56 39 31 50 17 21 5 59 47 80 38 74 25 1 44 78 65 48 63 54 34 11 68 60 57 72 9 18 37 3 15 26 42 45 61 52 64 29 70 16 10 51 53 67 33 35 55 46 23 27 2 28 62 13 71 30 19 76 4 43 41 36 49 32 79 75 14 12 22 73 8 58 7 77 66 6 20 69 40
c order 13 23 52 6 45 3 66 8 41 57 51 63 30 78 74 39 27 73 7 21 37 4 38 26 43 75 11 55 79 76 72 54 50 9 15 25 12 24 18 20 64 40 69 47 31 17 71 1 46 67 49 5 44 48 2 68 16 80 19 60 56 62 28 10 35 61 22 36 70 53 58 34 29 33 32 59 77 42 65 14
c order 75 22 68 23 56 80 52 45 63 1 71 78 73 17 34 44 49 77 11 10 3 48 16 39 2 7 62 21 12 20 67 43 9 54 65 41 28 79 64 30 72 38 61 42 70 31 59 32 55 53 13 19 46 14 24 8 5 4 57 6 36 50 66 26 76 47 69 25 58 27 51 40 29 60 33 35 18 74 15 37
c order 16 48 57 45 10 4 9 63 39 42 11 33 2 51 19 18 62 60 67 8 36 15 37 78 40 46 20 12 34 49 30 31 71 55 72 61 59 47 29 79 17 27 44 69 54 14 26 1 7 41 66 35 53 24 56 22 38 75 74 68 6 43 52 73 13 50 5 25 76 28 58 65 77 80 64 23 21 70 32 3
c order 15 50 76 77 8 54 9 49 78 1 60 52 51 26 40 21 61 11 29 7 53 62 10 41 48 12 67 14 25 27 74 38 71 80 75 66 5 44 72 2 69 57 24 70 47 22 19 20 55 46 30 73 43 42 17 31 58 65 63 33 56 6 59 64 68 36 79 18 34 13 39 45 4 3 32 35 37 16 23 28
c order 77 13 74 71 48 2 72 70 24 67 47 12 54 10 5 8 68 51 11 30 46 15 69 63 27 57 59 23 60 42 25 9 26 64 14 31 6 78 40 21 61 19 44 3 39 56 32 38 43 37 58 75 28 66 16 53 20 17 29 76 22 33 79 52 49 1 65 34 73 36 35 62 50 7 45 41 80 4 18 55
c order 46 10 66 21 18 25 47 48 37 55 14 59 45 80 54 22 63 70 11 72 28 69 44 19 71 52 62 51 1 6 13 39 40 29 76 64 50 77 35 79 49 60 27 38 65 74 31 67 78 12 34 15 57 53 41 20 56 73 42 75 7 9 36 26 61 4 58 23 8 43 33 17 30 16 5 2 3 32 24 68
c order 46 57 3 54 36 35 42 68 37 24 45 4 63 23 40 1 2 58 32 9 7 27 61 59 17 14 34 65 55 51 64 16 69 28 53 18 62 25 56 13 77 33 48 22 74 41 21 26 10 30 60 44 80 29 8 5 50 79 11 12 20 15 67 52 73 75 78 76 19 43 38 49 39 70 66 31 71 6 72 47
c order 7 3 4 60 28 52 41 72 9 37 68 39 30 67 31 36 21 20 40 11 69 56 29 12 47 22 59 13 50 51 77 16 61 25 80 23 8 33 57 2 32 58 54 76 18 19 65 42 73 1 44 27 53 35 34 24 78 43 74 62 70 63 26 55 38 14 46 64 45 66 48 6 49 71 5 79 10 75 17 15
p cnf 80 292
-1 -2 0
-3 -4 0
-5 -6 0
-7 -8 0
-9 -10 0
-11 -12 0
-13 -14 0
-15 -16 0
-17 -18 0
-19 -20 0
-21 -22 0
-23 -24 0
-25 -26 0
-27 -28 0
-29 -30 0
-31 -32 0
-33 -34 0
-35 -36 0
-37 -38 0
-39 -40 0
-41 -42 0
-43 -44 0
-45 -46 0
-47 -48 0
-49 -50 0
-51 -52 0
-53 -54 0
-55 -56 0
-57 -58 0
-59 -60 0
-61 -62 0
-63 -64 0
-65 -66 0
-67 -68 0
-69 -70 0
-71 -72 0
-73 -74 0
-75 -76 0
-77 -78 0
-79 -80 0
1 2 17 18 0
-1 2 -17 18 0
1 -2 17 -18 0
1 2 19 20 0
-1 2 -19 20 0
1 -2 19 -20 0
1 2 21 22 0
-1 2 -21 22 0
1 -2 21 -22 0
1 2 25 26 0
-1 2 -25 26 0
1 -2 25 -26 0
1 2 37 38 0
-1 2 -37 38 0
1 -2 37 -38 0
3 4 17 18 0
-3 4 -17 18 0
3 -4 17 -18 0
3 4 31 32 0
-3 4 -31 32 0
3 -4 31 -32 0
3 4 35 36 0
-3 4 -35 36 0
3 -4 35 -36 0
5 6 9 10 0
-5 6 -9 10 0
5 -6 9 -10 0
5 6 13 14 0
-5 6 -13 14 0
5 -6 13 -14 0
5 6 15 16 0
-5 6 -15 16 0
5 -6 15 -16 0
5 6 19 20 0
-5 6 -19 20 0
5 -6 19 -20 0
5 6 25 26 0
-5 6 -25 26 0
5 -6 25 -26 0
5 6 33 34 0
-5 6 -33 34 0
5 -6 33 -34 0
5 6 51 52 0
-5 6 -51 52 0
5 -6 51 -52 0
5 6 53 54 0
-5 6 -53 54 0
5 -6 53 -54 0
5 6 69 70 0
-5 6 -69 70 0
5 -6 69 -70 0
7 8 11 12 0
-7 8 -11 12 0
7 -8 11 -12 0
7 8 21 22 0
-7 8 -21 22 0
7 -8 21 -22 0
7 8 23 24 0
-7 8 -23 24 0
7 -8 23 -24 0
7 8 51 52 0
-7 8 -51 52 0
7 -8 51 -52 0
9 10 19 20 0
-9 10 -19 20 0
9 -10 19 -20 0
9 10 45 46 0
-9 10 -45 46 0
9 -10 45 -46 0
9 10 59 60 0
-9 10 -59 60 0
9 -10 59 -60 0
9 10 65 66 0
-9 10 -65 66 0
9 -10 65 -66 0
9 10 69 70 0
-9 10 -69 70 0
9 -10 69 -70 0
9 10 77 78 0
-9 10 -77 78 0
9 -10 77 -78 0
11 12 15 16 0
-11 12 -15 16 0
11 -12 15 -16 0
11 12 23 24 0
-11 12 -23 24 0
11 -12 23 -24 0
11 12 31 32 0
-11 12 -31 32 0
11 -12 31 -32 0
11 12 41 42 0
-11 12 -41 42 0
11 -12 41 -42 0
15 16 17 18 0
-15 16 -17 18 0
15 -16 17 -18 0
15 16 19 20 0
-15 16 -19 20 0
15 -16 19 -20 0
15 16 27 28 0
-15 16 -27 28 0
15 -16 27 -28 0
15 16 79 80 0
-15 16 -79 80 0
15 -16 79 -80 0
17 18 41 42 0
-17 18 -41 42 0
17 -18 41 -42 0
17 18 65 66 0
-17 18 -65 66 0
17 -18 65 -66 0
17 18 77 78 0
-17 18 -77 78 0
17 -18 77 -78 0
19 20 41 42 0
-19 20 -41 42 0
19 -20 41 -42 0
19 20 61 62 0
-19 20 -61 62 0
19 -20 61 -62 0
19 20 67 68 0
-19 20 -67 68 0
19 -20 67 -68 0
19 20 75 76 0
-19 20 -75 76 0
19 -20 75 -76 0
21 22 27 28 0
-21 22 -27 28 0
21 -22 27 -28 0
21 22 71 72 0
-21 22 -71 72 0
21 -22 71 -72 0
21 22 75 76 0
-21 22 -75 76 0
21 -22 75 -76 0
23 24 29 30 0
-23 24 -29 30 0
23 -24 29 -30 0
23 24 35 36 0
-23 24 -35 36 0
23 -24 35 -36 0
23 24 47 48 0
-23 24 -47 48 0
23 -24 47 -48 0
23 24 51 52 0
-23 24 -51 52 0
23 -24 51 -52 0
25 26 33 34 0
-25 26 -33 34 0
25 -26 33 -34 0
25 26 71 72 0
-25 26 -71 72 0
25 -26 71 -72 0
29 30 53 54 0
-29 30 -53 54 0
29 -30 53 -54 0
29 30 69 70 0
-29 30 -69 70 0
29 -30 69 -70 0
29 30 77 78 0
-29 30 -77 78 0
29 -30 77 -78 0
31 32 35 36 0
-31 32 -35 36 0
31 -32 35 -36 0
31 32 65 66 0
-31 32 -65 66 0
31 -32 65 -66 0
33 34 57 58 0
-33 34 -57 58 0
33 -34 57 -58 0
33 34 65 66 0
-33 34 -65 66 0
33 -34 65 -66 0
35 36 37 38 0
-35 36 -37 38 0
35 -36 37 -38 0
35 36 47 48 0
-35 36 -47 48 0
35 -36 47 -48 0
37 38 57 58 0
-37 38 -57 58 0
37 -38 57 -58 0
39 40 69 70 0
-39 40 -69 70 0
39 -40 69 -70 0
39 40 77 78 0
-39 40 -77 78 0
39 -40 77 -78 0
41 42 49 50 0
-41 42 -49 50 0
41 -42 49 -50 0
41 42 53 54 0
-41 42 -53 54 0
41 -42 53 -54 0
41 42 63 64 0
-41 42 -63 64 0
41 -42 63 -64 0
43 44 47 48 0
-43 44 -47 48 0
43 -44 47 -48 0
43 44 49 50 0
-43 44 -49 50 0
43 -44 49 -50 0
43 44 65 66 0
-43 44 -65 66 0
43 -44 65 -66 0
43 44 77 78 0
-43 44 -77 78 0
43 -44 77 -78 0
45 46 47 48 0
-45 46 -47 48 0
45 -46 47 -48 0
45 46 53 54 0
-45 46 -53 54 0
45 -46 53 -54 0
45 46 71 72 0
-45 46 -71 72 0
45 -46 71 -72 0
47 48 57 58 0
-47 48 -57 58 0
47 -48 57 -58 0
47 48 75 76 0
-47 48 -75 76 0
47 -48 75 -76 0
47 48 77 78 0
-47 48 -77 78 0
47 -48 77 -78 0
49 50 61 62 0
-49 50 -61 62 0
49 -50 61 -62 0
59 60 75 76 0
-59 60 -75 76 0
59 -60 75 -76 0
61 62 69 70 0
-61 62 -69 70 0
61 -62 69 -70 0
61 62 75 76 0
-61 62 -75 76 0
61 -62 75 -76 0
63 64 67 68 0
-63 64 -67 68 0
63 -64 67 -68 0
63 64 69 70 0
-63 64 -69 70 0
63 -64 69 -70 0
69 70 71 72 0
-69 70 -71 72 0
69 -70 71 -72 0
69 70 73 74 0
-69 70 -73 74 0
69 -70 73 -74 0
