c family=3-COL n=80 instance=5 seed=145502016 models=7920
c order 30 22 71 19 2 63 37 45 16 12 40 68 75 32 57 80 50 4 74 3 61 9 58 41 53 42 51 7 14 15 43 73 39 54 28 76 67 79 34 27 78 20 24 1 77 56 47 64 60 66 6 49 44 36 69 17 65 55 59 8 18 48 25 5 21 29 10 33 11 13 23 31 35 72 70 52 62 26 46 38
c order 10 9 46 79 16 41 39 28 35 60 71 63 31 6 27 73 13 24 70 34 58 72 47 40 45 68 69 74 7 78 38 33 12 50 23 54 8 11 61 1 64 30 19 29 36 18 51 49 62 57 17 48 32 3 56 37 2 59 42 66 22 4 67 26 77 44 43 5 80 20 52 65 15 55 53 25 14 21 76 75
c order 51 34 71 16 15 22 21 48 3 29 72 4 47 35 40 14 79 30 18 38 41 78 44 59 13 7 66 58 11 20 10 23 39 33 80 17 42 5 73 2 45 50 9 24 61 62 75 25 68 65 32 28 67 74 69 49 1 52 55 43 19 54 12 64 70 36 60 76 77 63 57 6 31 8 37 27 46 56 53 26
c order 8 20 18 13 67 70 69 52 71 48 79 17 38 64 59 39 24 44 10 21 43 23 26 25 40 57 32 9 55 54 74 2 5 61 3 73 68 77 35 30 41 45 53 42 47 14 51 16 72 15 31 56 27 33 6 36 50 37 78 62 4 80 58 1 12 7 46 60 34 22 76 19 28 65 63 11 49 66 29 75
c order 67 43 31 63 15 60 10 39 13 7 42 36 58 4 78 64 9 6 32 17 35 21 30 16 65 56 68 51 62 22 29 74 53 44 18 24 70 27 50 38 79 76 59 5 77 14 33 37 80 72 57 61 49 25 71 73 46 2 52 66 34 20 54 55 45 40 19 26 11 69 48 3 41 47 75 8 1 23 28 12
c order 48 29 66 1 40 65 27 51 11 77 26 42 24 46 59 6 53 12 61 14 15 31 37 19 71 13 21 57 68 33 39 18 70 60 55 28 22 38 23 4 79 67 80 25 16 50 9 7 43 36 58 69 45 64 75 3 47 41 73 17 10 2 44 52 30 49 20 74 62 54 56 5 63 32 8 35 72 34 78 76
c order 65 5 71 80 47 79 55 22 8 61 23 14 63 35 66 39 19 42 54 4 59 53 33 44 13 9 77 15 12 72 56 27 26 3 11 37 52 25 60 34 29 32 1 10 48 49 28 31 21 18 46 6 40 68 70 62 36 69 24 74 78 38 41 51 57 43 45 7 20 58 73 30 17 2 50 76 75 64 67 16
c order 80 2 50 7 64 24 63 8 70 61 10 45 21 60 5 4 20 32 38 69 51 56 29 25 79 43 15 42 76 47 72 41 74 73 34 52 13 37 75 77 44 28 23 35 16 22 59 55 66 18 27 39 54 3 62 58 57 14 31 46 9 53 48 67 17 6 1 33 12 36 19 68 11 71 40 65 30 78 26 49
c order 34 71 8 17 38 35 52 37 41 12 6 58 62 31 9 36 53 2 21 13 44 75 26 18 73 66 10 54 65 80 63 55 39 15 68 14 67 72 19 78 59 16 61 79 4 60 48 57 7 69 30 70 20 51 3 33 23 77 50 64 46 76 1 43 25 42 28 74 5 47 24 29 11 45 27 22 40 49 56 32
c order 69 34 71 17 59 11 8 23 54 55 21 64 13 19 56 60 10 75 31 61 41 70 46 43 27 49 20 52 73 16 32 28 26 14 25 6 2 76 15 40 45 67 37 9 12 77 39 29 36 1 51 65 42 63 35 18 53 72 50 5 47 3 74 79 30 58 62 7 44 38 68 48 80 24 57 22 4 78 33 66
p cnf 80 292
-1 -2 0
-3 -4 0
-5 -6 0
-7 -8 0
-9 -10 0
-11 -12 0
-13 -14 0
-15 -16 0
-17 -18 0
-19 -20 0
-21 -22 0
-23 -24 0
-25 -26 0
-27 -28 0
-29 -30 0
-31 -32 0
-33 -34 0
-35 -36 0
-37 -38 0
-39 -40 0
-41 -42 0
-43 -44 0
-45 -46 0
-47 -48 0
-49 -50 0
-51 -52 0
-53 -54 0
-55 -56 0
-57 -58 0
-59 -60 0
-61 -62 0
-63 -64 0
-65 -66 0
-67 -68 0
-69 -70 0
-71 -72 0
-73 -74 0
-75 -76 0
-77 -78 0
-79 -80 0
1 2 49 50 0
-1 2 -49 50 0
1 -2 49 -50 0
1 2 61 62 0
-1 2 -61 62 0
1 -2 61 -62 0
1 2 73 74 0
-1 2 -73 74 0
1 -2 73 -74 0
1 2 79 80 0
-1 2 -79 80 0
1 -2 79 -80 0
3 4 67 68 0
-3 4 -67 68 0
3 -4 67 -68 0
3 4 73 74 0
-3 4 -73 74 0
3 -4 73 -74 0
3 4 77 78 0
-3 4 -77 78 0
3 -4 77 -78 0
5 6 7 8 0
-5 6 -7 8 0
5 -6 7 -8 0
5 6 19 20 0
-5 6 -19 20 0
5 -6 19 -20 0
5 6 61 62 0
-5 6 -61 62 0
5 -6 61 -62 0
7 8 9 10 0
-7 8 -9 10 0
7 -8 9 -10 0
7 8 29 30 0
-7 8 -29 30 0
7 -8 29 -30 0
7 8 57 58 0
-7 8 -57 58 0
7 -8 57 -58 0
7 8 63 64 0
-7 8 -63 64 0
7 -8 63 -64 0
7 8 73 74 0
-7 8 -73 74 0
7 -8 73 -74 0
9 10 19 20 0
-9 10 -19 20 0
9 -10 19 -20 0
9 10 27 28 0
-9 10 -27 28 0
9 -10 27 -28 0
9 10 31 32 0
-9 10 -31 32 0
9 -10 31 -32 0
9 10 33 34 0
-9 10 -33 34 0
9 -10 33 -34 0
9 10 53 54 0
-9 10 -53 54 0
9 -10 53 -54 0
11 12 47 48 0
-11 12 -47 48 0
11 -12 47 -48 0
11 12 49 50 0
-11 12 -49 50 0
11 -12 49 -50 0
11 12 75 76 0
-11 12 -75 76 0
11 -12 75 -76 0
13 14 23 24 0
-13 14 -23 24 0
13 -14 23 -24 0
13 14 59 60 0
-13 14 -59 60 0
13 -14 59 -60 0
13 14 75 76 0
-13 14 -75 76 0
13 -14 75 -76 0
15 16 33 34 0
-15 16 -33 34 0
15 -16 33 -34 0
17 18 27 28 0
-17 18 -27 28 0
17 -18 27 -28 0
17 18 31 32 0
-17 18 -31 32 0
17 -18 31 -32 0
17 18 35 36 0
-17 18 -35 36 0
17 -18 35 -36 0
17 18 51 52 0
-17 18 -51 52 0
17 -18 51 -52 0
17 18 77 78 0
-17 18 -77 78 0
17 -18 77 -78 0
19 20 23 24 0
-19 20 -23 24 0
19 -20 23 -24 0
19 20 25 26 0
-19 20 -25 26 0
19 -20 25 -26 0
19 20 63 64 0
-19 20 -63 64 0
19 -20 63 -64 0
19 20 67 68 0
-19 20 -67 68 0
19 -20 67 -68 0
19 20 79 80 0
-19 20 -79 80 0
19 -20 79 -80 0
21 22 31 32 0
-21 22 -31 32 0
21 -22 31 -32 0
21 22 61 62 0
-21 22 -61 62 0
21 -22 61 -62 0
23 24 37 38 0
-23 24 -37 38 0
23 -24 37 -38 0
23 24 57 58 0
-23 24 -57 58 0
23 -24 57 -58 0
25 26 67 68 0
-25 26 -67 68 0
25 -26 67 -68 0
25 26 75 76 0
-25 26 -75 76 0
25 -26 75 -76 0
27 28 33 34 0
-27 28 -33 34 0
27 -28 33 -34 0
27 28 37 38 0
-27 28 -37 38 0
27 -28 37 -38 0
27 28 47 48 0
-27 28 -47 48 0
27 -28 47 -48 0
27 28 49 50 0
-27 28 -49 50 0
27 -28 49 -50 0
27 28 53 54 0
-27 28 -53 54 0
27 -28 53 -54 0
29 30 71 72 0
-29 30 -71 72 0
29 -30 71 -72 0
29 30 75 76 0
-29 30 -75 76 0
29 -30 75 -76 0
31 32 65 66 0
-31 32 -65 66 0
31 -32 65 -66 0
33 34 43 44 0
-33 34 -43 44 0
33 -34 43 -44 0
33 34 57 58 0
-33 34 -57 58 0
33 -34 57 -58 0
33 34 63 64 0
-33 34 -63 64 0
33 -34 63 -64 0
33 34 69 70 0
-33 34 -69 70 0
33 -34 69 -70 0
33 34 75 76 0
-33 34 -75 76 0
33 -34 75 -76 0
33 34 79 80 0
-33 34 -79 80 0
33 -34 79 -80 0
35 36 37 38 0
-35 36 -37 38 0
35 -36 37 -38 0
35 36 55 56 0
-35 36 -55 56 0
35 -36 55 -56 0
35 36 59 60 0
-35 36 -59 60 0
35 -36 59 -60 0
35 36 63 64 0
-35 36 -63 64 0
35 -36 63 -64 0
35 36 77 78 0
-35 36 -77 78 0
35 -36 77 -78 0
37 38 45 46 0
-37 38 -45 46 0
37 -38 45 -46 0
37 38 51 52 0
-37 38 -51 52 0
37 -38 51 -52 0
37 38 57 58 0
-37 38 -57 58 0
37 -38 57 -58 0
37 38 63 64 0
-37 38 -63 64 0
37 -38 63 -64 0
39 40 45 46 0
-39 40 -45 46 0
39 -40 45 -46 0
39 40 59 60 0
-39 40 -59 60 0
39 -40 59 -60 0
41 42 57 58 0
-41 42 -57 58 0
41 -42 57 -58 0
41 42 63 64 0
-41 42 -63 64 0
41 -42 63 -64 0
47 48 57 58 0
-47 48 -57 58 0
47 -48 57 -58 0
47 48 79 80 0
-47 48 -79 80 0
47 -48 79 -80 0
53 54 65 66 0
-53 54 -65 66 0
53 -54 65 -66 0
53 54 79 80 0
-53 54 -79 80 0
53 -54 79 -80 0
55 56 63 64 0
-55 56 -63 64 0
55 -56 63 -64 0
55 56 65 66 0
-55 56 -65 66 0
55 -56 65 -66 0
55 56 79 80 0
-55 56 -79 80 0
55 -56 79 -80 0
61 62 77 78 0
-61 62 -77 78 0
61 -62 77 -78 0
61 62 79 80 0
-61 62 -79 80 0
61 -62 79 -80 0
63 64 71 72 0
-63 64 -71 72 0
63 -64 71 -72 0
65 66 79 80 0
-65 66 -79 80 0
65 -66 79 -80 0
67 68 69 70 0
-67 68 -69 70 0
67 -68 69 -70 0
69 70 71 72 0
-69 70 -71 72 0
69 -70 71 -72 0
69 70 77 78 0
-69 70 -77 78 0
69 -70 77 -78 0
