c family=4-SAT n=10 instance=9 seed=726001144 models=1
c order 9 1 7 2 8 4 5 6 10 3
c order 9 3 7 2 6 10 8 1 5 4
c order 6 3 5 8 9 4 1 10 7 2
c order 1 9 8 2 4 3 7 5 6 10
c order 9 5 2 8 3 1 10 7 6 4
c order 2 3 9 7 6 8 4 1 5 10
c order 4 7 2 3 9 5 10 6 8 1
c order 4 2 7 6 5 3 10 8 9 1
c order 5 6 10 4 9 7 1 8 2 3
c order 8 10 7 5 4 9 3 6 2 1
p cnf 10 96
-3 9 7 -2 0
1 2 7 -3 0
-6 -3 -10 5 0
-8 5 -6 1 0
-6 8 10 7 0
-5 7 -6 9 0
2 -10 5 6 0
9 -10 1 4 0
5 -7 4 9 0
-4 -6 8 -1 0
-10 1 -9 5 0
3 -5 6 -1 0
7 -2 8 4 0
9 8 7 -5 0
4 9 -10 3 0
-3 -6 -1 4 0
-8 -10 -1 3 0
-4 -3 -5 -7 0
-1 8 6 5 0
1 -8 -3 -7 0
7 10 -5 2 0
-3 -8 5 -7 0
-6 -3 -7 -4 0
7 5 6 9 0
5 2 7 6 0
5 4 -10 8 0
4 6 -7 -1 0
3 -6 -10 9 0
-3 -10 6 -8 0
-8 -6 -10 7 0
10 -4 -6 9 0
9 -6 -8 -7 0
6 4 -8 5 0
7 8 10 9 0
-2 -9 6 -5 0
-6 1 -10 8 0
-6 3 -1 4 0
8 -9 6 -5 0
-6 8 -1 -9 0
-1 10 2 7 0
1 10 -8 -3 0
8 -1 -10 7 0
3 -2 -1 10 0
-4 -8 9 10 0
-3 -2 1 -8 0
-2 7 8 -5 0
6 -4 10 -3 0
-7 -3 8 -5 0
3 -9 6 7 0
3 -10 6 8 0
-2 -1 -4 10 0
-8 -5 4 -7 0
-5 -4 -7 10 0
-6 8 -4 -5 0
5 -8 -2 9 0
3 -10 -4 -5 0
-1 -9 -2 6 0
-8 5 10 -7 0
-3 -8 -7 2 0
-7 -4 5 10 0
-1 -2 -7 3 0
4 3 8 10 0
-10 3 7 -1 0
-10 -3 -2 5 0
8 10 5 -4 0
3 -6 1 -2 0
9 -4 5 1 0
4 -3 9 5 0
5 7 10 1 0
4 10 6 1 0
-5 -8 -2 1 0
-3 -5 9 4 0
6 -1 9 2 0
-2 9 1 -3 0
4 8 10 9 0
5 -8 1 3 0
-4 1 -8 9 0
-5 10 -1 -9 0
-1 -4 -5 9 0
5 -9 -4 -8 0
-2 4 -10 1 0
-10 -6 4 1 0
1 8 3 7 0
-10 -3 1 6 0
1 4 10 2 0
2 9 -3 -7 0
-10 3 -6 7 0
6 -10 -7 -4 0
7 1 -10 -5 0
-7 6 4 2 0
3 -1 -7 4 0
6 5 -9 3 0
-2 -8 5 -10 0
-7 3 -6 8 0
8 -6 2 1 0
-6 -2 3 1 0
