c family=4-SAT n=10 instance=7 seed=726001144 models=1
c order 10 4 1 9 7 8 2 6 5 3
c order 5 8 6 3 7 9 2 10 1 4
c order 6 3 5 9 1 10 2 8 7 4
c order 1 10 8 5 3 4 6 7 2 9
c order 4 6 3 9 2 7 10 1 5 8
c order 2 5 1 8 4 9 3 10 7 6
c order 7 5 8 10 9 1 3 2 4 6
c order 7 1 9 8 10 5 4 6 2 3
c order 8 4 9 1 2 5 10 6 7 3
c order 3 8 2 10 5 9 4 6 7 1
p cnf 10 96
9 -5 -6 -4 0
-8 10 -2 -4 0
7 8 -6 4 0
3 -8 9 -4 0
-3 -8 -5 -2 0
7 5 10 -1 0
-3 -2 -8 -6 0
-5 -2 -4 -6 0
-8 4 9 -10 0
3 -1 5 -4 0
3 9 4 -6 0
-10 6 -5 -9 0
9 -4 1 -10 0
5 -10 9 8 0
-4 7 -1 10 0
4 10 3 -5 0
9 -10 1 7 0
2 -7 -8 1 0
1 8 2 -5 0
-2 -6 -4 -3 0
7 1 10 -5 0
-4 1 6 7 0
9 -5 -2 8 0
8 -7 -1 5 0
-7 2 1 5 0
7 -6 -9 -3 0
-1 2 8 10 0
-9 -3 5 -2 0
6 -5 3 -7 0
-10 9 8 6 0
8 -5 -2 1 0
9 -2 6 4 0
-6 2 10 5 0
1 -7 8 -6 0
2 9 6 -1 0
6 7 -2 -3 0
-4 3 5 -8 0
-1 10 2 5 0
4 1 -7 -10 0
2 8 10 9 0
-2 -4 7 -3 0
-5 4 -3 6 0
6 -10 9 -8 0
3 5 -4 -9 0
-5 -2 3 -10 0
-5 10 1 -2 0
-4 -3 5 -8 0
-8 3 9 -1 0
1 3 -2 -4 0
3 1 -2 7 0
6 2 -8 -1 0
10 -6 3 2 0
3 4 6 7 0
-10 -2 7 8 0
-6 2 7 -1 0
10 -7 -1 3 0
3 -8 4 6 0
-4 10 7 9 0
-7 -2 3 1 0
10 -6 4 2 0
-8 6 -1 -3 0
2 9 -5 4 0
5 -3 9 -4 0
3 -1 -6 -2 0
-7 -6 -9 3 0
-9 5 10 -7 0
5 -4 2 -3 0
-9 7 2 5 0
3 1 6 -7 0
-8 -4 -7 -1 0
-3 9 -7 -8 0
2 -8 -7 10 0
-5 -4 10 7 0
-8 -7 -10 4 0
3 -7 -9 -8 0
-10 1 4 6 0
10 2 7 1 0
1 -8 -10 -9 0
7 -1 10 4 0
-6 -3 7 -10 0
-4 9 5 -7 0
-3 1 9 6 0
-2 6 -1 -8 0
-1 7 8 -3 0
8 1 6 10 0
2 -9 3 -5 0
4 1 7 10 0
-10 -7 -5 4 0
3 8 -9 -7 0
-5 8 -9 -10 0
3 1 -2 -7 0
-2 4 -7 -6 0
7 -2 -10 1 0
-9 -6 7 3 0
10 4 -3 2 0
3 -1 -6 -9 0
