c family=4-SAT n=15 instance=9 seed=726001144 models=1
c order 10 11 9 3 15 2 12 1 14 4 13 8 5 7 6
c order 4 11 2 7 1 8 3 10 9 15 13 5 6 12 14
c order 11 4 9 12 14 3 5 6 8 13 15 1 2 7 10
c order 4 8 13 10 6 7 15 2 11 14 5 1 9 12 3
c order 14 9 11 13 8 7 2 12 3 6 4 1 5 10 15
c order 6 7 15 11 3 4 9 12 2 10 5 8 1 14 13
c order 8 12 13 6 4 3 5 2 14 11 9 15 1 10 7
c order 13 4 3 1 11 7 10 5 6 15 12 8 2 14 9
c order 5 2 10 15 7 13 14 3 4 12 8 1 9 11 6
c order 15 4 10 11 14 7 5 1 8 13 3 12 9 2 6
p cnf 15 144
-15 7 9 10 0
-3 -11 -5 -6 0
12 -1 -8 -14 0
9 -5 4 2 0
-3 -12 5 -2 0
-11 -4 6 1 0
-2 -13 -12 -1 0
-7 9 -5 1 0
-1 -8 14 -15 0
-12 4 3 11 0
3 11 -14 -13 0
9 -5 -1 11 0
-3 5 6 -4 0
-4 11 -6 -12 0
15 -3 13 12 0
-4 -2 -14 -3 0
8 7 -9 15 0
-11 5 -10 12 0
-11 -9 -12 8 0
-11 15 -10 8 0
4 12 2 14 0
-3 -15 12 -10 0
14 9 -6 10 0
-12 -9 6 5 0
8 -11 -1 -14 0
-3 -7 4 -2 0
13 9 -5 -4 0
10 9 -15 1 0
-9 5 12 -14 0
-6 -13 15 5 0
-10 14 12 4 0
-7 -3 -6 15 0
8 11 10 -12 0
-9 15 -2 8 0
-2 9 -7 -15 0
-14 13 9 -1 0
-6 9 13 8 0
15 -10 -9 12 0
-6 14 -7 -5 0
8 12 6 -14 0
11 -4 12 15 0
-10 9 2 11 0
-3 -12 10 -15 0
12 15 2 -9 0
10 -13 -11 3 0
-2 -14 -11 -13 0
12 -9 11 -6 0
-14 2 -9 4 0
-9 7 4 -10 0
3 10 -7 -2 0
-3 -6 5 -8 0
9 -14 -11 2 0
1 -5 14 -13 0
11 6 5 7 0
-12 -15 -10 14 0
-14 15 2 6 0
10 5 -2 -11 0
-6 1 4 10 0
-2 9 -5 -13 0
5 7 -8 10 0
6 -1 2 -9 0
3 13 -6 8 0
-15 5 -9 -13 0
12 14 9 -13 0
10 -14 13 -3 0
4 -5 -9 11 0
-8 -9 5 2 0
-10 2 5 13 0
7 -8 -2 -10 0
9 13 -3 14 0
11 7 -1 13 0
7 12 11 -8 0
-11 12 9 -6 0
2 -1 -3 -8 0
-4 -11 6 -9 0
-1 -15 -14 13 0
-12 6 -4 8 0
9 -10 -13 8 0
-11 13 -3 -2 0
-8 -1 -2 -9 0
-11 -6 9 -15 0
12 -15 10 -2 0
-4 3 14 7 0
-7 -8 6 -10 0
6 -14 -4 -13 0
7 -10 3 4 0
13 -5 4 -11 0
-15 14 3 10 0
7 10 8 -9 0
10 8 -4 -15 0
9 -3 10 4 0
-9 -2 12 -10 0
7 9 12 4 0
3 -5 -12 -2 0
-4 9 -15 -13 0
13 -10 11 14 0
1 -14 8 -6 0
-9 -12 -14 -2 0
-7 3 14 15 0
-11 10 -14 -7 0
14 -11 2 6 0
14 -15 10 -12 0
15 9 7 6 0
-1 7 3 -2 0
2 -15 -10 12 0
-5 -9 6 -1 0
1 -13 7 5 0
-5 -2 -15 4 0
-13 -14 2 -12 0
12 10 -14 -11 0
-14 10 7 9 0
4 -14 -11 -15 0
-11 4 -1 -15 0
11 -6 -2 4 0
-7 -13 8 -1 0
-13 -10 11 4 0
-12 5 -7 11 0
12 13 2 -8 0
10 5 4 6 0
-2 11 -1 -14 0
-7 10 11 9 0
13 -6 -8 2 0
-7 10 8 -9 0
-4 14 -6 3 0
3 9 2 -5 0
-6 9 3 2 0
13 -6 -10 8 0
12 -4 7 -9 0
-2 10 -6 -1 0
-8 4 13 2 0
-2 -8 -9 10 0
12 -13 -10 -1 0
-5 2 -9 10 0
10 -15 -12 -8 0
-14 -9 4 8 0
4 3 1 -2 0
7 -2 -1 9 0
-10 -8 12 4 0
-13 -4 3 14 0
-9 -8 7 -15 0
9 3 -5 2 0
-2 -14 -13 -12 0
10 3 7 -15 0
15 -4 -12 10 0
