c family=4-SAT n=15 instance=8 seed=726001144 models=1
c order 13 11 4 8 9 6 15 2 7 1 3 5 14 12 10
c order 9 1 6 3 14 4 13 5 10 2 12 15 7 8 11
c order 1 12 5 8 7 3 4 11 9 2 15 10 6 14 13
c order 10 15 5 2 6 7 12 8 13 4 11 1 3 9 14
c order 2 11 3 8 1 9 14 5 13 4 15 12 6 7 10
c order 6 7 11 15 14 1 3 10 9 2 8 5 13 12 4
c order 12 1 6 9 7 10 8 4 15 2 14 5 3 13 11
c order 14 2 7 12 11 8 9 1 5 4 15 6 10 3 13
c order 8 1 4 11 12 9 6 5 2 7 10 3 13 14 15
c order 2 14 9 10 15 8 4 7 6 1 12 5 3 13 11
p cnf 15 144
-3 -1 8 5 0
11 -10 -14 15 0
10 14 -12 -13 0
6 4 -12 -1 0
-3 5 -6 -9 0
-12 -2 15 11 0
12 8 -6 -15 0
-5 -2 14 -13 0
13 -3 -15 -5 0
-3 -15 -11 -6 0
14 -4 -7 5 0
-11 -5 -9 -14 0
13 -12 6 -15 0
-5 -2 -8 6 0
12 -8 -13 -14 0
-3 4 -14 11 0
-5 14 -10 15 0
-10 6 -13 11 0
6 -7 14 -11 0
7 -13 11 1 0
-11 -8 -1 -3 0
7 2 13 -11 0
-2 9 3 5 0
14 12 15 1 0
9 5 -4 -13 0
-2 -3 12 5 0
3 -4 7 14 0
9 -11 2 -8 0
-14 5 9 4 0
-3 -14 -6 13 0
-14 -8 7 9 0
-15 2 -8 12 0
11 3 5 -9 0
-9 1 5 6 0
-2 12 -3 6 0
5 -12 7 4 0
-2 9 -3 14 0
-11 -10 -8 -13 0
3 -1 6 -7 0
15 -4 -14 -7 0
1 14 3 2 0
-15 -5 8 2 0
-7 -6 -1 -15 0
-15 -8 13 -10 0
6 -12 5 3 0
-9 -4 8 -6 0
-15 5 -7 -8 0
-6 -15 2 -9 0
7 4 9 6 0
10 -12 4 3 0
12 -3 8 -14 0
-14 -8 4 1 0
-11 1 6 12 0
-6 -3 -1 2 0
8 12 -10 -11 0
13 -3 2 -9 0
-7 -4 14 5 0
-2 -14 6 11 0
13 8 -15 5 0
7 10 -5 1 0
8 11 1 -9 0
7 -3 2 -9 0
6 -13 -12 -2 0
10 4 -3 7 0
-15 -2 -6 -11 0
1 4 3 12 0
-13 -9 15 5 0
-13 10 12 6 0
3 10 1 -15 0
-5 -11 -1 -3 0
10 -8 3 6 0
-11 -3 -10 -12 0
-4 15 -13 6 0
1 9 -8 5 0
9 3 14 1 0
10 -3 14 11 0
-15 -13 -11 -3 0
-3 -10 12 -2 0
10 -9 -15 -6 0
-2 -8 15 3 0
-5 -11 -6 8 0
8 -13 5 10 0
4 -10 -14 3 0
-11 -4 14 -13 0
-2 -15 9 -11 0
7 -15 6 5 0
9 -14 4 3 0
10 -1 -12 -5 0
-7 -13 14 -8 0
-4 9 -8 13 0
-9 15 13 8 0
-7 1 13 10 0
-1 -14 -8 -6 0
11 5 -1 10 0
-14 13 10 7 0
-10 -5 -2 -4 0
-3 6 -15 11 0
-7 -13 9 -12 0
7 14 -5 -2 0
7 5 -2 -3 0
-10 -9 -1 8 0
-15 2 4 7 0
13 1 3 4 0
11 10 9 13 0
-13 1 -6 5 0
-1 3 -5 -8 0
-2 -3 12 6 0
3 -1 7 -5 0
5 -15 -14 13 0
-5 12 2 -13 0
-14 2 13 -10 0
7 -10 6 -2 0
9 -6 -12 -2 0
4 12 -6 -8 0
-5 -12 14 13 0
10 11 13 -12 0
9 -6 12 -13 0
15 3 9 -13 0
4 -12 9 -14 0
-10 13 2 4 0
10 -3 15 -8 0
14 -13 1 -7 0
13 -12 -1 -9 0
14 9 -12 2 0
6 10 11 15 0
15 -14 3 -2 0
-4 -7 13 3 0
9 -7 -8 -15 0
-12 10 -8 -13 0
9 -5 -2 13 0
1 2 -14 -9 0
12 -11 -5 2 0
8 14 -13 10 0
8 -14 -7 -1 0
-6 -13 -15 7 0
-1 15 9 -10 0
-12 1 6 14 0
-2 -9 6 10 0
12 -3 5 2 0
15 -10 12 6 0
-13 10 -12 4 0
-15 -8 -6 -4 0
4 -12 1 -13 0
6 13 -14 -4 0
