c family=4-SAT n=15 instance=0 seed=726001144 models=17
c order 13 8 3 12 11 5 10 7 2 14 6 15 9 1 4
c order 3 14 7 13 10 2 12 6 15 4 11 9 8 1 5
c order 2 1 8 7 13 11 3 6 10 12 14 9 4 5 15
c order 4 10 11 14 9 8 1 12 3 2 13 5 15 7 6
c order 10 9 5 4 15 7 1 14 3 11 12 13 6 8 2
c order 5 2 3 15 7 11 13 14 8 10 4 6 1 9 12
c order 15 14 11 1 13 2 10 7 12 4 8 9 6 5 3
c order 2 15 6 14 8 9 3 4 13 5 11 10 1 12 7
c order 8 14 1 4 2 5 3 13 15 6 7 10 12 9 11
c order 5 3 11 2 14 1 9 4 13 12 8 10 7 15 6
p cnf 15 144
14 -11 -6 4 0
5 -9 -2 11 0
3 8 -7 13 0
3 13 -8 -1 0
-3 11 2 -15 0
10 1 -8 -11 0
9 -15 11 -3 0
9 15 13 1 0
-2 -4 -3 6 0
-15 -10 7 1 0
2 5 -8 -4 0
-12 1 3 -10 0
8 12 7 -10 0
10 2 -7 -11 0
-9 -14 -1 3 0
7 -14 -9 11 0
10 -8 9 3 0
12 11 -14 -4 0
-14 -9 -4 -1 0
-8 -2 -13 -5 0
14 12 6 -8 0
-1 -8 5 -7 0
2 -12 -6 -9 0
-3 1 -10 7 0
-15 1 5 13 0
-8 10 7 -14 0
-3 4 -7 -6 0
-5 -11 -7 9 0
-4 3 -14 13 0
-4 -7 13 1 0
-7 -14 8 13 0
10 3 4 -2 0
-3 -1 14 -12 0
2 -14 13 11 0
-8 1 -15 -14 0
13 2 12 -15 0
10 -3 -12 4 0
-9 -10 -14 -6 0
-2 -3 -9 12 0
-10 -13 11 -2 0
-8 15 3 4 0
13 4 3 7 0
8 -2 -10 3 0
-1 8 5 -3 0
12 6 4 -10 0
4 8 10 -1 0
3 -7 -1 11 0
-2 14 -10 9 0
-9 13 -8 -15 0
3 -15 -6 5 0
-8 5 -15 1 0
-14 -6 -9 2 0
-12 -10 5 6 0
-4 -3 -11 5 0
15 13 14 -8 0
-15 -4 -2 11 0
10 8 -12 -13 0
-4 14 -13 1 0
-6 -7 10 -4 0
3 -15 5 2 0
-14 -5 -8 -9 0
-15 -12 14 5 0
-3 13 -5 2 0
-15 11 9 10 0
-10 -2 5 -3 0
4 -1 2 -13 0
11 -14 8 6 0
14 10 6 -2 0
-8 -14 -7 4 0
-7 5 -8 -14 0
14 -6 -10 -3 0
5 10 -2 11 0
-12 10 -7 14 0
11 4 -10 1 0
5 -1 -15 -6 0
9 -3 10 -7 0
13 -4 6 9 0
-9 3 -6 11 0
14 11 15 4 0
13 10 -4 -12 0
-14 -8 12 9 0
-10 15 7 9 0
1 13 -9 2 0
4 -7 -12 1 0
-11 13 15 6 0
14 5 11 10 0
-2 15 -1 6 0
-11 -4 1 -10 0
-2 11 -15 1 0
-12 -14 -2 -8 0
-1 5 13 9 0
-6 -7 14 9 0
-8 13 15 -7 0
-14 -7 9 3 0
5 14 -13 12 0
-12 -13 -3 11 0
-5 4 8 -6 0
2 5 -14 6 0
14 2 12 -1 0
-5 -3 2 4 0
11 12 -5 -13 0
-15 6 -7 2 0
-7 15 -6 -3 0
-9 -14 -11 -7 0
10 11 1 -14 0
-15 -14 4 3 0
-13 8 14 5 0
-15 -3 -6 -5 0
-10 9 -4 -2 0
10 11 -4 -1 0
-15 -1 11 -7 0
9 8 -5 -1 0
-10 -4 -15 12 0
-12 5 -10 -8 0
12 7 -14 -10 0
11 5 9 10 0
-1 -4 15 3 0
-7 -13 8 -9 0
-3 4 -13 8 0
7 11 2 -10 0
-12 1 -14 -13 0
9 6 1 -7 0
4 12 -15 2 0
-15 12 5 14 0
-3 -8 6 -10 0
7 -12 -3 6 0
-10 -4 9 -12 0
4 6 10 3 0
-5 -7 -12 -4 0
12 13 8 -2 0
11 -6 -14 1 0
-5 -10 -6 8 0
8 -13 -10 1 0
11 -9 7 -2 0
-15 -3 8 9 0
11 -10 7 4 0
-10 15 -8 14 0
-14 1 -6 7 0
-1 -6 9 4 0
5 15 -14 9 0
8 14 -6 9 0
-11 -6 -2 -15 0
-12 -14 -5 15 0
-9 5 -14 7 0
