c family=4-SAT n=15 instance=3 seed=726001144 models=2
c order 1 3 2 7 12 9 8 5 14 4 13 11 15 10 6
c order 15 14 6 10 4 1 2 11 8 5 13 7 12 3 9
c order 10 1 12 8 7 11 4 13 14 6 5 3 9 2 15
c order 13 14 3 7 9 5 12 4 10 15 6 2 1 8 11
c order 9 1 13 8 3 11 10 14 15 4 12 6 2 7 5
c order 12 8 15 2 14 9 1 7 4 3 6 11 5 13 10
c order 9 2 10 4 3 8 13 7 1 14 12 11 6 15 5
c order 6 9 4 12 5 11 1 2 13 3 15 8 7 10 14
c order 2 8 14 10 7 1 15 11 5 3 6 13 9 4 12
c order 7 2 4 8 15 12 5 10 11 3 14 6 1 9 13
p cnf 15 144
-4 -2 11 -1 0
-8 12 -11 -4 0
3 11 -15 -5 0
6 5 -9 -3 0
5 -15 7 -13 0
11 14 15 7 0
11 -2 8 14 0
-14 9 -12 -2 0
6 7 15 -2 0
4 7 -8 15 0
4 -2 -15 3 0
2 -15 6 10 0
15 11 -13 12 0
-7 11 -3 -5 0
4 1 11 -10 0
-15 -4 -3 -5 0
3 -12 -14 6 0
1 14 -6 12 0
10 -9 -2 8 0
-3 -9 4 14 0
-6 -4 8 15 0
-3 -11 -14 -2 0
13 -7 -12 14 0
-4 15 6 8 0
-11 -8 -3 5 0
-5 -6 8 -2 0
-12 -11 14 -8 0
1 13 -3 4 0
11 -5 2 -1 0
2 -10 8 3 0
6 -15 9 -3 0
10 -7 -14 -4 0
7 9 -13 -1 0
6 -14 -10 -5 0
12 3 -7 10 0
-6 3 9 2 0
-6 12 -8 7 0
12 -4 -11 13 0
3 12 8 -9 0
-15 -1 13 -7 0
1 -9 -8 -11 0
9 -1 3 -7 0
14 6 -5 8 0
-5 2 -6 1 0
7 15 6 13 0
-8 10 7 -2 0
15 -6 -5 -2 0
7 -12 -5 9 0
-11 5 -9 -4 0
12 -7 2 1 0
-14 6 10 -12 0
-4 9 1 -14 0
-10 3 -6 -5 0
-10 -1 -13 4 0
-2 -9 -8 1 0
15 5 -1 -13 0
6 11 -2 -9 0
-4 12 15 6 0
4 10 -13 -15 0
-7 13 -8 5 0
-10 -11 13 -9 0
5 -8 9 -3 0
15 -5 -6 -7 0
-6 -5 -7 -9 0
-10 -12 -15 -14 0
5 6 7 -14 0
3 -9 4 14 0
-2 4 15 5 0
15 4 3 -5 0
8 5 2 13 0
-11 1 13 -14 0
8 10 11 -12 0
-6 15 -8 -5 0
-13 -6 10 -8 0
-5 -3 -4 9 0
3 -1 -11 9 0
-5 15 14 3 0
-2 -10 -12 7 0
8 15 7 3 0
10 2 14 -13 0
7 -14 10 -1 0
2 1 9 13 0
-14 -4 2 -3 0
5 -11 1 -9 0
-11 -12 13 -4 0
13 5 -11 12 0
1 -9 5 -3 0
2 -9 13 7 0
-5 7 15 8 0
-5 -7 2 -10 0
8 4 3 12 0
1 3 15 10 0
-1 11 -5 -10 0
3 -7 -8 -11 0
10 4 2 -15 0
3 -9 7 -15 0
1 -3 -14 -11 0
15 -8 1 -14 0
-14 -10 -15 6 0
4 -1 12 14 0
11 -3 -5 -9 0
15 -4 6 -9 0
-11 1 -9 -8 0
-9 -2 -5 12 0
-14 2 1 10 0
2 1 -4 10 0
6 11 4 1 0
9 -5 1 -14 0
-13 -11 -1 9 0
-9 -8 5 -15 0
-10 13 5 -6 0
-14 -2 -13 -6 0
3 2 -6 -9 0
6 9 13 -4 0
7 4 11 -2 0
10 1 -11 -2 0
13 -7 15 -6 0
-5 15 -14 3 0
-6 3 12 10 0
8 15 10 11 0
14 2 7 10 0
-9 14 3 15 0
-3 4 10 -2 0
-2 3 -6 7 0
14 -13 11 1 0
15 -14 4 3 0
-5 4 -3 10 0
-9 4 -10 -6 0
14 -12 -1 15 0
15 13 1 12 0
3 11 7 4 0
-14 8 -5 3 0
-2 8 -9 7 0
8 -7 14 -4 0
11 -9 2 -7 0
5 -8 -15 -13 0
-3 -4 -14 -10 0
11 4 1 10 0
10 14 1 -9 0
1 13 -6 14 0
-5 -3 -1 7 0
5 1 9 -10 0
5 9 -1 -13 0
-14 6 -1 11 0
