c family=4-SAT n=15 instance=6 seed=726001144 models=2
c order 13 4 7 2 6 15 10 11 1 12 8 3 14 5 9
c order 6 7 5 9 14 2 8 13 4 1 12 10 15 3 11
c order 9 14 3 15 7 5 1 2 4 12 11 6 13 10 8
c order 9 3 11 15 7 10 6 8 2 14 5 13 12 4 1
c order 13 2 5 3 10 4 8 1 9 11 12 7 15 6 14
c order 2 11 1 8 15 14 5 13 6 12 3 7 10 4 9
c order 11 4 5 1 2 8 6 3 12 9 15 7 10 14 13
c order 14 9 15 3 2 7 8 11 4 13 12 10 6 5 1
c order 7 11 15 13 2 9 12 5 10 1 8 3 4 14 6
c order 15 11 3 7 6 2 4 12 5 9 10 13 1 14 8
p cnf 15 144
1 10 -15 5 0
5 -8 13 1 0
-5 -3 -11 1 0
2 14 -13 8 0
-7 -14 11 12 0
-1 -11 14 8 0
5 14 -15 -6 0
-2 -14 5 -6 0
8 11 1 -15 0
2 -14 11 -1 0
-15 -3 -5 -13 0
-13 -14 -6 -1 0
-8 2 11 12 0
1 7 6 4 0
10 -8 -9 15 0
-15 -6 13 -9 0
-3 15 2 -9 0
-1 -4 -14 5 0
9 12 6 -15 0
-13 -8 -7 2 0
3 -15 5 12 0
12 -8 13 -6 0
-15 6 1 10 0
12 14 -5 13 0
-13 -1 5 2 0
14 -12 -1 -13 0
-9 -2 1 -10 0
1 -13 -9 -10 0
3 14 -1 9 0
8 -11 -12 4 0
-14 -12 15 -1 0
-14 7 -9 5 0
-15 7 -1 -3 0
-8 -9 6 -15 0
-6 8 11 2 0
-3 11 -12 1 0
-5 -11 -6 9 0
-11 14 13 -8 0
8 14 12 -3 0
-6 -1 3 -8 0
-5 -4 6 -14 0
1 -7 -11 -14 0
10 -5 -8 -11 0
3 -4 -1 15 0
-1 -12 3 -13 0
2 -4 9 -1 0
-4 -5 13 12 0
-13 15 -7 -14 0
-13 -1 15 -7 0
7 12 -1 -5 0
6 -7 9 -3 0
15 -9 -3 -5 0
7 1 -15 8 0
-8 2 15 -13 0
-7 -6 11 10 0
8 3 -7 -14 0
2 1 7 -5 0
12 -3 4 13 0
-10 1 12 -11 0
-3 14 10 13 0
5 3 -14 -10 0
4 -14 10 -12 0
-7 15 -11 -5 0
-15 12 -9 1 0
10 13 -2 5 0
-12 -13 4 3 0
-4 -13 5 1 0
3 -15 7 9 0
-2 8 12 -4 0
2 -9 1 8 0
-14 -12 11 6 0
7 -3 -15 5 0
6 12 -5 -13 0
14 9 5 1 0
10 -14 -7 3 0
-10 -2 -3 -4 0
-5 -9 13 10 0
-8 2 15 10 0
9 8 2 -12 0
-12 -5 -1 -7 0
9 13 -3 15 0
-1 -8 5 -4 0
-6 -13 -14 2 0
13 -15 9 14 0
5 9 8 4 0
-14 -2 5 8 0
-13 -2 -11 -1 0
13 15 4 -11 0
-12 11 8 -1 0
3 -7 9 -5 0
-6 7 2 10 0
-14 -8 5 7 0
6 12 -10 -8 0
11 -12 -15 -14 0
14 10 -15 13 0
6 3 11 -9 0
-1 7 -13 -2 0
6 -15 -8 2 0
13 2 11 3 0
1 -8 -10 9 0
-12 13 -11 7 0
-4 14 -3 2 0
12 9 3 13 0
-10 -1 13 9 0
1 -9 -3 13 0
2 7 -1 14 0
9 -6 -7 -5 0
-11 6 7 -12 0
8 -9 14 -11 0
8 2 -1 9 0
6 -8 10 5 0
1 6 15 13 0
-13 -12 3 5 0
13 -14 -10 -15 0
13 -2 11 7 0
12 -3 -13 15 0
-5 -8 4 15 0
6 -8 -10 11 0
-3 -1 14 2 0
-14 -8 11 4 0
-4 -9 2 -5 0
7 -8 5 3 0
-1 11 -7 8 0
2 -11 5 -13 0
12 8 9 -2 0
-14 -1 11 2 0
1 -3 8 -9 0
-11 14 10 13 0
-6 11 10 -8 0
-2 11 15 3 0
-12 -9 15 6 0
-5 6 14 2 0
15 -11 1 -10 0
14 -8 -12 -7 0
4 2 6 -13 0
4 -7 1 8 0
11 -9 -14 4 0
2 9 -11 4 0
4 -5 11 10 0
1 5 -15 -3 0
8 -15 -14 -3 0
-6 -7 9 -4 0
-9 5 2 14 0
7 15 13 5 0
