c family=4-SAT n=15 instance=5 seed=726001144 models=6
c order 5 14 11 13 15 9 12 2 6 8 7 10 4 1 3
c order 10 6 15 7 12 13 1 11 5 8 9 3 2 14 4
c order 9 6 3 12 1 2 5 13 10 14 11 4 8 7 15
c order 13 5 4 15 12 9 8 3 1 6 2 10 11 7 14
c order 9 15 14 6 1 8 13 3 2 10 12 7 5 4 11
c order 2 7 15 12 11 9 10 5 3 14 13 1 4 8 6
c order 15 7 13 3 14 9 6 2 5 1 11 12 4 10 8
c order 8 4 2 10 14 6 5 12 7 15 3 13 1 11 9
c order 12 13 5 7 8 11 1 4 15 10 2 14 6 9 3
c order 7 11 5 10 13 9 6 8 2 4 15 12 3 14 1
p cnf 15 144
-12 2 5 -1 0
-13 -1 -15 12 0
-8 -13 -10 5 0
2 -1 -4 11 0
6 13 7 11 0
-7 -8 14 5 0
-4 -3 7 -13 0
15 -13 -2 -8 0
15 3 -13 7 0
-8 7 -12 6 0
-2 11 12 1 0
1 10 8 -5 0
-8 -7 12 15 0
12 -7 5 2 0
-13 6 8 -11 0
-12 1 2 9 0
5 -6 9 -4 0
-12 -9 -8 4 0
-5 15 6 -3 0
-4 2 3 -13 0
3 -12 -13 -15 0
-12 8 -13 -7 0
12 -4 8 -3 0
-4 -3 5 13 0
9 7 -14 -3 0
7 2 -12 4 0
9 -6 11 5 0
4 9 1 2 0
-1 12 4 -13 0
5 -1 -13 -11 0
-11 4 -12 -9 0
13 15 2 14 0
4 1 13 -6 0
-12 -6 -4 -10 0
-13 -9 15 -5 0
-8 6 12 9 0
-12 -15 8 -2 0
3 9 -7 -1 0
5 -3 14 -13 0
2 -14 6 -9 0
3 14 4 -2 0
3 2 11 -9 0
-6 -1 13 12 0
-4 5 8 -3 0
-6 -4 12 -2 0
2 -7 -4 -8 0
10 -15 6 8 0
-1 2 -6 12 0
7 15 -14 12 0
-12 -3 -1 -14 0
13 6 1 -5 0
3 5 9 7 0
13 -1 -3 7 0
1 -9 -3 -7 0
-5 6 13 15 0
-7 3 5 -15 0
-14 -2 10 4 0
1 -8 2 11 0
13 1 10 -11 0
-15 -13 14 11 0
5 -8 10 -9 0
2 4 -9 10 0
7 -11 9 -13 0
-8 14 13 6 0
-3 -13 -2 12 0
7 2 -6 12 0
8 5 15 -7 0
2 15 7 12 0
-3 2 11 6 0
12 7 10 1 0
5 10 -2 -1 0
-3 -4 9 15 0
-12 -1 -9 11 0
-2 -5 4 1 0
-7 8 -14 -12 0
7 -9 -3 -11 0
2 -14 -11 1 0
3 13 6 1 0
-9 -6 4 10 0
12 15 2 5 0
1 -9 2 3 0
8 -12 -3 6 0
-10 -3 -1 -14 0
6 -11 1 -3 0
9 2 -7 10 0
5 11 4 -10 0
-1 5 -12 -10 0
-1 -11 6 -2 0
4 -14 -9 -10 0
3 -8 -9 10 0
-8 -2 -11 7 0
7 8 3 14 0
-2 -6 -4 13 0
-5 10 6 -14 0
-1 -10 4 6 0
8 -11 -2 -5 0
-6 -8 -14 7 0
-1 10 9 -8 0
6 -3 10 15 0
6 -9 -13 -14 0
-11 1 -13 10 0
-10 -3 6 -4 0
15 1 -3 11 0
10 -2 -12 -13 0
-14 -8 11 -10 0
-7 -12 15 1 0
2 14 -15 -1 0
-13 -14 -15 3 0
11 7 -10 -9 0
5 12 -6 -1 0
-2 8 14 -10 0
-3 -1 6 -9 0
-9 3 7 -11 0
-11 -3 -8 1 0
11 15 -1 -13 0
4 11 12 15 0
-12 2 -9 -4 0
2 3 14 -6 0
-1 -8 -2 5 0
-13 7 8 -11 0
-5 -4 -8 14 0
-9 5 -13 -1 0
10 -5 -11 3 0
-5 11 -8 2 0
-8 9 -12 7 0
-2 -15 -10 -4 0
-3 6 10 -11 0
-5 4 -9 -6 0
8 -15 -4 3 0
-14 -9 7 4 0
2 6 -14 -9 0
-6 10 -3 1 0
-14 -4 -15 -12 0
-9 8 -2 10 0
6 -11 10 9 0
9 8 11 -6 0
6 7 12 15 0
-15 4 -10 6 0
10 -9 -12 11 0
-4 -5 6 2 0
-12 4 -10 1 0
13 14 6 -15 0
7 4 -3 11 0
-9 3 -11 -1 0
