c family=4-SAT n=15 instance=1 seed=726001144 models=11
c order 10 15 1 6 4 5 11 3 12 9 8 7 2 14 13
c order 12 11 2 15 9 3 6 4 10 5 1 7 8 13 14
c order 10 13 4 8 5 12 11 14 7 3 15 2 9 1 6
c order 8 10 5 15 2 7 13 1 12 6 9 3 11 14 4
c order 8 1 4 7 12 10 2 11 5 15 9 6 13 14 3
c order 8 3 15 10 1 4 2 9 6 13 11 14 7 5 12
c order 8 5 2 15 12 11 4 1 6 9 10 13 3 7 14
c order 7 14 4 8 6 1 12 11 2 10 5 15 13 3 9
c order 4 14 7 12 15 11 5 1 2 6 9 8 3 10 13
c order 4 9 15 14 12 1 8 5 3 2 7 6 11 13 10
p cnf 15 144
12 10 -15 1 0
8 -7 -1 10 0
10 -14 -5 9 0
3 2 6 1 0
-9 5 -3 4 0
-5 -10 -4 11 0
-7 11 -15 -14 0
11 -8 15 5 0
-6 12 -9 15 0
14 -8 9 7 0
7 15 13 -5 0
12 8 -11 -13 0
3 5 12 -10 0
-15 2 -1 10 0
1 2 -10 11 0
-10 1 -7 -6 0
13 -15 -4 9 0
8 7 -11 -6 0
-9 -13 -12 -6 0
5 2 12 -11 0
9 -8 13 -10 0
-14 11 -4 -9 0
13 -4 9 2 0
-4 -6 3 13 0
14 -1 5 -7 0
-2 -15 -13 1 0
-4 10 13 9 0
2 1 -12 -4 0
-14 -3 -9 -8 0
9 1 3 -5 0
2 -13 12 -7 0
2 -7 9 13 0
11 3 -5 -15 0
9 -8 -12 -11 0
2 14 -15 12 0
-2 3 4 -7 0
13 -11 -9 4 0
-3 1 15 9 0
14 -11 10 -9 0
-11 13 -12 8 0
3 9 1 -2 0
-14 7 10 -5 0
4 -5 -10 -3 0
-8 -6 -9 11 0
6 -9 -12 8 0
7 -2 -10 -12 0
15 -6 11 14 0
-4 7 -1 11 0
-11 -9 15 1 0
-5 -1 -15 10 0
-8 13 12 -6 0
3 -4 2 -11 0
-3 11 6 -5 0
11 9 3 -6 0
13 -5 12 9 0
13 -11 -12 6 0
4 -15 -8 -12 0
-12 10 3 4 0
-4 9 12 -5 0
6 -15 9 11 0
3 -10 1 -14 0
-4 -14 -6 7 0
8 -11 6 -5 0
13 -15 -11 8 0
14 10 2 7 0
-11 4 -12 1 0
-1 -9 -4 5 0
13 3 -15 4 0
14 -1 13 12 0
-7 -15 1 -10 0
-8 -4 -14 -3 0
-7 -13 -15 -12 0
5 -3 -9 13 0
6 -7 -5 -10 0
13 -14 1 15 0
15 -13 5 6 0
8 9 -11 -5 0
14 -12 -1 -5 0
12 13 -4 -7 0
-10 -11 13 -1 0
-11 -10 4 -12 0
-10 -3 4 -9 0
-10 -4 6 15 0
1 14 7 -13 0
15 11 7 8 0
9 -13 -11 6 0
5 11 -10 -3 0
4 -13 15 -11 0
1 13 2 -15 0
-15 4 -5 -7 0
13 10 -12 3 0
-2 9 3 -15 0
5 9 11 1 0
8 12 -5 14 0
11 2 -6 13 0
-1 -5 -15 -14 0
-2 -4 5 11 0
12 3 -15 -10 0
-7 11 -6 -4 0
-7 14 -5 4 0
6 3 -9 11 0
5 14 -10 -13 0
-7 12 13 -8 0
9 -4 1 -12 0
8 15 9 -7 0
6 -13 9 15 0
9 15 1 4 0
15 10 -13 4 0
4 -8 2 13 0
-9 -8 -11 -13 0
12 -4 -9 -7 0
1 -15 13 10 0
-9 -6 -12 11 0
4 2 6 8 0
3 4 2 8 0
3 12 6 -5 0
9 5 -12 15 0
-12 7 -9 4 0
11 12 -10 15 0
-8 -2 6 -4 0
-8 4 15 14 0
-13 -4 10 -9 0
-11 -15 10 1 0
-6 -4 -9 8 0
1 6 -12 -7 0
6 9 -15 1 0
14 10 -6 -12 0
2 -10 1 8 0
-11 8 -14 13 0
3 15 -2 1 0
7 -5 10 -15 0
-12 14 5 3 0
-14 -12 -15 -1 0
-8 -7 12 -9 0
6 9 -7 -15 0
-13 14 5 15 0
-5 2 -9 -13 0
-10 6 -5 1 0
15 -10 -8 -12 0
7 9 15 -11 0
15 3 8 7 0
-6 -15 13 5 0
1 -4 -2 -3 0
13 -6 -10 -9 0
