c family=4-SAT n=20 instance=5 seed=726001144 models=2
c order 18 14 2 13 19 1 10 15 3 17 4 7 20 12 9 6 8 5 11 16
c order 20 4 7 18 17 15 3 10 6 16 12 11 5 2 13 9 14 8 1 19
c order 3 20 2 18 9 14 7 10 6 15 11 12 1 19 17 16 5 13 8 4
c order 3 14 2 12 5 17 8 6 4 20 1 19 18 11 16 13 7 15 9 10
c order 2 20 5 16 9 13 7 14 4 3 8 19 18 17 6 15 12 10 1 11
c order 18 16 15 12 6 8 4 5 20 13 3 11 2 17 10 9 14 7 19 1
c order 15 11 7 19 4 14 18 20 2 6 12 8 16 9 17 5 1 3 10 13
c order 13 4 14 15 18 3 9 8 12 6 2 5 17 11 20 19 7 10 16 1
c order 4 7 11 12 19 13 18 15 20 8 1 3 10 14 17 16 9 5 6 2
c order 17 19 18 11 20 12 2 6 14 8 10 15 5 7 4 13 16 3 9 1
p cnf 20 192
-16 -10 8 19 0
-2 19 -8 -9 0
-9 -2 -3 -19 0
10 11 -5 -6 0
18 -2 19 -10 0
-6 12 13 -20 0
4 -18 13 -14 0
4 -16 -6 -18 0
11 16 -13 -20 0
-6 -1 14 8 0
-3 -10 -11 -17 0
-1 -11 18 -2 0
20 9 -10 19 0
-7 13 14 -8 0
-9 19 -18 17 0
-17 -11 2 19 0
-5 -2 18 4 0
2 -17 3 13 0
19 11 -4 14 0
-6 -11 15 -3 0
8 -4 -17 -6 0
-18 -1 7 -12 0
-1 11 2 20 0
4 11 -6 10 0
-16 2 13 9 0
-20 -3 -17 19 0
-8 1 -10 -7 0
-4 -15 -11 -18 0
-20 5 19 -9 0
-5 -16 -11 -3 0
-15 -9 -14 -4 0
11 -19 -15 9 0
6 -9 7 20 0
8 -1 2 -20 0
5 -8 -11 -9 0
3 -20 1 -16 0
17 -15 8 -16 0
-17 6 4 12 0
-18 -13 10 -3 0
-7 -19 -18 2 0
16 -2 17 -18 0
16 12 -18 4 0
17 -8 16 19 0
9 14 19 11 0
-18 -12 3 5 0
8 -6 1 -4 0
-3 -16 -13 -7 0
-2 3 7 11 0
-9 5 11 -13 0
-15 13 19 11 0
-1 -7 19 10 0
-17 -2 3 16 0
-4 -1 5 -16 0
8 -20 -3 -10 0
1 8 -19 -3 0
-12 -1 -16 4 0
-4 7 -18 -6 0
-10 11 14 7 0
18 -19 9 -17 0
-5 13 11 -15 0
9 16 4 17 0
-14 -11 -9 -19 0
-13 18 20 -12 0
8 11 -13 17 0
4 6 11 16 0
-12 20 15 -16 0
15 -12 20 3 0
2 -12 -5 -20 0
-10 17 9 15 0
-17 7 8 -10 0
19 15 -16 -5 0
-6 -14 13 7 0
2 18 8 -1 0
-19 -7 6 -3 0
1 2 -18 -16 0
5 11 14 -7 0
12 -9 10 -8 0
6 14 9 15 0
-6 -17 11 13 0
-7 -4 -17 -15 0
9 12 5 -1 0
-13 -2 19 -17 0
-10 -7 9 3 0
1 2 3 5 0
4 5 -13 10 0
1 5 8 10 0
16 4 15 -17 0
2 19 14 7 0
-9 7 10 -16 0
19 -3 1 -11 0
13 11 15 9 0
11 8 -14 -18 0
14 7 8 10 0
-15 -7 -17 4 0
-12 1 -3 -18 0
-19 1 2 -8 0
13 -7 6 -1 0
12 6 14 -17 0
20 -7 -3 -15 0
5 -15 11 18 0
12 3 -8 6 0
-10 13 11 -18 0
13 -4 -3 -6 0
6 -10 11 -9 0
-2 11 16 -15 0
-14 16 -7 -3 0
19 6 2 -20 0
7 15 -13 12 0
13 -19 -10 11 0
9 11 5 19 0
-6 -16 7 -15 0
5 -7 -12 10 0
13 -2 10 -9 0
12 -13 -7 18 0
-19 -4 -12 3 0
1 3 11 19 0
12 -18 20 16 0
6 1 20 -19 0
20 -7 -15 -16 0
-2 14 -16 8 0
-15 -7 -20 11 0
9 -4 12 -15 0
-12 7 -17 3 0
12 13 7 15 0
-17 -18 20 -9 0
-2 -10 -14 -4 0
-16 8 19 -7 0
12 7 -4 -14 0
19 -7 -9 -1 0
4 13 -16 -19 0
16 3 -17 -7 0
2 -15 16 7 0
20 -18 -11 2 0
-14 -19 -6 -11 0
-11 -12 1 17 0
14 16 -6 20 0
19 -17 7 12 0
-8 6 -3 5 0
-11 9 -4 -7 0
-12 -14 10 -2 0
14 1 15 -8 0
12 4 7 8 0
3 15 17 -7 0
-7 -13 14 2 0
-7 4 -14 6 0
15 -6 -11 -20 0
-6 -20 -19 -14 0
3 -7 -6 -15 0
4 -12 19 -2 0
-14 -5 1 3 0
20 14 12 8 0
11 1 -17 4 0
-15 -9 -12 19 0
-1 -14 6 -10 0
-15 5 -17 -1 0
3 1 -5 7 0
12 -17 4 9 0
17 -18 -6 -5 0
-3 6 14 10 0
-6 17 16 14 0
3 -7 -9 -12 0
-13 -4 -19 -11 0
3 18 15 -11 0
3 -13 14 -9 0
-15 8 -4 5 0
-7 3 2 -1 0
-4 -12 9 -11 0
19 16 -20 13 0
-3 10 7 20 0
2 1 -5 -20 0
7 9 5 -16 0
-7 8 10 -11 0
-9 8 -20 -2 0
15 5 16 -17 0
15 -1 10 -4 0
20 16 -17 -6 0
15 -10 -5 12 0
10 18 -3 14 0
-1 -4 -17 -16 0
19 -11 14 12 0
-1 -6 19 -8 0
-7 20 -9 -2 0
10 -3 5 -9 0
-19 -9 -10 2 0
-15 -13 20 9 0
-16 -9 8 6 0
18 -7 4 -11 0
-6 7 -9 -16 0
7 -14 18 11 0
-19 1 -10 -2 0
19 1 -13 -7 0
-4 13 -8 7 0
