c family=4-SAT n=20 instance=9 seed=726001144 models=7
c order 2 4 13 3 12 15 11 19 10 6 16 18 8 5 14 7 20 9 1 17
c order 16 20 1 2 4 5 14 3 18 10 9 15 8 7 6 13 12 11 19 17
c order 13 7 6 5 19 20 15 14 2 12 16 11 1 10 4 8 17 3 9 18
c order 20 5 10 7 8 11 3 13 6 16 17 9 15 2 1 12 14 18 4 19
c order 3 12 15 19 8 11 13 4 7 16 1 18 10 20 2 5 14 17 9 6
c order 6 10 7 13 15 8 12 11 5 4 9 17 3 2 20 1 19 18 14 16
c order 3 19 13 7 11 5 14 2 17 10 6 12 20 15 16 4 8 18 9 1
c order 1 7 10 4 5 20 8 19 3 15 18 14 17 12 13 16 2 11 9 6
c order 8 14 11 13 18 5 15 16 1 2 3 10 20 19 6 12 17 7 4 9
c order 17 20 4 11 13 2 9 6 18 14 1 7 5 15 12 10 8 19 16 3
p cnf 20 192
19 -7 16 4 0
-5 3 -14 10 0
2 -8 9 -18 0
-13 6 5 11 0
11 15 7 9 0
11 15 7 -2 0
18 12 -9 -19 0
-5 -12 17 15 0
-20 19 13 18 0
11 6 2 -10 0
1 -16 -20 -12 0
-7 3 -4 -14 0
-18 8 -9 -7 0
11 -17 -3 -13 0
19 17 5 -11 0
-8 -10 13 5 0
19 4 2 3 0
-15 10 -6 -5 0
17 -16 2 -19 0
-7 -15 -3 -12 0
-6 -16 11 -7 0
13 7 11 -2 0
2 -3 -13 9 0
-19 15 1 -18 0
-20 5 -19 17 0
7 -14 12 -6 0
-13 8 -10 11 0
-13 -3 1 7 0
-3 1 10 -18 0
17 16 -18 -9 0
3 -2 -11 -12 0
13 -2 15 14 0
-6 10 16 -18 0
-14 -16 10 17 0
17 13 19 9 0
6 16 18 -9 0
-10 4 -17 19 0
-4 8 2 -11 0
1 -4 -15 18 0
10 -14 -19 -18 0
5 11 -8 -13 0
2 -17 13 19 0
-4 16 -11 -10 0
-4 1 -15 3 0
-20 19 6 11 0
15 1 -17 19 0
-16 -7 -15 -13 0
-13 -16 -3 9 0
-17 16 13 7 0
10 -14 13 -16 0
2 -7 1 -3 0
20 18 11 -5 0
-9 -10 -16 20 0
4 20 -11 12 0
-15 -19 -5 -13 0
13 -7 -9 -5 0
-11 16 10 17 0
-2 11 -8 13 0
3 1 -2 6 0
16 10 -15 9 0
14 -5 -8 -13 0
7 -1 -17 -10 0
16 19 5 17 0
-2 6 19 8 0
3 -14 -2 20 0
-13 16 -9 -14 0
14 7 -2 -11 0
-2 -4 -5 -16 0
-7 -19 5 -13 0
-5 10 19 13 0
-6 17 20 2 0
-14 9 -13 -2 0
11 10 15 3 0
16 -20 6 -14 0
-2 -6 -9 -7 0
-2 -1 10 -13 0
12 -9 -10 -17 0
-4 8 -6 7 0
9 5 4 -16 0
20 -16 -19 -12 0
-6 -19 2 5 0
-4 -6 7 -19 0
-14 7 15 -20 0
6 -1 -18 10 0
-10 3 17 9 0
-10 9 -19 6 0
8 -2 -10 -1 0
-6 -2 11 7 0
10 -18 -13 -1 0
12 13 7 -6 0
-9 1 3 -19 0
-20 19 -4 11 0
11 -7 5 -9 0
5 -14 -6 7 0
14 4 -19 -10 0
-8 -1 14 -20 0
-9 -19 -11 -18 0
10 3 7 -16 0
-17 -6 -12 14 0
-9 -14 -1 5 0
13 -9 -17 -19 0
-14 3 9 -15 0
-20 10 -6 17 0
10 -8 -6 12 0
17 16 20 -1 0
-16 11 13 4 0
-12 9 10 18 0
-10 -14 6 -9 0
-13 -15 5 1 0
9 -4 -7 -5 0
3 15 19 9 0
-6 -20 -18 10 0
18 -8 -4 3 0
2 -8 -14 5 0
-3 -2 15 -1 0
-3 1 -15 -12 0
-11 12 -19 18 0
-1 12 16 14 0
7 8 -9 -12 0
-6 8 17 13 0
-5 16 20 -6 0
6 -17 2 -14 0
-5 -4 -12 13 0
19 -14 2 7 0
-4 9 3 -14 0
-2 -3 5 -10 0
-5 -11 8 -19 0
20 -8 -7 -3 0
11 6 9 -17 0
-2 -11 -16 -3 0
12 20 -13 16 0
10 -13 4 3 0
2 11 9 3 0
17 -13 -6 -5 0
8 -6 -12 -13 0
-4 -19 16 -5 0
-19 -2 -8 1 0
-17 -7 -10 6 0
17 -2 12 -5 0
-12 -4 19 -11 0
18 20 -7 19 0
-15 20 -5 -7 0
10 -2 19 14 0
-6 -10 12 -2 0
-11 -18 5 -20 0
-9 17 6 -1 0
7 18 16 11 0
-16 -5 15 -17 0
2 -15 -18 -8 0
-11 -18 14 7 0
2 -4 15 -1 0
4 15 1 19 0
-12 -16 18 8 0
-3 -20 -4 -16 0
3 14 8 -17 0
-19 -15 1 -5 0
-6 10 -18 7 0
-5 -14 12 15 0
20 10 -17 -1 0
4 1 7 16 0
-15 12 -17 -1 0
-12 2 16 14 0
7 17 19 10 0
14 -12 -13 -16 0
12 6 19 -14 0
4 -10 18 2 0
-11 5 -8 3 0
3 8 -16 18 0
-4 8 -10 17 0
6 -3 18 7 0
-16 -10 3 11 0
-18 -2 1 12 0
20 18 11 17 0
-11 -4 19 -8 0
-8 5 14 -7 0
-5 -1 -3 12 0
13 10 9 -17 0
9 18 -5 17 0
2 -5 20 -17 0
19 18 -14 -4 0
-9 -4 14 7 0
-1 -17 11 3 0
-15 -13 -6 8 0
-3 19 14 -10 0
2 17 -9 19 0
-19 17 -7 -14 0
-18 2 1 10 0
-4 -19 -9 15 0
1 3 18 -4 0
-2 9 13 7 0
6 -15 -11 -1 0
15 -12 -20 -1 0
