c family=4-SAT n=20 instance=1 seed=726001144 models=8
c order 16 13 15 9 10 19 17 11 8 4 5 1 18 2 12 7 14 20 6 3
c order 8 6 16 15 2 12 7 13 3 19 18 10 11 4 9 17 5 20 1 14
c order 18 7 14 1 2 20 11 9 15 12 13 3 19 6 17 4 8 16 10 5
c order 7 9 11 19 16 14 1 5 15 20 8 10 4 13 6 18 17 12 3 2
c order 16 10 6 17 20 1 18 8 19 4 14 9 5 7 13 3 11 12 2 15
c order 1 6 18 3 9 5 4 12 10 7 2 13 20 15 11 17 8 14 19 16
c order 9 3 16 1 15 4 12 5 11 13 8 14 20 17 6 19 10 7 2 18
c order 3 14 11 13 15 5 18 6 1 4 9 7 8 17 20 16 10 12 2 19
c order 7 3 17 20 1 18 12 15 10 4 8 13 11 6 9 16 19 14 2 5
c order 16 13 11 5 18 6 20 1 10 4 12 14 15 8 17 2 19 3 9 7
p cnf 20 192
15 10 -12 -16 0
8 17 9 18 0
-10 7 20 9 0
13 16 1 -15 0
-14 -3 -15 7 0
6 12 18 -15 0
17 -7 -15 11 0
19 -17 -3 -12 0
-12 -3 6 -10 0
5 -10 3 -4 0
-5 16 3 -20 0
20 1 11 4 0
-13 16 8 9 0
13 18 -8 11 0
14 -3 -17 -8 0
6 5 -3 -17 0
18 -4 -8 16 0
1 -5 -3 -11 0
4 12 6 -11 0
2 -5 -12 -16 0
16 -4 -20 12 0
-3 19 15 -5 0
-8 -7 -5 15 0
-17 6 2 8 0
3 6 19 -1 0
-7 -10 -20 9 0
7 -1 -16 5 0
-15 -9 17 -18 0
-20 -14 -3 10 0
10 -9 11 2 0
8 17 -12 3 0
-2 20 -18 8 0
-16 9 -3 7 0
6 10 11 -18 0
-13 11 12 -17 0
2 1 14 -9 0
2 -12 19 -15 0
3 -16 7 17 0
-5 17 -1 -12 0
12 -1 17 -20 0
11 7 4 9 0
-3 12 -11 -2 0
9 12 20 -2 0
19 6 9 -4 0
13 11 -14 -19 0
1 10 -16 -15 0
-11 -10 7 14 0
3 -12 6 15 0
2 3 1 -8 0
16 10 15 19 0
-10 -8 14 -5 0
-4 -18 19 -17 0
5 -11 -1 8 0
1 18 15 11 0
-8 -9 -20 -15 0
9 8 11 4 0
7 -8 11 -16 0
-12 19 -8 -13 0
17 1 -12 6 0
-17 -3 6 8 0
-1 -4 7 -19 0
-5 13 10 16 0
19 7 -8 12 0
-12 15 -5 -20 0
11 -5 15 -14 0
-14 -10 9 2 0
-15 9 3 6 0
12 20 -4 -1 0
-7 20 -2 11 0
-11 6 7 9 0
6 16 -20 8 0
1 -18 3 -8 0
3 -5 18 -4 0
9 -17 -12 13 0
-13 -2 -18 9 0
2 -11 16 20 0
-9 1 -6 16 0
3 5 9 19 0
18 -14 10 9 0
-15 -7 2 18 0
8 17 3 13 0
-6 11 -2 19 0
3 -19 5 -15 0
-15 8 6 11 0
-11 -4 9 -1 0
10 3 19 1 0
-8 -19 15 -11 0
-7 13 5 -15 0
17 20 -12 -15 0
-8 -3 5 -9 0
9 7 14 -15 0
12 6 15 -19 0
-4 -16 1 12 0
18 20 2 3 0
17 -10 12 -14 0
-15 -14 6 13 0
12 18 -11 15 0
13 -11 6 10 0
10 -3 -1 11 0
-1 12 -17 -9 0
8 9 5 20 0
-3 -9 17 15 0
-11 -3 16 19 0
7 20 -3 10 0
17 5 14 -4 0
-13 11 -4 -15 0
-6 4 5 -3 0
-3 9 19 17 0
12 5 -15 6 0
19 -18 20 -7 0
-7 -16 -11 -9 0
-7 -1 14 -5 0
16 4 10 19 0
20 10 19 6 0
16 19 -12 5 0
-16 12 1 20 0
2 -12 -9 3 0
1 14 13 9 0
-13 -20 7 -2 0
-1 15 13 -4 0
1 -6 9 19 0
19 -2 -13 8 0
11 19 -2 -1 0
-15 -14 -1 -16 0
-10 -20 -9 12 0
-15 -3 8 -10 0
-13 20 -18 8 0
-9 -14 -18 -3 0
-19 -16 14 -10 0
11 -19 4 -8 0
5 -9 -4 19 0
-1 3 -19 13 0
13 1 6 10 0
-14 13 -15 -2 0
-9 6 -17 -7 0
-16 8 -15 18 0
16 -9 2 -1 0
20 14 1 -18 0
3 15 -10 -2 0
-13 -12 11 -2 0
-6 19 4 16 0
5 6 18 -10 0
6 -13 12 14 0
-19 -1 -16 17 0
-3 -5 11 -15 0
7 -1 -16 15 0
2 17 -18 12 0
16 -1 -8 -7 0
17 13 -16 1 0
19 6 -18 17 0
14 6 -1 -17 0
-4 -3 -16 -13 0
-15 9 2 -8 0
-8 1 12 16 0
-8 2 11 9 0
12 -3 -14 2 0
3 14 4 12 0
-6 13 9 8 0
-12 17 4 -11 0
-16 -11 -17 14 0
8 7 18 14 0
17 -18 12 -3 0
5 -17 -6 15 0
11 -19 -4 3 0
19 6 -10 -4 0
-19 6 1 -7 0
10 1 -11 -20 0
-18 8 -3 -1 0
-6 11 -20 -12 0
-2 4 6 9 0
-2 -16 -1 5 0
-11 -20 2 9 0
14 -17 -6 -4 0
13 -18 -6 -8 0
-7 -18 -5 -11 0
8 -13 9 -14 0
-8 -11 -3 -5 0
15 -2 -19 -20 0
20 -15 -9 -1 0
-6 -17 16 -12 0
10 13 19 -1 0
5 -12 -13 10 0
15 -6 -8 -9 0
7 -15 6 13 0
6 15 -9 18 0
17 -16 6 -20 0
-1 6 8 -7 0
5 -16 -3 2 0
-9 -12 10 -3 0
6 4 18 9 0
-13 3 14 -2 0
4 -8 -13 -3 0
