c family=4-SAT n=20 instance=8 seed=726001144 models=2
c order 11 1 15 20 4 16 18 17 14 5 7 10 13 9 19 6 3 2 12 8
c order 14 17 9 7 10 12 4 3 11 1 16 20 2 18 5 19 15 8 13 6
c order 18 6 5 7 19 8 1 15 17 20 14 9 3 4 11 10 2 16 12 13
c order 13 12 10 6 8 20 14 1 3 9 17 7 4 2 19 11 16 15 18 5
c order 8 18 12 9 15 10 7 19 14 13 17 3 5 2 4 1 16 20 11 6
c order 18 13 6 8 7 19 5 16 1 12 9 3 10 14 4 2 20 17 15 11
c order 10 14 9 11 1 17 15 4 8 3 5 18 6 12 20 7 13 2 16 19
c order 10 5 9 8 6 14 16 19 3 18 15 7 2 1 4 17 12 20 11 13
c order 11 4 7 1 17 10 13 20 15 19 16 6 18 12 8 9 2 14 3 5
c order 2 15 18 11 16 3 10 12 6 17 14 1 7 20 4 8 13 9 19 5
p cnf 20 192
10 -16 6 -8 0
-6 -16 -19 -13 0
16 18 -17 -9 0
11 -13 19 -9 0
-15 -13 -14 -16 0
14 -3 -8 -16 0
-13 -2 11 -6 0
9 -14 5 8 0
-13 -19 -9 -5 0
-13 -2 -12 4 0
-6 10 -17 14 0
-6 -7 -20 9 0
18 -19 8 -17 0
10 -4 20 -8 0
-11 12 -14 16 0
12 13 -20 2 0
15 -10 3 9 0
-17 -9 -18 -1 0
-4 20 17 -15 0
-8 -1 14 6 0
4 -12 17 -2 0
-18 -6 20 15 0
-17 -3 -15 -6 0
10 -19 -20 4 0
-11 -10 -20 19 0
-17 8 6 -20 0
2 -10 13 4 0
7 -1 -18 -20 0
8 13 4 -18 0
3 -11 -9 8 0
-17 1 -3 8 0
12 -20 1 -13 0
16 17 -6 20 0
18 8 10 16 0
12 15 -18 17 0
-16 18 19 8 0
10 -1 6 18 0
20 7 4 -13 0
-20 6 -4 14 0
3 2 6 12 0
-10 -9 14 3 0
10 9 -4 -19 0
-18 -20 -19 9 0
9 -4 -12 1 0
11 15 -6 18 0
-12 -13 -7 16 0
-10 -9 -11 17 0
-8 6 1 -20 0
15 18 -10 5 0
16 -10 18 -7 0
-10 3 -12 9 0
4 2 -10 -20 0
-15 4 -19 -9 0
4 -3 15 1 0
7 -1 -19 16 0
11 19 -2 4 0
-6 20 -18 -13 0
11 16 4 20 0
2 -18 -13 5 0
19 3 8 -4 0
1 16 6 12 0
-13 15 19 -20 0
-8 -4 20 7 0
-2 -14 10 3 0
-6 -13 8 -12 0
-4 -2 -1 12 0
-12 17 -1 -11 0
18 -5 -12 -13 0
-7 16 5 -4 0
7 12 10 -13 0
1 5 18 -8 0
16 18 -5 8 0
-12 -19 -1 -8 0
-6 -4 -9 18 0
5 -7 14 6 0
13 -2 4 -6 0
-11 1 -17 3 0
-4 5 18 12 0
-7 -18 9 -13 0
12 20 -7 -19 0
4 8 13 18 0
18 -4 3 -13 0
-16 -20 -1 9 0
3 -9 11 2 0
2 -19 12 20 0
-11 -9 1 8 0
9 -20 -5 -13 0
-1 -2 18 10 0
-15 -10 -14 -2 0
-16 -14 -15 -9 0
-13 -3 -18 -16 0
17 -3 -14 -15 0
8 15 -9 -7 0
-7 17 -18 -4 0
5 2 6 -11 0
-20 17 14 -12 0
-5 -10 -17 -4 0
10 2 3 5 0
3 16 5 14 0
-3 -2 14 6 0
-16 12 -7 6 0
19 15 -5 20 0
-16 -19 -15 -3 0
-12 17 -5 18 0
7 9 16 -12 0
15 12 -18 17 0
13 -7 17 -15 0
8 2 -9 6 0
-4 -10 18 -11 0
-9 14 3 5 0
-6 7 17 8 0
-10 15 11 -20 0
-16 7 -9 -12 0
-16 15 -8 11 0
17 20 -3 16 0
-18 -9 -1 -6 0
1 18 -3 2 0
-6 14 -7 -5 0
18 -15 10 -3 0
19 -6 -9 -17 0
20 5 -7 18 0
-3 2 8 -20 0
-10 16 -14 6 0
-19 -11 5 15 0
16 6 -20 -5 0
20 12 14 9 0
19 -6 4 -16 0
4 -14 -6 8 0
-1 9 -14 4 0
-20 -13 2 -3 0
-3 5 12 -18 0
-13 -12 11 -1 0
9 18 12 -15 0
-9 15 4 19 0
-16 12 7 11 0
2 -15 -7 -1 0
4 -1 -16 10 0
10 -13 18 14 0
16 -5 6 -7 0
3 -5 -20 -13 0
15 14 5 -3 0
20 -16 14 -6 0
-17 18 15 13 0
-13 17 -6 -7 0
-13 19 10 -4 0
4 -5 7 6 0
15 -19 -3 12 0
-17 -11 14 3 0
-20 -14 -18 7 0
-14 -16 -20 12 0
7 2 -5 17 0
-4 -15 1 -6 0
-13 5 12 1 0
-17 -8 15 4 0
-4 -8 10 13 0
-10 17 4 14 0
19 -8 -10 7 0
-14 12 -9 8 0
-15 5 -14 -20 0
7 -18 20 13 0
19 -8 -11 -7 0
12 4 14 -9 0
-5 12 7 1 0
3 5 10 -18 0
-10 -6 2 12 0
-2 15 17 -8 0
-3 19 -17 7 0
-3 5 14 -17 0
15 7 3 17 0
10 1 -5 9 0
-14 12 15 -16 0
16 -13 6 -2 0
-15 -9 18 -17 0
5 17 -18 -20 0
8 10 -13 -9 0
6 16 15 5 0
-1 -7 12 8 0
7 10 -8 20 0
5 4 -17 -2 0
-20 6 -2 -11 0
-7 -18 -5 17 0
-20 16 15 -9 0
6 -14 10 15 0
4 -14 -15 -8 0
-10 20 -19 14 0
2 -18 -19 8 0
-16 19 11 -2 0
3 -15 -2 -13 0
3 16 2 -13 0
10 -15 18 -9 0
-6 -13 -5 19 0
20 3 18 -5 0
