c family=4-SAT n=20 instance=4 seed=726001144 models=20
c order 15 12 5 16 19 6 10 17 3 13 20 4 1 18 8 9 14 7 2 11
c order 19 16 2 15 3 1 10 4 18 12 7 14 9 6 13 20 17 11 5 8
c order 9 12 14 2 1 6 8 13 19 15 3 7 5 11 20 18 16 4 10 17
c order 14 2 19 6 11 20 8 18 13 4 17 3 12 7 10 9 16 1 5 15
c order 16 20 1 19 5 15 4 11 3 18 9 6 17 2 8 10 14 7 13 12
c order 8 1 15 12 13 7 2 9 20 10 18 14 16 6 19 5 17 4 11 3
c order 3 15 11 13 6 4 5 18 17 16 1 10 8 12 7 14 19 2 9 20
c order 16 8 17 5 10 15 12 3 2 1 20 9 14 7 18 6 11 4 13 19
c order 1 7 13 4 11 5 10 18 12 17 9 2 16 20 14 3 6 19 8 15
c order 18 10 2 17 8 20 15 6 16 3 1 12 13 9 14 11 19 4 5 7
p cnf 20 192
19 -4 -12 -14 0
4 5 9 -10 0
6 -16 7 9 0
-1 5 -11 12 0
-7 -2 20 18 0
-9 20 -5 11 0
-8 1 19 4 0
-6 -9 1 -18 0
2 -15 17 -6 0
-20 -5 -15 -16 0
1 -3 -9 -11 0
1 -3 20 -10 0
18 5 6 20 0
13 -18 -8 -5 0
2 16 8 -17 0
-14 -20 -9 2 0
-6 13 -2 17 0
-16 14 3 1 0
-10 13 -18 -12 0
14 8 -5 -16 0
-6 7 12 11 0
-2 6 -17 -16 0
14 4 -11 -5 0
9 6 -14 -2 0
-19 -8 5 1 0
-17 12 8 4 0
4 19 -1 9 0
-11 6 4 -15 0
17 1 7 4 0
-8 -4 19 -9 0
-15 7 5 -4 0
13 12 -20 14 0
-14 5 20 7 0
-15 9 -13 -3 0
-2 5 -16 7 0
14 15 -11 -16 0
2 -3 -18 15 0
7 16 8 -4 0
9 7 -3 14 0
-17 9 7 3 0
-18 -12 7 3 0
17 -13 7 1 0
-17 8 -11 7 0
9 20 10 4 0
-3 -9 -16 15 0
5 -10 -15 -18 0
14 8 -1 17 0
-18 6 2 -10 0
-5 -15 6 -18 0
10 4 -7 -6 0
14 -7 20 -3 0
-6 -11 9 -12 0
19 1 -12 -17 0
20 -15 10 19 0
5 -16 -14 13 0
-9 -3 11 6 0
-2 15 -11 17 0
-8 -6 7 2 0
18 3 -16 15 0
-1 20 5 8 0
-5 -17 -12 -4 0
-18 -19 -11 14 0
-2 -16 1 -14 0
5 13 11 12 0
-6 -12 2 17 0
-19 3 9 4 0
-18 12 6 -11 0
-10 2 -12 -4 0
16 -17 1 -3 0
15 2 3 -17 0
13 -3 10 -12 0
-3 -15 -20 1 0
-19 15 -18 -9 0
-16 6 3 -11 0
-6 -16 -12 -18 0
-13 -19 -16 8 0
-14 3 -8 -7 0
-14 9 13 15 0
-6 4 14 20 0
-16 -5 4 -2 0
-2 -12 14 7 0
4 5 9 -17 0
13 -10 20 -7 0
-19 -2 -20 -7 0
6 14 8 19 0
17 -12 15 -8 0
-12 18 -7 -17 0
-7 -2 16 5 0
19 5 6 4 0
12 13 -20 14 0
-14 -5 -7 -1 0
-8 -4 -6 -3 0
7 -9 -16 -15 0
10 16 -15 4 0
-10 16 -8 13 0
2 15 17 -8 0
-17 3 -6 10 0
-9 4 16 -19 0
-17 -10 -8 -4 0
1 10 -14 -3 0
5 10 -11 -20 0
-2 -12 17 -4 0
6 -19 -14 -1 0
-6 -4 19 18 0
-5 19 -9 -4 0
-18 4 19 12 0
8 -2 -17 15 0
-15 6 -3 17 0
6 -5 16 -3 0
-12 1 2 -3 0
3 2 6 4 0
-6 15 -19 3 0
-18 -7 16 11 0
16 -1 -9 -20 0
-17 -12 -14 -11 0
7 -2 4 -11 0
-16 4 -11 -6 0
-14 -6 19 -12 0
-5 -4 -12 -20 0
9 -5 17 3 0
12 20 14 -16 0
-17 -12 4 -3 0
-12 -1 19 -5 0
15 -6 9 -1 0
11 -1 16 -8 0
-16 -1 14 12 0
15 -17 -10 -5 0
-11 -8 -15 -12 0
4 -20 -11 -18 0
-7 19 -1 -11 0
-1 4 18 -19 0
11 14 -2 20 0
-9 12 -17 -4 0
6 -5 17 -1 0
3 -18 -11 -20 0
-14 13 5 -17 0
13 8 11 -2 0
16 15 -2 19 0
18 3 9 -2 0
-5 -4 6 -1 0
-17 -18 -16 5 0
-8 -15 5 -10 0
18 8 11 -19 0
18 -12 4 -15 0
5 16 -7 -1 0
-8 -17 13 11 0
-17 -15 16 5 0
17 4 8 9 0
-7 -6 -15 16 0
-11 4 8 -16 0
-7 -18 12 9 0
-11 5 -19 7 0
-1 13 -16 -10 0
-6 19 4 -13 0
-20 12 -10 5 0
-7 13 10 8 0
-4 15 8 -16 0
13 -1 -10 -18 0
-9 6 13 -17 0
-7 -19 -6 2 0
-4 10 14 -13 0
-12 1 -10 -7 0
-2 12 -17 10 0
17 10 14 -1 0
-16 9 -4 13 0
-17 12 -9 14 0
20 13 7 -6 0
15 -11 12 -5 0
-14 11 5 6 0
6 16 -10 9 0
-7 13 -15 5 0
12 -11 15 -20 0
-12 -2 -16 7 0
19 8 15 -9 0
-18 -5 3 -11 0
9 15 7 -8 0
-17 -15 -18 10 0
-3 -11 -6 20 0
-3 -14 -1 -11 0
3 9 -18 -4 0
-19 8 -16 -10 0
20 8 -13 4 0
-3 7 -15 6 0
14 19 -20 6 0
17 19 -20 -4 0
-19 -6 18 -10 0
1 15 -11 -20 0
-3 5 6 10 0
-4 1 -6 -2 0
-5 -7 14 -17 0
-5 -6 8 16 0
11 3 15 -14 0
