c family=4-SAT n=20 instance=7 seed=726001144 models=9
c order 15 1 18 10 8 9 2 20 14 7 11 19 12 3 4 6 13 17 5 16
c order 20 19 17 9 18 11 14 8 15 3 13 6 2 4 16 12 1 7 10 5
c order 14 5 1 11 12 4 8 17 18 13 16 9 20 6 3 2 10 19 7 15
c order 4 11 9 17 2 3 10 15 16 5 14 8 13 6 1 7 18 20 19 12
c order 19 12 18 2 1 8 15 5 11 16 7 9 6 13 14 17 10 3 4 20
c order 4 12 9 3 17 13 15 5 8 10 11 19 20 14 2 16 7 6 18 1
c order 20 3 19 8 17 15 2 11 5 12 4 13 14 10 6 18 9 16 1 7
c order 3 13 2 9 11 4 5 16 17 18 10 7 8 6 12 19 14 15 20 1
c order 8 1 16 18 20 9 17 13 10 4 12 2 3 15 5 19 7 6 14 11
c order 16 10 11 18 13 9 15 8 17 20 6 7 14 19 3 1 12 5 2 4
p cnf 20 192
6 16 -12 -1 0
-15 -5 -14 20 0
5 -6 -12 20 0
4 18 20 -10 0
-3 8 -11 -9 0
-7 9 -19 -17 0
-1 9 -16 -18 0
-10 5 -18 -8 0
9 3 -16 -5 0
11 9 -18 -6 0
17 -14 11 -9 0
13 14 -11 -17 0
20 7 18 3 0
1 7 -6 4 0
-17 -8 -13 10 0
19 -11 8 -5 0
-12 10 -8 -11 0
-3 14 15 -1 0
6 -3 16 -18 0
-1 9 17 -2 0
17 -11 5 10 0
7 15 12 1 0
-10 14 13 16 0
5 1 -8 -19 0
-13 -4 11 6 0
3 -5 11 -19 0
1 -5 -6 20 0
9 13 -8 17 0
-10 6 1 -7 0
9 -5 -19 11 0
-8 17 -4 12 0
-10 -2 -17 -11 0
-19 10 -14 -7 0
14 17 -11 -12 0
14 6 13 -20 0
-4 12 -8 3 0
-10 16 -1 -8 0
14 -3 19 6 0
2 5 8 -18 0
-3 -15 1 -14 0
10 12 -11 -17 0
20 11 -10 12 0
20 -4 -6 -14 0
-14 16 13 8 0
-18 7 -10 -17 0
-9 2 18 -19 0
-15 11 -12 14 0
-9 -17 13 15 0
16 -7 9 -11 0
15 -4 8 6 0
-20 -5 -8 10 0
-16 3 -17 -8 0
-19 -3 -11 -14 0
15 1 -10 -8 0
8 7 -3 2 0
7 15 -4 20 0
-16 -19 3 1 0
3 6 -9 19 0
-11 -7 1 12 0
-14 6 -9 -13 0
-17 -2 12 11 0
-9 -10 -15 8 0
-1 3 -13 -7 0
13 20 1 -4 0
-12 -13 -7 -8 0
19 7 -8 17 0
-10 19 -2 5 0
-9 3 -1 4 0
-1 4 18 12 0
3 -5 13 -4 0
13 -7 -11 4 0
-1 -13 18 8 0
14 -16 4 3 0
-16 -6 -18 -4 0
1 -7 9 -2 0
-5 -15 11 6 0
19 -16 1 -17 0
-1 -7 6 14 0
13 5 8 -17 0
-1 3 18 16 0
18 -19 -12 -13 0
-14 10 5 11 0
-1 -19 -10 -14 0
-20 -6 -13 12 0
9 3 -14 -17 0
-19 15 13 -11 0
1 6 16 -12 0
-17 -10 4 3 0
-5 18 -11 -8 0
-2 -16 -1 13 0
16 -7 10 -3 0
10 7 5 -9 0
-14 18 19 1 0
-2 -20 -3 5 0
-20 -2 -9 5 0
-6 17 10 15 0
16 -3 8 15 0
-12 17 20 7 0
17 -5 -15 14 0
20 16 14 -5 0
3 -4 -14 -9 0
19 20 -17 -8 0
-8 -11 3 -7 0
8 -17 -12 13 0
9 -11 12 8 0
20 -7 9 -10 0
20 3 -6 -15 0
4 -1 17 -10 0
-11 -12 -10 15 0
-19 5 1 -11 0
10 -6 7 -16 0
8 -7 -19 -20 0
-12 -19 -18 -9 0
-13 19 3 -8 0
-19 -14 20 -8 0
-16 -1 -9 -17 0
-17 -4 13 -14 0
18 -15 -4 20 0
-13 12 19 -4 0
-7 -1 -13 19 0
-6 -15 17 13 0
-7 -5 14 -4 0
-18 -19 2 -7 0
-2 9 -12 8 0
18 4 7 14 0
-1 -5 12 -15 0
4 -18 7 -8 0
20 -2 14 -16 0
13 -8 10 19 0
8 -4 7 -3 0
-18 5 19 -2 0
-3 -18 -5 -12 0
-2 12 -7 9 0
-13 16 18 -1 0
14 10 11 13 0
2 -16 13 9 0
4 -10 -13 2 0
-17 -20 -13 19 0
6 -3 4 -5 0
12 7 -17 -18 0
2 18 12 -20 0
8 9 -16 -11 0
10 6 -11 14 0
-5 -18 7 -1 0
-18 13 3 -14 0
10 -8 6 9 0
-2 -4 14 7 0
8 13 2 -12 0
13 -14 -6 -8 0
17 16 3 -1 0
19 17 -20 10 0
-5 -6 8 -18 0
3 5 2 -9 0
7 16 -13 -11 0
5 12 -15 -7 0
-16 18 -5 20 0
12 16 -3 9 0
20 -13 -16 -12 0
-8 17 9 2 0
3 -4 18 5 0
-17 1 14 11 0
-19 -1 -15 18 0
-18 8 -12 9 0
10 13 1 -18 0
4 -8 -17 12 0
-5 2 10 -14 0
-13 -11 2 -14 0
18 17 5 -8 0
-9 -17 -13 1 0
20 9 -4 -13 0
-3 -15 -8 6 0
8 6 13 18 0
-1 17 -14 5 0
-18 8 -9 -10 0
14 -1 5 12 0
19 -17 3 18 0
-19 -12 -4 -9 0
14 -8 7 -4 0
18 -17 11 -7 0
-8 4 14 20 0
9 -15 1 5 0
-4 16 -10 -5 0
-4 11 20 18 0
-18 -15 7 5 0
-8 -7 -12 1 0
9 -12 -13 2 0
11 3 -15 -7 0
-19 -6 14 -11 0
-20 16 1 -2 0
-4 20 -10 -2 0
-18 -12 2 -11 0
12 14 4 -6 0
