c family=4-SAT n=20 instance=0 seed=726001144 models=26
c order 4 14 11 9 16 18 1 12 17 19 5 8 13 15 10 3 2 6 20 7
c order 17 19 9 4 11 20 6 18 15 3 1 10 12 2 13 5 16 14 8 7
c order 5 20 3 4 1 12 2 6 13 11 16 9 8 19 10 14 18 15 7 17
c order 7 6 15 4 8 10 18 1 13 16 11 9 14 5 2 17 3 19 12 20
c order 6 10 16 17 13 5 18 12 15 3 19 7 4 1 14 2 11 9 20 8
c order 6 2 1 16 9 17 5 14 20 10 12 15 11 7 8 19 3 18 4 13
c order 14 1 4 13 18 17 9 3 20 19 16 6 15 10 7 8 12 2 11 5
c order 13 19 18 12 17 16 3 2 11 9 7 15 1 10 8 14 6 4 5 20
c order 13 16 19 2 11 3 5 20 9 15 10 8 4 12 14 17 6 1 18 7
c order 8 7 10 19 18 1 16 4 17 11 14 12 15 5 20 3 2 9 6 13
p cnf 20 192
-10 5 7 -14 0
20 -5 1 16 0
8 -17 -11 4 0
-2 3 -6 18 0
-17 -9 16 -12 0
20 11 -15 12 0
6 1 12 -18 0
-2 13 14 -16 0
2 15 -4 20 0
-13 8 -20 3 0
-14 4 3 16 0
-10 -20 -6 13 0
20 5 3 -11 0
-2 11 -6 4 0
5 15 -13 8 0
20 -3 -1 7 0
12 -3 7 6 0
-10 -1 -4 14 0
-2 -14 13 3 0
11 2 3 -9 0
19 6 14 -1 0
-3 -13 10 2 0
15 -20 -8 -19 0
17 -1 -6 20 0
7 18 -17 -4 0
7 -20 -11 18 0
-3 -20 9 -7 0
-16 18 -14 13 0
-15 -4 -12 1 0
4 -10 16 -11 0
7 3 16 -13 0
-2 6 -19 -5 0
12 16 14 -4 0
-9 12 16 5 0
2 11 1 -16 0
1 20 -3 -18 0
18 -12 -1 -14 0
1 14 -20 16 0
-19 16 -4 -10 0
-8 5 18 -6 0
11 16 -6 7 0
13 6 -9 7 0
-13 16 11 -5 0
-3 16 19 -6 0
20 17 -19 11 0
2 16 9 -15 0
-16 10 14 -1 0
1 9 -20 -6 0
19 -17 -1 -16 0
13 -1 8 -4 0
13 -17 -19 -4 0
9 7 6 8 0
-15 9 -14 1 0
7 -4 17 16 0
-17 -13 -6 -20 0
16 -6 10 14 0
9 17 15 1 0
-20 -16 -1 3 0
-2 -16 14 -7 0
3 7 20 4 0
10 12 8 -17 0
15 -9 -20 -2 0
-12 -11 1 -15 0
-12 -5 18 4 0
19 -12 2 -8 0
20 -17 -15 2 0
11 -14 -7 13 0
-6 -19 18 17 0
14 -8 -15 -9 0
14 10 12 3 0
8 11 -5 -17 0
-16 -1 -6 13 0
-4 -20 -2 -13 0
-1 -4 11 10 0
14 -18 9 1 0
13 -7 -10 -15 0
-16 17 5 6 0
8 10 -19 -12 0
-19 17 4 18 0
-3 20 4 -14 0
7 14 4 2 0
-16 -19 12 -15 0
3 6 7 13 0
-12 -6 8 9 0
-2 17 -8 -14 0
16 14 17 6 0
13 3 9 -16 0
8 -6 12 14 0
6 5 -20 -14 0
-3 16 -5 1 0
10 15 -20 11 0
10 -4 20 3 0
16 -15 3 -9 0
9 -19 -16 4 0
-2 13 -6 -20 0
19 -14 -13 -15 0
-3 7 -10 11 0
-18 -19 1 -14 0
-18 1 6 -10 0
8 3 15 18 0
20 -8 14 10 0
-15 -4 -7 -16 0
13 -3 -15 2 0
9 -5 6 -7 0
-7 14 2 -3 0
1 9 2 -4 0
4 -8 9 17 0
17 -6 -14 9 0
-18 -20 -2 -5 0
18 1 9 8 0
17 15 1 11 0
20 -2 4 19 0
5 12 16 2 0
13 -20 2 6 0
15 16 4 20 0
4 -18 9 -14 0
-20 12 -2 -18 0
4 6 -19 14 0
13 19 10 -14 0
12 15 -14 19 0
-17 10 -15 -13 0
-5 6 3 11 0
-16 10 4 2 0
-20 -8 2 -6 0
-2 4 -13 7 0
-10 -5 18 3 0
-15 20 7 11 0
15 18 -7 -6 0
19 -4 -20 2 0
-15 -20 5 3 0
1 -17 -14 -11 0
-19 12 -18 4 0
14 -20 -15 -5 0
-1 5 -10 -15 0
17 8 -6 -7 0
-2 -11 12 9 0
8 1 -9 3 0
18 -17 9 5 0
-8 -1 -11 -15 0
16 11 10 -18 0
5 -3 7 -11 0
-13 2 -9 -1 0
8 11 -1 -7 0
16 -3 11 -17 0
19 3 -18 7 0
-10 6 -9 17 0
12 20 -3 -9 0
11 20 2 19 0
5 10 -1 12 0
9 -5 -4 -2 0
13 -15 -2 -5 0
-4 3 19 11 0
1 -3 10 14 0
-19 17 9 20 0
-2 -17 18 6 0
14 13 -10 -3 0
1 -14 -19 -17 0
5 -2 17 13 0
-12 13 -8 -19 0
14 2 -13 -6 0
16 19 2 -11 0
14 -6 18 16 0
-3 -1 16 -2 0
20 -12 -15 -13 0
15 -1 3 2 0
1 -9 4 -18 0
10 7 -2 6 0
-10 -12 -5 -2 0
2 -5 -11 3 0
10 20 3 4 0
-17 10 16 1 0
-19 9 -8 17 0
-14 -20 -15 18 0
-1 16 -13 20 0
-3 -15 5 14 0
4 8 -17 7 0
-20 -10 -3 -7 0
10 -7 -14 3 0
10 5 3 16 0
16 -15 -19 7 0
-20 -7 -10 2 0
5 13 -14 -6 0
10 -3 15 -17 0
-15 16 -9 -10 0
10 -15 2 5 0
11 -6 -1 -15 0
11 -15 -2 16 0
15 -19 7 1 0
12 19 -14 1 0
-9 10 6 -5 0
-15 11 -16 -19 0
-8 -17 -14 2 0
