c family=4-SAT n=20 instance=2 seed=726001144 models=2
c order 10 13 1 19 6 3 5 15 4 8 7 20 11 12 17 2 16 14 18 9
c order 12 3 18 17 1 19 5 6 10 14 20 4 13 8 9 15 11 2 7 16
c order 3 14 9 6 12 10 19 2 15 13 1 20 4 11 18 5 16 8 17 7
c order 16 14 2 9 12 5 17 15 10 4 13 7 3 1 19 8 18 20 11 6
c order 10 20 3 17 8 12 4 19 18 1 11 7 2 5 13 6 14 16 9 15
c order 13 3 18 9 2 5 15 14 10 7 8 20 12 11 16 1 6 19 17 4
c order 10 9 4 17 1 3 8 5 15 13 14 12 2 20 11 19 16 6 7 18
c order 2 18 15 17 20 12 16 8 3 14 10 7 11 4 9 5 6 1 19 13
c order 4 5 9 14 13 18 17 15 8 7 11 16 3 10 19 6 2 1 20 12
c order 16 15 18 10 20 5 19 9 6 17 7 3 8 4 12 11 1 2 14 13
p cnf 20 192
14 -6 5 -20 0
-18 -20 -15 -2 0
-4 -12 2 -20 0
16 20 -5 17 0
-7 -3 -11 2 0
-10 -17 14 -3 0
7 -13 -18 15 0
-18 -7 -1 -6 0
-8 -20 2 -12 0
18 10 12 -15 0
6 18 9 10 0
7 19 -3 17 0
5 6 13 19 0
6 -11 -7 -9 0
-13 -12 -9 6 0
19 -10 -9 -3 0
4 -17 -13 -3 0
-20 1 4 12 0
-11 17 -14 -18 0
-3 8 -10 -11 0
-13 2 -1 -17 0
-2 -9 -16 -18 0
-20 -8 15 12 0
9 -4 11 8 0
-17 -1 19 -20 0
-8 7 19 3 0
-14 -1 -13 -15 0
18 -5 -8 6 0
-13 -14 -18 -4 0
8 -4 -11 20 0
18 8 15 -7 0
-16 -5 -8 -11 0
1 17 13 -2 0
-12 -3 14 15 0
7 10 -14 -11 0
4 19 11 16 0
-14 8 -17 11 0
-13 -6 -18 -11 0
-13 3 -18 16 0
3 12 -15 1 0
-16 9 2 14 0
-11 -7 6 13 0
18 -10 6 -3 0
5 -4 -13 -11 0
-9 -3 20 -6 0
-1 9 6 12 0
7 -10 -1 5 0
-20 -13 -17 -19 0
-11 -16 8 -20 0
13 -12 -5 11 0
-16 -17 2 19 0
-16 -12 -19 -3 0
8 -17 -4 6 0
7 4 -6 -12 0
-10 -19 15 8 0
-12 -16 8 9 0
19 7 1 -14 0
-13 -8 7 3 0
3 -13 -7 5 0
-3 -1 4 -16 0
-5 -16 -8 -18 0
17 -8 -15 4 0
-5 -20 -16 11 0
12 16 -2 5 0
13 18 -19 -6 0
16 -1 -10 15 0
16 7 -10 4 0
-9 19 11 -17 0
18 -1 -16 -15 0
-4 10 2 16 0
-7 10 1 12 0
-10 12 -15 -19 0
5 7 13 -11 0
18 -19 -1 3 0
5 12 -19 -11 0
-17 3 -2 -16 0
17 -20 -11 -4 0
9 -1 -6 -10 0
-19 4 -16 -2 0
14 -19 3 -2 0
-2 -12 6 20 0
-9 5 -16 18 0
4 13 -8 -18 0
-10 -8 -5 -7 0
-11 20 13 7 0
11 19 20 12 0
8 -12 15 19 0
-20 1 -13 -5 0
17 -12 -10 7 0
-7 8 -2 -11 0
2 -9 16 19 0
-1 11 9 10 0
-15 -2 20 10 0
7 -4 9 15 0
-5 -19 16 17 0
-3 -17 11 8 0
-4 -1 -20 -17 0
7 -17 2 8 0
-9 16 17 -3 0
-14 -2 -10 -11 0
-13 -4 -11 -18 0
19 -4 -17 -3 0
-4 7 10 15 0
-9 10 -19 8 0
20 16 3 9 0
1 -12 16 -7 0
-8 -6 11 2 0
-14 -11 4 -7 0
17 -20 -7 -13 0
4 11 -20 15 0
7 -2 3 -15 0
-17 -2 3 19 0
-17 -15 10 12 0
-1 9 -2 -13 0
-18 -6 8 -15 0
19 3 1 12 0
-1 -17 9 12 0
-16 9 -10 12 0
-10 12 -18 13 0
-9 13 -8 4 0
2 -6 13 10 0
10 9 1 -6 0
9 6 -20 -1 0
5 -6 12 4 0
-2 -1 -4 -14 0
17 12 2 -1 0
14 13 -1 -11 0
-10 -4 6 9 0
9 -18 7 -5 0
-11 -6 13 15 0
20 -12 -9 5 0
20 1 11 -15 0
13 -20 5 -9 0
8 -19 -7 9 0
-5 19 -2 -18 0
-15 -10 -19 4 0
2 7 10 -4 0
18 -3 -9 -1 0
2 -9 -6 19 0
-13 19 -11 2 0
-13 6 -9 -1 0
-8 -9 -12 -15 0
-15 9 12 8 0
-9 2 12 -6 0
-18 14 16 13 0
3 5 4 -6 0
-4 15 13 18 0
-7 -17 -18 -16 0
-17 -9 7 19 0
6 -11 -1 2 0
-13 -2 -3 -20 0
9 -18 -15 8 0
13 -19 11 -4 0
-15 14 5 -4 0
-10 11 17 -6 0
-8 -3 -14 19 0
5 -19 -3 -12 0
7 3 -20 12 0
-12 -5 16 11 0
-4 15 5 -16 0
-2 10 8 -4 0
8 -2 -15 -17 0
-19 20 8 1 0
-14 -5 -11 -12 0
-17 1 11 -8 0
-12 -18 14 -3 0
13 20 -10 -2 0
-19 14 -16 12 0
-3 17 19 -4 0
-5 -14 -18 -6 0
3 -15 6 8 0
-11 -6 -3 -18 0
-7 -9 -6 -12 0
14 17 7 -1 0
1 -16 -18 -11 0
-3 -4 20 -7 0
-13 20 11 -7 0
-7 -4 -1 14 0
17 1 -6 -5 0
-18 4 9 -16 0
5 2 12 -4 0
7 17 18 -1 0
19 -9 -7 6 0
19 4 -13 -18 0
2 10 19 -13 0
19 -1 -12 -18 0
19 8 18 -13 0
-2 -19 20 -4 0
10 -11 2 9 0
8 2 5 14 0
-9 18 14 -6 0
-14 6 -5 13 0
