c family=4-SAT n=20 instance=3 seed=726001144 models=4
c order 11 12 7 10 15 18 14 1 6 19 4 16 8 2 13 17 5 3 9 20
c order 12 7 18 11 10 14 15 5 1 4 9 8 16 19 20 3 2 6 17 13
c order 10 14 6 15 12 1 2 11 17 9 5 13 20 7 8 16 4 3 19 18
c order 1 18 15 7 3 11 4 16 13 10 9 8 17 14 2 5 12 19 6 20
c order 17 10 15 14 5 12 19 8 2 1 3 6 16 20 18 13 11 9 4 7
c order 13 2 10 14 6 7 11 17 19 3 20 5 15 9 4 8 16 18 1 12
c order 11 15 3 19 7 6 12 20 9 10 14 2 4 8 17 18 13 16 5 1
c order 5 6 3 2 9 13 12 15 1 16 20 18 10 17 4 8 11 14 19 7
c order 13 6 12 11 19 20 7 2 1 15 9 4 17 14 8 10 16 18 3 5
c order 8 2 7 1 14 3 15 12 5 11 9 17 13 20 4 18 6 16 10 19
p cnf 20 192
-6 5 -20 8 0
7 11 -20 -15 0
-9 -4 10 7 0
1 11 -16 -3 0
-15 -6 -3 -12 0
13 9 -8 7 0
3 -5 -4 -19 0
-15 3 17 20 0
-6 -9 -10 3 0
-5 -18 19 -13 0
10 -5 -15 -2 0
9 -19 -6 -8 0
3 14 -16 -17 0
-2 -19 -6 -20 0
2 14 -11 -5 0
-1 3 -5 -6 0
-4 14 -16 -11 0
19 -6 11 7 0
16 -4 14 7 0
19 20 -17 -8 0
6 20 -4 9 0
20 12 -1 -3 0
5 2 6 13 0
10 -1 -17 -16 0
-5 7 19 -11 0
8 11 10 -15 0
20 14 -7 -13 0
-19 11 1 14 0
15 7 11 17 0
13 11 -10 19 0
13 -8 16 -3 0
5 19 6 -20 0
-19 5 11 1 0
-17 -3 10 -19 0
-7 -9 -12 -14 0
9 -14 -4 -12 0
-14 -4 -15 -18 0
10 -3 -12 15 0
7 -6 9 -8 0
-1 -6 4 2 0
3 -15 14 2 0
-19 -17 -11 9 0
-16 8 -2 -19 0
-1 -19 5 -15 0
-16 7 -1 -19 0
3 19 -17 -6 0
-15 4 8 -9 0
18 -12 -13 -4 0
-13 2 -18 -3 0
14 -19 20 -6 0
-8 -5 -10 17 0
-3 -5 -14 -20 0
-11 -4 7 -14 0
13 14 8 -4 0
-2 15 -10 19 0
-3 19 17 14 0
3 -16 6 -12 0
-9 10 -2 -17 0
13 2 3 9 0
-5 -8 15 13 0
13 -15 -11 17 0
-11 18 13 -20 0
20 -1 7 14 0
-16 -17 15 6 0
-4 15 11 -12 0
10 14 -1 -12 0
20 -14 18 17 0
17 16 6 -9 0
16 2 18 5 0
7 -6 15 17 0
13 2 19 18 0
19 -10 20 13 0
-17 10 15 8 0
11 -16 10 4 0
-12 5 13 -2 0
19 -2 -17 -10 0
-14 -1 2 -11 0
1 -2 10 7 0
4 -3 -13 18 0
6 13 -2 -5 0
10 17 -15 5 0
-1 -13 18 -20 0
8 -17 2 13 0
-17 15 19 -14 0
7 -19 14 -10 0
4 5 -20 -7 0
-6 -8 -20 4 0
-6 17 15 19 0
-5 10 -4 -11 0
7 14 19 6 0
-8 17 11 9 0
-11 -7 3 5 0
7 -10 -13 -17 0
11 -16 10 4 0
10 6 -4 1 0
15 -9 -1 6 0
4 12 10 6 0
20 18 -17 -8 0
1 16 7 8 0
15 18 -9 10 0
-11 18 -15 10 0
4 16 8 5 0
4 13 -14 -19 0
-2 5 -18 12 0
11 10 -14 -20 0
-14 -6 2 -8 0
-11 4 -5 -9 0
13 17 1 -18 0
-13 -7 12 -9 0
19 -13 -2 11 0
7 -10 16 -9 0
-15 12 5 -6 0
-19 -18 15 -4 0
7 19 -16 -12 0
-12 -7 5 -2 0
-8 16 -7 13 0
-1 4 6 -12 0
-17 14 -19 10 0
19 1 20 8 0
-18 2 -5 13 0
-6 -1 19 -11 0
9 5 3 -19 0
20 -4 -6 12 0
2 -18 12 15 0
14 13 6 20 0
-18 20 -10 -6 0
-16 -5 6 -8 0
-10 11 -3 18 0
14 15 -10 20 0
7 -16 -1 -9 0
-3 14 19 -13 0
-9 -8 -5 -19 0
-13 14 -1 20 0
20 -3 -4 -16 0
18 1 -17 12 0
12 -9 20 19 0
-12 4 -3 -14 0
-14 -16 4 6 0
4 8 -20 17 0
15 19 7 3 0
9 11 -13 19 0
-15 5 -20 9 0
-9 -3 2 -13 0
1 -15 19 -13 0
17 19 12 10 0
18 -10 -16 -11 0
12 20 -2 14 0
17 9 -19 15 0
-7 15 11 -13 0
-18 -8 -13 -17 0
-16 11 4 -2 0
8 13 11 -10 0
-1 -3 -19 -2 0
-17 -15 -8 5 0
-20 -5 14 19 0
18 -17 -16 -11 0
-9 -12 11 10 0
-14 18 8 11 0
-6 -14 11 -8 0
-6 5 -7 2 0
-1 -10 9 -4 0
-20 15 4 10 0
18 15 12 6 0
-13 -11 -2 7 0
-8 4 7 3 0
9 6 7 16 0
-20 -9 -16 -2 0
-6 -7 20 4 0
-5 -20 10 8 0
7 -6 10 -4 0
5 1 -18 -2 0
18 19 3 8 0
-1 -8 14 9 0
-20 -1 16 19 0
-10 -11 9 -19 0
8 2 -14 1 0
-9 -13 16 -19 0
-17 -16 6 -3 0
-20 -2 -12 -16 0
-14 -3 -11 -20 0
-13 -4 -17 7 0
14 -8 -5 -20 0
6 -11 -8 -9 0
-19 10 -17 13 0
3 -1 20 9 0
-19 -11 1 -5 0
13 -2 20 5 0
-11 10 -7 3 0
5 1 -20 -3 0
16 9 -18 12 0
-14 -17 -6 -10 0
3 -7 11 13 0
