c family=4-SAT n=20 instance=6 seed=726001144 models=7
c order 18 7 12 5 6 4 19 20 8 13 17 15 2 16 10 9 14 11 1 3
c order 5 19 2 7 8 16 1 12 9 4 3 6 13 15 17 18 10 11 20 14
c order 18 3 19 8 7 16 11 1 13 2 4 5 10 15 14 12 6 9 20 17
c order 4 20 19 13 12 17 7 9 3 6 8 10 14 1 2 16 18 11 5 15
c order 17 12 6 4 14 8 3 2 20 16 7 1 15 5 11 18 10 13 9 19
c order 19 5 18 11 17 7 8 16 12 20 14 4 2 3 10 9 15 6 1 13
c order 18 9 12 19 15 14 2 16 7 8 1 3 11 13 4 5 10 20 6 17
c order 18 7 8 2 15 17 13 11 4 3 14 5 20 9 10 12 6 16 1 19
c order 8 5 17 13 7 4 19 16 2 3 6 11 9 1 18 12 15 20 10 14
c order 10 17 7 6 1 15 2 9 16 14 18 4 3 12 13 19 20 11 5 8
p cnf 20 192
4 -1 -12 13 0
-15 -9 3 4 0
1 -13 -18 17 0
12 -10 6 -20 0
-9 -8 -1 2 0
20 -3 -19 2 0
4 -5 16 -1 0
-11 -5 7 -16 0
11 -5 -14 17 0
-17 -9 3 -2 0
-2 -8 6 7 0
6 13 14 3 0
-3 14 11 1 0
17 7 15 -2 0
20 -18 -14 5 0
8 -2 -7 11 0
17 -1 3 -7 0
-19 -13 7 -2 0
-13 8 -2 18 0
16 -15 11 -8 0
-3 17 14 -4 0
-5 -18 13 -8 0
-20 19 13 -18 0
19 2 -5 1 0
-3 -2 -1 9 0
5 17 -9 13 0
8 3 9 -7 0
15 -6 7 19 0
-8 -14 -7 19 0
10 12 -1 13 0
-1 11 19 -14 0
13 -18 -7 -4 0
13 15 -6 -16 0
9 16 -20 -8 0
10 7 -5 1 0
-10 -14 -15 11 0
17 -9 2 -13 0
-12 -10 13 -2 0
8 7 20 -6 0
-2 -18 5 1 0
3 6 14 -12 0
1 8 4 -6 0
19 1 -17 -14 0
2 5 6 8 0
6 -9 18 -13 0
20 18 -8 -4 0
-16 -19 -3 17 0
8 16 -12 -20 0
-13 -5 18 11 0
-19 -10 5 -3 0
-14 -3 -20 -10 0
-2 -17 -4 16 0
15 12 13 -20 0
9 13 -18 1 0
-12 3 9 -6 0
-12 -3 -5 2 0
-11 -18 2 -4 0
1 -15 6 12 0
20 -3 -15 -7 0
-3 -17 -7 -8 0
3 16 -6 17 0
-12 -6 9 20 0
11 12 -7 -4 0
-3 11 19 -6 0
-14 3 17 -19 0
19 -3 -17 -8 0
-4 -1 10 11 0
2 18 -20 -8 0
-7 -11 18 -1 0
-12 1 -15 -6 0
17 -9 11 7 0
-16 -12 -8 -14 0
-19 -10 -1 12 0
-8 5 1 16 0
1 -16 15 -10 0
4 -20 13 16 0
-1 8 -20 19 0
17 -6 -3 -2 0
20 -6 3 -5 0
13 6 -8 1 0
16 -7 -3 -19 0
16 3 6 -15 0
-2 -19 -11 -3 0
6 3 20 -13 0
-10 -18 14 5 0
7 -15 13 6 0
14 8 -4 -12 0
3 -16 -12 -9 0
-6 10 -7 19 0
4 15 1 -8 0
2 -1 -9 20 0
18 6 13 -9 0
-20 -2 5 12 0
-5 4 2 9 0
10 7 6 -15 0
7 -4 6 19 0
4 -19 -18 6 0
14 4 -18 -3 0
7 4 20 6 0
11 -16 20 -6 0
-13 -5 16 -17 0
-6 -11 -2 -4 0
1 -4 -18 10 0
9 1 6 17 0
9 2 13 -7 0
-10 -18 -7 -3 0
6 20 -8 15 0
-18 5 -12 6 0
17 15 13 -5 0
-15 -4 1 -12 0
-14 -5 -12 13 0
12 -4 18 19 0
15 16 -6 18 0
-7 -13 -5 3 0
-20 -18 -10 19 0
4 -20 12 2 0
-3 8 -10 -7 0
16 -11 12 6 0
-9 -7 8 15 0
19 -10 3 17 0
-8 14 12 3 0
8 -11 12 1 0
11 -10 -19 -14 0
17 12 11 4 0
-7 16 2 -9 0
6 12 3 -1 0
19 -18 11 14 0
18 3 6 17 0
17 -7 13 -11 0
11 17 6 18 0
-11 -18 -17 -8 0
7 -20 -4 -10 0
-8 6 -16 -9 0
-4 5 1 -15 0
11 13 -8 -17 0
-19 20 -2 -16 0
-20 -9 12 18 0
-5 1 -11 -18 0
19 -20 -6 5 0
-6 2 -9 -3 0
3 -20 9 2 0
-20 6 4 8 0
14 6 -20 -15 0
-12 20 16 5 0
-5 -15 -11 -18 0
-20 -9 5 -19 0
20 -11 3 -13 0
3 12 9 17 0
18 -6 -20 3 0
7 6 13 -16 0
-14 -6 -9 -2 0
8 -9 -19 13 0
-14 9 8 -6 0
-17 -18 4 -16 0
14 -3 -9 5 0
5 1 2 18 0
13 9 7 20 0
-1 14 -8 16 0
-15 6 -16 -19 0
9 -1 3 20 0
-4 1 -9 7 0
-19 12 -6 -17 0
8 -17 12 -2 0
9 -19 -6 -2 0
-9 3 4 -19 0
-6 15 13 -3 0
7 -16 -1 -15 0
-3 -4 14 -13 0
-10 -6 -8 9 0
-15 4 16 -9 0
20 -2 -13 14 0
10 17 -7 14 0
-10 6 17 -4 0
16 5 4 -8 0
-1 -5 17 -13 0
-9 -12 14 -10 0
10 -8 6 16 0
13 -14 16 8 0
-8 5 4 6 0
-19 10 -13 -9 0
6 -11 -14 7 0
-15 -16 -5 -19 0
-10 18 4 6 0
7 15 17 -13 0
8 10 -4 -16 0
2 -9 13 -7 0
-20 4 -8 9 0
-6 -3 16 -5 0
3 2 -10 -4 0
-19 3 9 -11 0
-6 -8 5 12 0
10 6 3 9 0
