c family=4-SAT n=25 instance=4 seed=726001144 models=2
c order 22 13 18 5 19 10 9 15 4 23 7 14 25 2 3 11 21 12 17 16 1 8 24 20 6
c order 1 2 11 25 16 22 10 21 7 5 8 23 14 18 12 20 19 24 17 3 9 15 13 6 4
c order 14 2 6 23 20 16 8 15 22 4 10 21 19 13 18 25 9 7 5 1 11 24 3 12 17
c order 7 12 11 17 2 23 5 16 21 10 8 6 22 3 1 25 9 18 15 13 19 20 14 4 24
c order 10 11 15 19 1 17 14 12 4 21 24 3 16 18 8 20 25 9 7 13 5 23 6 22 2
c order 8 6 17 23 15 3 20 14 25 22 7 19 1 10 16 18 11 5 4 9 13 24 2 21 12
c order 21 19 13 5 11 9 20 4 8 6 18 1 22 15 14 25 12 2 17 23 16 7 24 3 10
c order 20 10 21 3 11 6 4 17 24 15 1 2 9 14 23 16 25 12 7 8 19 5 22 18 13
c order 6 16 12 8 24 5 19 4 23 18 21 1 25 10 17 11 3 15 7 20 22 2 9 14 13
c order 3 14 10 8 23 4 2 5 18 11 19 7 25 6 9 17 21 13 20 15 12 24 1 22 16
p cnf 25 240
-20 12 -4 9 0
-13 16 -1 -3 0
16 -2 15 17 0
-24 -16 15 -10 0
-8 -19 -3 11 0
-14 8 11 -22 0
24 -4 3 -2 0
2 -23 11 -20 0
19 -15 -24 -3 0
9 3 7 2 0
-23 24 5 -12 0
6 -12 -22 4 0
21 16 -5 11 0
-6 -21 1 -12 0
-3 -24 -2 12 0
16 17 15 -23 0
19 -3 -22 15 0
24 3 25 -15 0
-22 -13 -1 -6 0
-17 -5 -3 21 0
2 -4 24 13 0
-24 4 17 7 0
-20 -2 17 -8 0
18 3 7 -1 0
7 -15 9 21 0
-24 -15 -14 7 0
-17 -12 -21 -11 0
21 -19 17 -20 0
-20 -2 -25 12 0
21 -23 16 2 0
16 3 -2 1 0
-2 23 -18 -9 0
-6 2 -24 18 0
-15 21 18 -22 0
-8 -24 3 12 0
7 9 -2 3 0
16 -3 6 15 0
24 -17 -1 22 0
18 -11 21 9 0
23 -4 14 8 0
-6 -8 15 -14 0
-11 13 -9 -4 0
-16 -21 3 7 0
14 -1 -25 17 0
-12 -10 1 -18 0
-1 -8 23 -3 0
-19 22 -15 16 0
-16 -15 2 -10 0
12 19 8 -25 0
4 -25 16 11 0
9 -16 -19 -5 0
-17 5 -20 -2 0
-7 -5 -17 -4 0
-7 -2 -8 1 0
16 13 -22 19 0
19 -21 -11 -18 0
25 15 13 9 0
-1 -24 -6 -21 0
8 13 18 20 0
3 -25 6 -17 0
1 24 -16 -4 0
-10 -17 -12 3 0
-5 8 23 3 0
-7 14 5 -22 0
20 11 -16 19 0
-25 -24 -4 -6 0
1 -4 25 3 0
-21 -9 -17 -11 0
4 -15 -13 -3 0
5 -21 24 -19 0
-12 16 8 -2 0
-9 13 16 22 0
-13 17 10 9 0
-18 -22 -19 -12 0
14 5 13 2 0
12 -8 -17 -10 0
21 20 18 -25 0
-12 -13 6 22 0
-24 23 -2 18 0
-4 12 18 -9 0
-21 15 4 22 0
-8 -10 -3 4 0
-15 -24 19 -4 0
-17 16 -11 -13 0
-23 10 7 25 0
4 13 -21 5 0
20 -4 -22 -6 0
6 -2 19 24 0
9 10 11 22 0
1 8 -11 15 0
19 -14 -18 20 0
-4 -1 -3 13 0
23 -22 -20 -21 0
-11 10 -25 15 0
6 -8 -20 21 0
-21 19 14 24 0
23 -6 -24 3 0
7 -8 -20 -5 0
8 -5 -16 -10 0
10 6 15 7 0
9 -11 -20 -21 0
-1 -2 -13 8 0
-3 -21 -2 -6 0
-4 -6 1 5 0
-8 -1 24 21 0
-20 1 19 15 0
21 2 6 1 0
25 -1 8 13 0
-23 1 -12 13 0
12 6 -4 -19 0
-21 -17 -4 13 0
-14 -12 5 22 0
21 25 11 -7 0
17 -16 -3 9 0
21 22 -25 10 0
8 -2 16 15 0
-8 18 -22 -4 0
25 -2 8 3 0
-14 -22 24 -20 0
10 -16 -15 -23 0
-1 13 -14 -20 0
-6 -20 25 9 0
-17 -5 23 -18 0
-13 5 9 20 0
-20 -11 6 -22 0
9 -23 -2 1 0
-21 -16 -9 -8 0
12 -24 17 -3 0
22 15 -12 7 0
-5 16 1 -7 0
-2 15 -12 -14 0
11 -24 -2 12 0
-20 21 -15 -18 0
24 -11 17 4 0
5 -6 -1 25 0
-17 24 -19 -14 0
-1 -23 -19 -25 0
9 -15 8 23 0
-8 17 24 -19 0
9 11 2 -20 0
6 -4 -15 3 0
7 -20 4 -19 0
17 -14 -15 11 0
-12 11 16 -24 0
24 -12 -16 8 0
-8 17 -12 -10 0
2 13 1 15 0
23 -10 -7 -15 0
-16 19 8 -11 0
5 -11 -3 -13 0
-13 21 -22 10 0
20 -24 1 -15 0
10 -2 -13 9 0
9 -8 19 10 0
8 -3 -17 12 0
-10 -24 -21 -4 0
-18 22 -15 20 0
-18 21 15 5 0
-5 12 1 -13 0
-11 -3 10 -18 0
20 25 17 12 0
-23 -2 8 -1 0
6 -10 -20 -7 0
-21 -10 -2 9 0
11 -1 -2 -7 0
3 20 2 -6 0
23 8 -5 7 0
21 -18 17 13 0
8 -4 15 5 0
13 -12 14 -8 0
-21 18 22 -24 0
16 10 2 20 0
7 12 -18 -21 0
-2 14 -20 -5 0
24 10 -11 -3 0
-16 13 -10 15 0
8 11 2 -10 0
-2 -21 13 6 0
20 -6 1 -15 0
9 22 21 16 0
-23 -12 -8 -25 0
-18 -14 5 17 0
-15 -13 -9 -24 0
-25 -17 24 -23 0
-6 7 -15 -23 0
25 18 5 10 0
6 17 19 24 0
-4 10 13 -3 0
-14 -2 -3 -11 0
-10 -1 19 7 0
23 15 19 -20 0
3 15 -18 -2 0
-1 -21 -10 23 0
-23 17 -2 -16 0
-18 13 23 -4 0
19 -12 21 -13 0
-7 -3 13 -25 0
22 -13 -24 -14 0
-25 -7 -17 -8 0
-4 -13 18 24 0
14 19 20 22 0
16 8 -18 -24 0
-21 -22 19 10 0
5 12 -24 1 0
-2 24 21 20 0
-25 -4 -20 5 0
8 -21 19 -3 0
13 -20 -18 -19 0
-21 13 18 8 0
-1 -12 -22 -24 0
-22 13 11 -18 0
-7 -19 -9 5 0
-16 11 4 -24 0
-17 12 -20 -6 0
-6 -5 24 10 0
4 14 -19 22 0
5 -3 -22 -17 0
-13 -7 16 1 0
12 6 -2 7 0
3 2 14 6 0
-16 3 5 -7 0
18 -21 17 15 0
-9 11 5 24 0
15 8 -5 -23 0
23 22 -1 12 0
-3 9 -10 -19 0
-10 -11 -20 -1 0
-5 -6 17 -14 0
16 5 -11 -10 0
12 -2 16 -8 0
-3 22 23 -10 0
-6 16 2 15 0
-7 -24 21 16 0
-12 3 -11 4 0
20 -23 -6 21 0
7 -1 -13 -25 0
-19 -21 -1 -3 0
9 11 7 -21 0
-14 2 7 -17 0
25 -14 -13 8 0
