c family=4-SAT n=25 instance=6 seed=726001144 models=15
c order 3 1 20 18 5 14 25 11 4 8 17 24 19 6 9 23 10 13 2 22 21 12 15 7 16
c order 6 5 18 23 17 1 12 22 7 11 16 14 8 10 9 3 2 4 20 15 25 24 19 21 13
c order 17 2 1 19 18 24 10 23 9 14 3 5 21 8 4 20 25 7 15 16 13 22 6 12 11
c order 20 11 18 14 24 23 22 3 6 9 10 7 2 12 4 17 13 1 25 21 19 8 16 5 15
c order 23 9 6 17 15 24 1 20 10 3 13 12 19 25 21 8 16 18 4 14 7 5 2 11 22
c order 23 18 20 6 19 25 13 10 15 3 5 11 22 24 7 9 17 16 1 21 2 4 12 14 8
c order 20 2 12 25 19 22 23 3 13 9 18 5 15 17 24 1 8 16 4 6 10 21 7 11 14
c order 19 5 3 14 7 17 12 23 9 6 24 25 4 2 11 10 18 16 15 13 20 1 22 21 8
c order 21 8 20 23 19 9 4 11 25 10 3 15 5 22 1 6 12 16 17 2 7 14 24 18 13
c order 24 1 16 3 11 22 25 17 5 12 2 6 15 23 10 18 14 21 13 4 7 19 20 9 8
p cnf 25 240
-20 -18 -24 -8 0
1 -11 7 -23 0
5 4 7 -8 0
4 20 9 -14 0
-17 -24 -15 7 0
5 -24 7 -21 0
-22 18 -24 -11 0
-15 -5 16 22 0
20 11 8 -10 0
6 -12 -25 -11 0
-21 1 20 -3 0
2 -24 21 20 0
-14 18 -6 -21 0
7 -22 2 -1 0
-25 7 -23 17 0
22 19 -18 -10 0
14 -15 -23 -1 0
-5 20 -14 -22 0
-24 -8 20 -10 0
14 -19 15 10 0
1 23 -10 -5 0
3 -7 17 -5 0
12 7 25 18 0
21 -7 -14 19 0
11 -1 -14 13 0
17 12 25 10 0
13 -25 23 -1 0
2 4 11 5 0
-2 -12 -22 -14 0
-9 6 11 24 0
-24 -4 14 23 0
-9 25 3 -12 0
12 6 -23 -5 0
25 6 21 12 0
-12 19 -15 -10 0
14 11 -17 25 0
-22 -18 -3 -23 0
18 23 -19 9 0
-23 -3 -7 16 0
24 -10 17 -19 0
-1 23 15 -3 0
11 -4 -7 9 0
14 18 3 6 0
9 14 -19 -12 0
-20 19 -25 4 0
-18 2 19 -24 0
15 -5 -4 -18 0
-19 -23 18 -5 0
12 16 10 -1 0
8 18 24 22 0
11 -14 -6 3 0
23 17 4 1 0
-1 21 -18 -11 0
23 -3 6 -16 0
13 2 25 -1 0
-5 -11 10 -21 0
13 -10 22 -24 0
-18 14 -8 17 0
23 25 -17 7 0
-4 24 -1 -11 0
-14 -11 -9 -19 0
-20 -8 -13 4 0
-5 10 4 24 0
-23 4 -3 25 0
19 25 1 -5 0
-8 -5 19 -15 0
-4 -22 18 -21 0
2 17 5 -15 0
-16 4 -5 19 0
-4 -22 -16 -15 0
-19 -8 14 15 0
-21 20 -18 17 0
-22 4 -14 -17 0
-16 9 12 13 0
-20 13 1 12 0
15 25 -16 6 0
-21 -6 -5 -11 0
22 -19 15 -4 0
15 -21 -18 10 0
-1 4 19 -22 0
12 14 -5 6 0
21 12 7 16 0
-1 -12 3 -2 0
8 -1 22 -20 0
-25 -10 5 -7 0
5 -16 11 24 0
7 -4 17 11 0
14 -20 -17 -6 0
25 3 23 8 0
23 -9 -15 -13 0
-6 -1 -23 10 0
17 -12 7 -2 0
20 12 23 -4 0
3 -24 15 -21 0
18 2 -12 15 0
-20 2 24 -6 0
7 -23 10 -8 0
-1 -21 4 9 0
7 13 -8 6 0
-2 -15 24 11 0
-22 -9 -7 23 0
3 -13 -1 25 0
19 22 18 -15 0
-12 13 20 -11 0
12 -6 3 20 0
-12 -10 -2 6 0
16 -4 10 -8 0
-6 -11 20 3 0
8 14 -7 20 0
-22 -7 5 19 0
20 23 -8 -24 0
-24 22 6 8 0
-12 -15 -5 -10 0
5 7 -21 -17 0
-19 -21 4 -13 0
3 -16 11 -19 0
8 20 -19 4 0
-7 -2 -4 -25 0
19 15 -13 5 0
-14 10 7 19 0
17 15 -13 10 0
10 -7 22 12 0
16 -3 2 21 0
8 1 -22 -3 0
-8 -25 22 11 0
-4 15 13 -18 0
20 18 25 -8 0
-3 -2 -20 12 0
-13 -10 -21 9 0
25 20 5 16 0
7 -11 -16 -17 0
21 24 18 -17 0
-15 21 5 -16 0
15 20 3 24 0
-11 1 25 18 0
-15 2 9 -13 0
-3 -19 -1 11 0
13 2 7 -14 0
-21 -22 19 -1 0
8 -2 -10 -1 0
10 19 -6 -18 0
-12 18 -24 14 0
-5 -1 -3 -19 0
-2 4 -24 8 0
-22 23 -16 -1 0
21 2 -1 -18 0
24 -8 16 7 0
25 -18 -10 -6 0
23 17 2 24 0
-11 18 -5 21 0
16 25 13 12 0
23 -14 6 1 0
-10 -21 3 -5 0
-9 24 6 -1 0
6 -2 -4 20 0
15 22 4 13 0
7 24 3 5 0
14 22 -7 12 0
-7 -3 -6 -17 0
-17 21 14 -1 0
-25 -1 16 6 0
-17 -16 9 -5 0
-8 12 13 18 0
25 15 17 -1 0
-8 7 -13 -9 0
-23 -1 -25 -5 0
11 21 22 -3 0
8 -10 -19 -11 0
24 -5 -12 -1 0
-1 17 13 -22 0
-21 -13 20 19 0
-24 -16 7 20 0
6 -14 -17 3 0
17 1 23 4 0
-9 -14 -1 -25 0
20 3 22 23 0
-21 -9 11 25 0
24 5 -10 4 0
-20 -1 -18 12 0
-25 7 -2 24 0
9 -16 -3 -12 0
-2 12 22 -13 0
18 11 -22 7 0
10 22 -14 19 0
-2 -17 10 -16 0
12 7 -22 -20 0
8 11 -5 -14 0
11 7 -9 2 0
18 21 19 12 0
2 -11 15 -20 0
25 20 22 -3 0
25 24 3 12 0
-22 17 23 -9 0
-7 -10 4 23 0
-2 11 -14 9 0
-3 -20 22 -17 0
-17 -16 9 -3 0
-24 16 -12 -4 0
-2 17 -5 -12 0
7 18 16 -14 0
1 -6 22 -17 0
13 20 7 -11 0
-25 -12 -21 -3 0
-20 -24 22 -11 0
17 -1 -15 22 0
-14 12 11 3 0
12 8 -25 -20 0
-25 17 -14 19 0
20 16 11 -22 0
-6 24 -9 -25 0
-8 -1 22 17 0
19 -11 17 -3 0
13 -24 2 1 0
-3 20 2 -10 0
19 4 7 -22 0
1 -22 13 -8 0
-20 19 2 5 0
20 -16 -1 -22 0
7 9 -15 10 0
15 -9 12 -4 0
-2 6 20 23 0
-6 2 -17 18 0
17 9 -4 -2 0
-24 -11 -14 -17 0
-1 -7 14 3 0
-16 -8 -13 -6 0
-8 17 -22 -19 0
21 12 1 -11 0
6 -8 -4 -12 0
14 -10 15 23 0
10 25 3 15 0
-25 22 -11 -16 0
-1 6 -7 14 0
-15 24 -25 21 0
10 6 -20 1 0
-19 -12 -1 25 0
12 10 19 17 0
8 4 -17 -7 0
16 -20 13 -5 0
-19 -3 12 20 0
