c family=4-SAT n=25 instance=9 seed=726001144 models=31
c order 14 1 4 16 10 6 25 11 13 22 24 15 3 17 5 23 7 2 18 8 21 9 12 20 19
c order 20 12 23 2 1 15 5 17 3 4 14 19 11 6 16 18 10 22 24 9 13 21 8 7 25
c order 19 8 3 13 10 24 12 18 20 5 22 1 9 17 2 6 16 23 4 21 7 25 14 11 15
c order 22 16 19 18 17 8 15 11 7 12 2 5 13 1 21 10 25 9 3 4 14 23 6 20 24
c order 15 25 7 23 24 20 16 6 10 17 5 4 8 21 1 12 11 18 19 9 2 14 13 3 22
c order 19 14 20 10 12 1 7 21 5 3 9 23 17 25 6 15 11 16 24 18 4 13 22 2 8
c order 16 6 9 25 17 12 14 11 8 3 18 7 1 23 20 19 5 13 2 15 4 10 21 22 24
c order 6 7 24 9 14 21 13 3 12 2 4 1 22 17 25 18 19 11 8 15 20 23 10 5 16
c order 14 3 18 25 21 12 15 16 24 2 19 22 20 6 8 1 7 23 11 9 4 10 5 13 17
c order 2 3 17 18 6 1 5 21 16 15 25 4 7 24 20 23 13 14 9 8 12 11 22 10 19
p cnf 25 240
22 -1 17 8 0
-4 -22 21 2 0
13 -19 25 -20 0
-24 -21 9 -15 0
-8 -22 -13 19 0
-8 -13 20 -1 0
7 16 -19 22 0
-5 8 -22 24 0
19 6 14 15 0
9 -13 11 -23 0
-3 16 19 22 0
23 -1 -9 22 0
-12 -23 -16 22 0
-8 16 4 23 0
15 18 -19 21 0
22 -1 -15 -21 0
-20 -6 -25 -22 0
14 3 13 -7 0
-18 23 -13 -14 0
25 24 -18 10 0
-23 11 -20 19 0
-16 -10 -25 14 0
-11 -17 5 1 0
-17 24 22 -3 0
-5 -17 -3 13 0
-22 -3 -12 -14 0
-1 -24 4 16 0
-20 9 -10 -15 0
-19 -17 -2 -13 0
2 -12 17 -23 0
-12 22 -5 14 0
-6 14 16 -3 0
-7 2 25 -24 0
20 -19 18 10 0
13 -15 -17 1 0
-13 17 -3 -20 0
6 -12 -9 -13 0
-14 4 -6 -17 0
6 25 -16 -18 0
-20 9 -8 -24 0
-12 -3 -8 19 0
25 6 16 -19 0
-9 -3 -13 7 0
-16 -25 -10 1 0
18 -7 -23 24 0
18 17 10 -24 0
-4 -20 22 24 0
-13 1 -8 6 0
4 25 -16 2 0
21 -17 -15 -16 0
-21 -7 3 5 0
22 13 -15 -16 0
-10 -22 -16 -9 0
6 -15 -14 -8 0
23 -9 -18 17 0
-23 20 18 -10 0
16 8 7 -3 0
11 -25 -10 -24 0
-21 -24 17 22 0
-3 7 13 -15 0
-4 -19 1 3 0
11 -4 -9 8 0
-23 -5 -15 -21 0
-8 3 9 6 0
-8 1 -5 -2 0
-21 -24 -6 17 0
2 -3 -18 -17 0
-8 16 -5 3 0
7 -17 -21 19 0
-11 -4 21 -25 0
25 -17 -20 -13 0
-23 -25 -7 -19 0
14 25 -11 23 0
8 -3 -24 11 0
-8 -20 5 -19 0
-1 13 24 -14 0
-5 -19 -16 -3 0
15 21 -7 -23 0
-25 -23 11 19 0
11 17 -19 -8 0
5 -15 -24 13 0
-21 -17 7 -2 0
15 6 -25 -10 0
-6 -8 -16 -2 0
24 -8 -3 14 0
-23 25 19 -24 0
-23 -7 -8 -16 0
24 21 -18 14 0
2 18 13 -4 0
-21 15 -14 10 0
9 -19 -23 -2 0
12 -14 -22 -23 0
-16 -7 -25 11 0
6 11 -19 -2 0
10 19 -5 -17 0
17 -2 -8 -9 0
-18 -23 11 -12 0
5 24 -2 -14 0
17 -23 -20 -2 0
-1 -10 15 -2 0
-8 21 -14 16 0
11 13 20 -19 0
1 -25 21 -17 0
18 24 17 -1 0
-1 -11 -5 -12 0
-5 -10 -16 -2 0
12 2 -16 -19 0
25 6 -20 11 0
12 -13 -25 20 0
8 21 10 -19 0
5 -14 -2 20 0
4 6 16 -12 0
-23 -12 -20 13 0
7 9 18 -17 0
-9 -20 -11 4 0
-14 -19 23 -24 0
-14 25 -2 22 0
20 1 -11 -17 0
-9 1 -19 -18 0
-4 10 -14 -13 0
-3 13 -8 -4 0
-4 -19 -18 -7 0
-5 24 3 12 0
-9 7 -10 -21 0
-1 18 12 15 0
14 -17 10 -12 0
-20 -21 -7 -23 0
20 -16 24 -8 0
-1 19 -6 22 0
-18 13 5 8 0
6 -11 21 -13 0
-25 18 -6 -21 0
-23 2 -15 1 0
10 5 -24 6 0
12 -24 -1 5 0
-18 13 21 -16 0
-14 -22 -13 -20 0
19 -25 -23 22 0
-11 25 -4 -16 0
3 -13 -5 19 0
-8 23 6 -11 0
-2 -14 -17 4 0
17 -21 -19 7 0
-13 15 -7 -24 0
-5 12 8 6 0
10 -23 13 12 0
17 7 25 14 0
16 -1 5 4 0
17 14 15 5 0
-17 -25 22 -9 0
9 4 -3 19 0
4 -17 16 13 0
-3 22 -17 -14 0
-8 20 12 21 0
9 -23 21 16 0
8 -19 -16 -13 0
24 6 7 -20 0
-9 2 3 -19 0
1 3 25 17 0
1 -23 -2 -19 0
-20 -21 19 -16 0
-25 5 -11 23 0
-18 -13 -21 3 0
5 -4 -15 -1 0
13 3 -17 -15 0
-11 -1 6 -24 0
9 -24 17 -25 0
19 -8 7 16 0
4 -22 10 -12 0
-19 -18 20 9 0
23 -11 -16 2 0
-21 23 1 -17 0
3 -18 2 14 0
-25 -1 3 -14 0
-17 6 -8 -10 0
-12 23 4 -11 0
-12 -17 4 9 0
-19 12 7 17 0
20 14 4 -18 0
4 13 -15 -17 0
22 -4 23 5 0
11 -19 5 10 0
-23 -20 10 -8 0
25 -2 11 -22 0
-6 18 -22 -13 0
10 24 6 19 0
-12 -20 -16 11 0
-12 -10 -18 -7 0
6 -24 -16 -15 0
-8 4 5 -12 0
3 -8 21 -9 0
-3 12 -20 -24 0
9 -12 14 -21 0
-23 -14 22 -7 0
-1 21 -24 -18 0
22 -15 11 2 0
16 -1 -13 14 0
14 9 -16 18 0
5 6 15 -25 0
17 8 -18 12 0
5 9 23 2 0
-20 5 -25 2 0
17 -7 -5 -14 0
-15 -21 -11 6 0
20 -13 25 -24 0
5 -4 -17 -25 0
-2 24 -10 14 0
14 -24 -7 22 0
-11 24 17 -20 0
24 21 -15 4 0
-4 18 19 13 0
-7 18 24 -20 0
12 11 23 -1 0
11 -12 -22 9 0
-2 -12 -15 20 0
7 20 -10 8 0
14 -20 -23 -1 0
-8 -16 -15 -2 0
-7 21 18 -14 0
6 3 13 -23 0
3 11 -13 2 0
-22 -19 -10 -6 0
16 20 -23 1 0
24 -13 -22 -9 0
11 -17 -22 -5 0
-9 24 -20 16 0
-6 20 -14 12 0
-18 -4 -11 1 0
13 -21 -16 -22 0
-8 11 -14 5 0
-20 -4 -3 21 0
-19 6 3 24 0
-22 1 -21 9 0
-2 5 -15 21 0
-18 23 -24 14 0
23 25 14 -3 0
-11 24 4 -15 0
20 7 -25 21 0
6 23 -7 13 0
13 -3 16 -18 0
