c family=4-SAT n=25 instance=7 seed=726001144 models=2
c order 23 16 14 9 6 4 24 22 7 5 25 2 15 21 10 8 13 3 12 17 11 19 20 1 18
c order 17 5 11 23 20 1 9 15 4 24 10 16 14 22 3 6 25 8 13 7 12 21 2 19 18
c order 24 23 20 7 12 8 21 5 15 10 4 13 11 6 17 9 22 16 14 25 1 18 2 19 3
c order 14 13 16 24 11 12 19 9 1 8 7 22 18 3 21 15 23 5 17 10 4 25 2 20 6
c order 16 24 9 4 15 19 18 20 2 14 1 25 21 10 7 5 17 23 22 8 3 13 11 6 12
c order 2 19 6 9 17 20 21 24 18 12 5 7 14 16 15 25 22 3 1 11 4 13 23 8 10
c order 25 21 15 14 23 18 6 7 12 11 19 17 8 24 10 20 9 1 22 13 16 4 2 3 5
c order 25 16 19 6 1 23 8 7 13 20 5 2 9 15 18 10 17 21 12 14 24 4 22 3 11
c order 15 7 18 4 20 19 9 3 14 16 5 13 22 23 8 11 2 21 1 6 24 10 12 17 25
c order 16 14 18 3 5 10 12 19 7 4 21 2 13 11 15 24 6 1 9 25 8 23 20 17 22
p cnf 25 240
-14 12 -10 13 0
-20 3 21 -22 0
24 -3 -2 -11 0
25 -21 24 -8 0
-13 -20 18 -22 0
-11 13 -4 -9 0
-6 -20 24 7 0
-8 -5 3 -21 0
-9 25 19 -11 0
14 -8 -5 1 0
16 12 9 -17 0
-16 -12 -18 -14 0
16 -22 -20 -7 0
-24 -4 -8 16 0
-1 -15 -19 5 0
-21 22 -16 -19 0
15 25 13 -2 0
-7 -9 16 -25 0
15 13 -10 -5 0
25 24 -16 12 0
9 -25 24 21 0
-22 -3 -12 19 0
3 9 -22 5 0
-17 -14 -9 2 0
-6 14 -9 -25 0
-4 -6 12 -10 0
15 -19 -18 -25 0
19 -2 -8 12 0
-8 6 2 14 0
8 -1 17 24 0
16 -4 24 6 0
-9 24 -12 15 0
-25 -13 -12 23 0
-14 -9 23 -3 0
10 16 -12 -22 0
12 -19 5 23 0
21 13 14 23 0
-16 -11 1 18 0
25 -3 -24 -22 0
19 -8 4 18 0
1 19 16 23 0
-14 -7 19 -24 0
22 -5 -13 -16 0
20 23 -18 -19 0
-23 -21 22 18 0
-7 -14 -23 -20 0
11 16 -25 -6 0
-16 9 -12 13 0
19 8 -7 15 0
-11 -19 17 25 0
-12 -21 -14 -15 0
15 -18 -10 -14 0
-8 -2 12 1 0
-24 -16 -5 15 0
-8 -10 5 12 0
-12 -10 13 -4 0
-17 -10 -24 2 0
24 25 -4 5 0
-3 -11 -7 24 0
-21 9 -5 -23 0
-15 9 -11 -10 0
18 17 -1 3 0
1 -6 22 21 0
5 -11 -13 19 0
1 -19 6 -10 0
2 20 19 25 0
5 12 -25 4 0
-16 20 15 -4 0
-25 -5 20 -9 0
11 -19 21 22 0
25 -11 -16 6 0
20 -19 -24 -16 0
-2 12 -8 -9 0
10 -5 6 -20 0
20 -7 -17 -19 0
2 -22 -18 -25 0
7 18 19 -3 0
-6 -18 5 -17 0
4 3 -13 -10 0
-12 -10 16 -21 0
-15 -23 -12 -2 0
2 -23 21 -15 0
-6 -22 13 3 0
-18 -10 3 -15 0
-22 12 17 -6 0
-17 21 25 16 0
22 -20 -9 25 0
19 7 -17 10 0
9 -8 -16 -22 0
-3 4 -17 23 0
-4 -22 20 -1 0
-17 9 -14 18 0
-16 -11 -2 -5 0
16 -18 20 -7 0
18 -1 -6 -16 0
2 8 -25 14 0
11 -13 15 -17 0
17 -23 18 -16 0
-18 6 -7 8 0
-18 7 -19 11 0
-5 -15 -23 9 0
-24 -3 9 6 0
18 -10 -9 -19 0
11 25 18 4 0
-20 21 24 -10 0
-1 -22 14 -13 0
-21 -14 16 7 0
25 18 3 11 0
-1 21 -20 25 0
-9 15 7 19 0
-7 -25 6 3 0
4 -9 -3 21 0
10 -3 -19 15 0
-4 -9 14 13 0
3 24 22 9 0
12 11 6 -13 0
6 25 22 1 0
11 -7 21 23 0
17 5 -25 -15 0
-19 -9 -21 -18 0
-16 -10 -3 -21 0
9 -13 -1 -14 0
2 -16 -13 22 0
-10 -14 16 -11 0
-17 3 2 7 0
-24 9 2 -4 0
17 25 16 -14 0
-16 -8 11 10 0
12 8 -11 7 0
25 -22 -24 -16 0
10 4 -14 -23 0
9 16 7 14 0
-4 -5 -25 20 0
5 3 -20 14 0
-23 25 -16 -19 0
15 23 21 19 0
2 -3 -25 -8 0
-17 16 -3 21 0
-5 -23 -24 8 0
-16 -19 -9 -18 0
-11 -18 9 22 0
-1 -3 -18 -12 0
21 7 15 -24 0
3 -20 -2 19 0
7 -18 3 5 0
16 -6 -21 -23 0
-3 -8 -20 24 0
-11 -18 12 -17 0
-23 10 3 -14 0
20 -16 24 -1 0
-20 -4 -5 -24 0
24 2 11 23 0
18 10 9 -6 0
14 -17 -8 -20 0
-24 2 4 10 0
21 14 2 16 0
-15 -22 -2 -13 0
-5 12 15 9 0
23 10 -8 -6 0
2 -11 -13 -25 0
18 2 -3 7 0
-5 10 25 11 0
9 -25 13 11 0
14 -2 -10 -5 0
-6 -21 -18 -2 0
7 -20 25 -12 0
5 -10 21 -19 0
9 11 -7 8 0
-21 3 -13 -12 0
-15 6 16 12 0
18 -23 21 6 0
17 -20 11 -13 0
-22 -7 19 -16 0
-8 -11 -5 -1 0
1 15 2 -20 0
18 -3 -24 -5 0
-22 14 9 -21 0
9 22 19 21 0
-4 -13 -21 -12 0
-8 24 22 -17 0
-22 5 -18 4 0
12 -11 -25 -15 0
-18 -24 19 -2 0
8 16 -10 1 0
11 -3 2 9 0
15 -5 -6 22 0
-19 5 21 -1 0
8 -14 -19 13 0
-22 -9 -24 13 0
17 -6 -9 -7 0
-21 -11 6 1 0
6 -7 15 -2 0
16 -19 -3 -24 0
-21 10 -14 6 0
16 17 -7 10 0
-20 -7 16 -4 0
16 -24 14 -22 0
-18 -17 -19 -20 0
25 4 21 22 0
16 -18 -4 -13 0
20 1 4 -7 0
6 -23 -20 -10 0
-25 -19 11 23 0
9 -15 4 24 0
-15 13 7 -23 0
25 -13 -21 8 0
8 -19 -9 14 0
-2 20 -13 12 0
1 -25 -2 -4 0
-24 12 -8 -13 0
1 6 19 -21 0
1 6 -16 9 0
4 -9 -23 -17 0
4 -15 -18 19 0
-15 -22 12 -21 0
15 -5 25 -1 0
11 -13 5 12 0
-17 -10 -13 15 0
7 8 -16 2 0
23 -22 16 1 0
11 7 22 6 0
-14 -10 -8 -16 0
-4 21 2 -9 0
-19 4 -12 -10 0
-1 25 22 21 0
-24 -2 20 -11 0
23 2 14 15 0
18 -23 1 20 0
-13 -17 4 8 0
20 15 -3 -18 0
23 -21 7 1 0
-12 17 -8 -7 0
-12 18 25 -4 0
-11 22 -18 24 0
7 -8 23 -4 0
-3 13 12 -8 0
8 4 -7 20 0
-13 -5 -24 1 0
21 20 10 11 0
-17 -12 -16 -25 0
