c family=4-SAT n=25 instance=8 seed=726001144 models=5
c order 19 23 3 15 5 13 24 18 9 8 10 1 6 4 20 22 17 12 21 16 11 2 7 25 14
c order 20 12 7 6 4 22 1 21 14 24 17 13 10 25 2 11 5 15 19 18 16 3 8 9 23
c order 7 15 3 13 12 6 20 11 18 21 5 17 19 8 1 10 23 22 2 25 14 16 4 24 9
c order 23 15 3 24 9 21 10 7 12 2 22 5 25 20 4 11 8 6 13 19 18 1 14 16 17
c order 1 25 9 13 22 8 15 3 24 10 4 21 11 2 16 20 14 7 17 18 5 6 19 12 23
c order 11 18 13 4 25 23 5 19 1 10 8 3 2 6 16 12 21 20 7 15 17 24 22 9 14
c order 24 16 17 20 9 23 18 21 1 5 14 10 2 3 7 6 11 25 12 8 13 15 19 22 4
c order 12 17 9 1 21 10 15 7 2 19 22 20 23 25 24 13 8 16 5 3 14 11 18 6 4
c order 14 13 17 19 4 5 6 16 24 7 23 20 22 1 15 21 10 2 9 12 25 11 18 3 8
c order 21 6 14 20 16 10 23 25 7 17 22 18 15 11 2 3 13 4 1 12 19 24 5 8 9
p cnf 25 240
9 -12 -8 11 0
-19 -7 17 25 0
-21 -19 20 2 0
-13 15 -23 -12 0
-24 -9 3 12 0
22 -9 1 -11 0
16 12 -14 -24 0
11 -25 -21 24 0
-15 9 1 -17 0
-10 -5 -20 7 0
21 1 3 15 0
-16 1 -18 -11 0
-12 7 -4 -21 0
-18 -16 -4 -5 0
-24 11 -17 -4 0
-10 9 -11 -25 0
12 -7 -1 25 0
-15 16 -10 -6 0
23 -1 19 7 0
15 -18 -12 -8 0
-22 -20 19 5 0
-23 -10 5 2 0
-4 5 15 -11 0
-23 -4 22 -16 0
-24 15 -23 -1 0
21 -22 -8 -17 0
12 -9 -3 -2 0
-21 -16 24 -20 0
-3 17 23 20 0
24 -17 -13 -10 0
-13 -23 12 -3 0
-24 -11 -23 3 0
-23 13 -3 19 0
-4 -1 16 11 0
-11 -20 -5 -23 0
-4 1 -13 20 0
-7 18 -23 -5 0
-2 -20 -11 -13 0
3 7 -25 5 0
8 -4 15 24 0
2 -6 -14 12 0
-13 -6 3 21 0
-22 -4 -7 5 0
-12 -23 22 -19 0
18 -10 -7 16 0
6 15 12 8 0
4 13 -9 23 0
11 -24 2 -21 0
15 7 -8 17 0
24 13 -11 -22 0
9 -11 -10 8 0
-25 8 1 12 0
12 22 17 -15 0
-13 9 -12 -1 0
8 19 6 -4 0
-18 -7 -25 -21 0
-15 7 12 4 0
-6 -4 -14 24 0
-1 -10 -21 20 0
3 13 -23 -20 0
13 17 -11 -9 0
-18 14 -1 -12 0
14 13 -23 8 0
-22 -10 20 -6 0
16 11 19 3 0
11 21 -10 15 0
-6 5 14 -11 0
-10 -5 9 21 0
-6 4 12 -17 0
-22 -18 21 17 0
13 1 8 10 0
13 -23 25 -15 0
-15 -8 13 18 0
21 -11 -13 -7 0
-21 16 -3 9 0
-17 -24 7 13 0
4 -25 -18 -2 0
-1 -6 18 8 0
16 21 4 -6 0
-13 -15 -17 16 0
18 -24 1 -3 0
25 17 10 -14 0
10 -24 -16 14 0
14 22 -19 8 0
-9 21 -17 1 0
16 -20 12 24 0
-25 1 9 -19 0
-18 -8 20 25 0
-15 1 21 2 0
-12 -4 -2 -8 0
-8 9 -19 -10 0
18 -23 6 -12 0
-25 -20 -9 -12 0
-23 -5 -18 16 0
-20 2 -16 -10 0
-22 23 -19 -25 0
-19 23 13 -20 0
-11 15 18 22 0
-13 -21 1 -3 0
-10 4 5 -20 0
3 -10 -15 5 0
-17 -24 -7 13 0
22 1 23 15 0
7 -8 -22 9 0
-4 -22 -3 -19 0
14 -10 -6 -4 0
-6 -12 14 18 0
-13 16 -5 20 0
-6 1 7 25 0
17 8 -21 6 0
-18 6 15 -4 0
3 7 15 23 0
3 24 7 21 0
25 -2 18 22 0
19 23 20 -25 0
-13 9 21 -24 0
20 -4 16 8 0
19 11 -15 5 0
-13 -22 3 18 0
21 16 20 -24 0
8 12 -4 -19 0
-10 21 -22 23 0
25 10 4 -19 0
23 12 -19 -24 0
25 -17 15 -9 0
23 -10 -5 -15 0
19 -9 -10 -1 0
-3 -16 17 -7 0
14 20 15 13 0
25 -23 -19 13 0
25 11 16 -17 0
-20 -24 17 -1 0
-10 -22 7 15 0
-17 13 -18 -2 0
-22 16 -8 -18 0
-16 7 20 -5 0
14 17 5 22 0
10 24 -12 -14 0
17 -1 4 -10 0
23 -24 -4 16 0
-2 4 23 -20 0
-5 9 11 16 0
-1 -10 9 -21 0
-12 6 -1 -16 0
-5 -6 15 -19 0
-4 -18 12 -15 0
-25 7 2 1 0
5 -19 11 -22 0
-10 7 -3 5 0
20 -13 -18 -3 0
-13 -11 20 -17 0
16 6 24 9 0
20 -16 -24 7 0
8 -15 9 -1 0
-8 -1 -18 3 0
3 1 -16 15 0
-20 -11 23 3 0
-22 -5 -3 25 0
-9 14 23 -20 0
7 -16 -2 20 0
18 1 -22 -21 0
-14 -4 1 8 0
-7 10 25 9 0
-7 22 -2 -6 0
-1 -14 13 -10 0
9 -6 8 7 0
24 -3 -14 -4 0
-2 -19 12 9 0
15 24 18 6 0
19 23 -25 20 0
-22 -4 -18 17 0
8 16 -5 -11 0
23 -1 21 -11 0
7 8 -23 14 0
12 24 -3 13 0
16 -7 -22 -1 0
-5 -10 19 24 0
16 13 24 7 0
22 2 -12 14 0
-7 15 -14 12 0
-11 -25 -2 5 0
-9 -10 -25 -7 0
9 8 16 25 0
-15 11 6 -25 0
13 12 -14 -6 0
11 -3 20 -2 0
-16 20 -17 2 0
-9 13 -2 11 0
2 6 -7 -1 0
6 1 17 3 0
-1 -17 19 11 0
-18 -25 4 2 0
-11 15 14 3 0
2 9 -14 -1 0
21 -20 -1 -25 0
9 24 -4 -17 0
4 -25 -23 -12 0
17 3 -22 -19 0
22 -14 -1 -7 0
-11 16 14 -19 0
-21 1 8 10 0
-19 -22 1 -25 0
7 -8 -21 -15 0
-15 -1 -14 12 0
2 6 -24 -20 0
-22 1 14 -8 0
-21 5 -10 20 0
-25 10 7 -23 0
-16 -3 18 8 0
25 2 14 21 0
-10 -7 23 21 0
4 -5 7 22 0
-4 -2 -6 -25 0
-2 18 10 -22 0
22 -5 11 19 0
-20 9 24 -7 0
2 1 25 -21 0
-11 -24 14 12 0
21 -6 22 -7 0
15 -9 10 -4 0
3 -15 21 6 0
13 7 -9 -25 0
-14 -21 -6 11 0
-11 -10 1 -12 0
-22 -21 -18 -12 0
15 22 18 -3 0
-22 10 -4 18 0
13 2 -6 9 0
8 -13 1 -7 0
6 10 8 -7 0
-11 6 -25 10 0
-6 -18 -13 11 0
9 -1 17 -20 0
12 -8 -1 22 0
-4 -15 -20 -19 0
-23 -21 15 9 0
23 25 -18 -16 0
9 22 -24 10 0
8 6 16 -12 0
12 15 18 -9 0
