c family=4-SAT n=25 instance=5 seed=726001144 models=9
c order 19 22 13 21 15 5 2 23 16 17 6 9 10 25 12 1 4 18 11 14 24 8 7 20 3
c order 3 7 5 24 13 23 11 14 15 2 22 17 21 1 10 9 19 16 4 12 25 18 6 20 8
c order 4 17 10 12 21 2 23 22 14 13 20 15 24 1 16 3 5 18 25 7 11 6 8 19 9
c order 10 19 24 21 3 15 13 8 20 16 11 23 9 25 4 12 18 2 22 6 1 14 5 17 7
c order 3 2 19 10 13 25 7 16 11 21 18 14 12 23 8 22 24 5 9 6 17 20 4 15 1
c order 18 8 15 17 5 4 19 16 1 13 14 23 25 20 10 22 24 2 21 6 3 9 12 7 11
c order 6 19 21 7 15 17 23 22 10 12 3 20 18 1 9 24 4 13 2 11 8 25 5 16 14
c order 25 10 11 3 16 24 4 17 22 20 15 12 21 19 7 14 9 8 23 6 5 2 18 13 1
c order 5 4 9 17 24 19 8 11 22 16 12 25 23 21 7 13 20 3 15 18 10 2 6 1 14
c order 22 6 11 2 7 18 1 12 25 9 17 24 23 19 14 5 4 21 13 3 15 10 8 20 16
p cnf 25 240
-5 -4 8 25 0
11 -9 -12 -19 0
25 -17 -3 -5 0
-1 9 -7 -25 0
23 21 2 25 0
6 -16 4 -9 0
1 5 -23 -10 0
-20 6 19 -16 0
12 -21 -18 20 0
2 6 20 -10 0
17 -15 14 8 0
-9 18 -11 -14 0
-3 -7 8 17 0
-12 11 -1 19 0
18 -1 -24 -5 0
-22 10 -15 23 0
-20 19 4 17 0
-16 1 -25 -21 0
14 -10 -17 -1 0
-21 9 -15 14 0
8 -9 -7 24 0
19 -5 -13 -18 0
19 15 1 4 0
21 -1 -9 15 0
23 15 -20 -25 0
10 -15 -25 -20 0
21 13 20 -3 0
-23 22 24 11 0
19 -2 -10 1 0
-22 -14 13 16 0
9 -3 16 -21 0
3 -18 -13 -19 0
17 -22 -9 4 0
20 5 13 10 0
22 7 1 21 0
7 -4 -24 -2 0
14 16 24 19 0
18 -17 -5 -13 0
-2 -17 23 -1 0
-9 -7 -12 24 0
13 -14 25 -12 0
-9 -15 -11 -14 0
-21 9 -1 -16 0
-8 -13 6 12 0
-12 -14 -24 -11 0
-11 -18 8 13 0
-24 -14 7 -18 0
-22 -6 5 -3 0
-6 -4 1 14 0
-19 1 2 -10 0
20 21 22 -25 0
14 -21 -5 4 0
-14 13 15 21 0
-19 10 -22 11 0
3 -21 7 18 0
-10 -17 -25 -3 0
15 -20 -14 17 0
-7 -12 -17 -9 0
-15 -4 -7 -13 0
15 3 25 24 0
8 -5 17 15 0
6 -15 -16 -7 0
2 1 3 15 0
4 -16 21 -22 0
-25 7 -6 -24 0
6 12 24 -11 0
11 8 -20 -4 0
6 -2 13 -4 0
18 -24 -3 -10 0
-19 6 -11 17 0
13 -24 -3 -10 0
4 1 9 7 0
4 23 7 10 0
-6 20 -14 -18 0
7 22 4 2 0
-21 19 16 -3 0
19 9 13 -16 0
-1 22 -10 -25 0
-4 20 9 -2 0
-11 8 -6 -1 0
17 -13 11 21 0
12 17 22 8 0
-8 -1 -19 10 0
4 16 -14 10 0
1 -6 14 -7 0
-1 3 -2 -4 0
-1 18 16 11 0
8 16 -1 6 0
6 19 -21 -9 0
-17 -12 -19 7 0
12 25 21 1 0
-11 -3 6 -17 0
-25 18 -22 15 0
-8 -15 -11 7 0
-25 -5 -24 13 0
-22 -19 -23 15 0
12 23 -22 13 0
-15 9 -18 -17 0
-1 -23 -6 7 0
-16 21 22 14 0
-20 5 6 2 0
-2 21 -6 -24 0
-12 10 11 16 0
-20 -13 -1 18 0
20 -6 -17 23 0
-9 -7 -8 -16 0
4 15 -20 19 0
21 1 -2 -22 0
-12 9 -21 -24 0
11 -19 10 15 0
-4 -20 -3 6 0
4 -23 -13 -6 0
-23 -13 5 18 0
17 19 10 -2 0
18 -13 -12 5 0
-6 3 2 17 0
-8 5 23 6 0
12 10 -9 8 0
-16 -12 24 14 0
-5 -18 9 2 0
6 14 -25 -16 0
23 -25 -2 -19 0
15 10 20 -1 0
13 -23 25 4 0
-14 24 -7 5 0
-24 20 11 7 0
-13 9 16 -25 0
1 8 -18 11 0
1 -15 -6 -20 0
18 -23 16 15 0
25 18 -1 17 0
-18 -5 7 9 0
-13 -1 4 -6 0
-17 -16 -11 -15 0
4 -15 -21 19 0
22 18 4 1 0
13 15 17 11 0
4 -14 16 10 0
-8 -18 -10 -9 0
7 11 -15 23 0
-18 11 10 15 0
-19 18 25 -14 0
14 -3 22 -18 0
-9 6 -10 25 0
-1 16 12 -10 0
-6 -5 8 -11 0
7 11 4 -20 0
8 -24 -13 -21 0
-23 6 2 -1 0
-21 12 9 2 0
3 -15 -24 2 0
22 3 2 -17 0
5 -2 20 -22 0
23 -1 -7 4 0
-17 11 2 -10 0
20 18 -14 2 0
21 -8 -22 9 0
-24 -22 14 7 0
-12 23 -19 18 0
-14 -16 -5 9 0
5 -7 2 25 0
-7 24 -12 -9 0
23 -25 -12 -17 0
-21 15 -13 22 0
11 -7 13 -1 0
14 -5 -20 23 0
24 2 6 -17 0
-4 -21 3 -23 0
21 -14 18 -10 0
-2 -18 17 -11 0
3 -16 -21 -5 0
-23 -20 13 -18 0
-12 -22 11 3 0
3 -23 -13 -20 0
-25 -19 14 -4 0
-17 19 -1 23 0
-7 -18 12 13 0
18 21 8 19 0
-11 14 -3 -23 0
8 -10 -12 23 0
16 -20 -2 3 0
4 13 9 25 0
14 20 -24 -3 0
14 11 -18 -22 0
-13 -24 -20 23 0
9 22 -7 21 0
-7 -24 13 -15 0
-20 15 21 1 0
-22 5 18 2 0
16 -23 -20 -24 0
23 19 -17 15 0
16 -3 4 -8 0
-4 2 20 3 0
-11 -4 -25 -1 0
4 -10 -22 1 0
-12 10 5 -21 0
13 -8 -10 -16 0
2 -1 14 16 0
5 17 -24 22 0
18 -3 24 21 0
-19 7 9 -11 0
-7 22 -4 -20 0
-5 18 10 -6 0
-17 -20 -8 -12 0
1 25 -9 8 0
-14 -1 -11 -25 0
-23 -5 -8 -17 0
-23 -25 5 12 0
16 -3 -10 24 0
-17 20 21 -18 0
-21 -23 24 -10 0
-23 -15 14 -18 0
15 24 14 -23 0
19 -12 9 -25 0
-18 24 9 15 0
2 -3 -24 8 0
-16 23 -20 22 0
-24 -9 -22 -18 0
-14 12 -15 8 0
-22 4 15 -3 0
-23 -24 11 -18 0
16 23 1 24 0
18 -6 24 -7 0
-23 -25 -9 -17 0
-25 -15 -19 -5 0
-16 24 12 1 0
18 1 -4 21 0
14 -8 19 9 0
1 -5 -14 -9 0
-23 20 -24 -16 0
3 16 -21 11 0
-2 17 -16 -10 0
-11 22 -20 -8 0
-5 -2 3 17 0
11 -8 10 -21 0
-17 -14 -2 -21 0
-2 17 -15 -9 0
-22 4 7 6 0
-14 7 -17 9 0
-5 3 20 11 0
