c family=4-SAT n=25 instance=2 seed=726001144 models=1
c order 1 17 12 21 4 23 18 6 13 22 20 15 3 14 11 25 2 9 24 10 16 7 8 19 5
c order 15 2 13 5 8 7 17 20 10 1 19 18 24 6 14 16 9 25 11 23 12 3 22 4 21
c order 13 23 6 10 12 4 2 19 15 7 5 9 17 3 24 1 25 11 18 8 16 20 22 21 14
c order 18 12 20 17 11 9 16 22 25 2 3 15 6 21 23 5 4 13 1 7 19 8 24 10 14
c order 23 11 8 25 17 7 6 4 2 9 18 24 22 5 12 3 13 19 20 15 21 1 10 14 16
c order 11 23 3 6 24 21 15 2 20 25 4 8 7 16 9 1 5 17 22 13 18 14 10 19 12
c order 18 23 13 5 9 16 15 19 4 20 7 24 2 21 6 3 12 14 11 10 22 25 1 8 17
c order 21 3 8 18 15 14 7 17 6 5 10 25 11 9 13 23 22 4 12 1 2 20 16 19 24
c order 22 9 5 18 24 10 23 12 20 1 6 21 7 13 11 3 14 2 19 25 15 17 8 4 16
c order 3 10 13 11 24 17 7 25 5 14 22 12 2 18 21 16 8 20 6 4 19 9 1 15 23
p cnf 25 240
-15 6 -20 -9 0
14 24 -6 17 0
5 2 -7 -15 0
-11 -12 -20 10 0
11 3 1 -9 0
-11 -2 21 23 0
15 23 9 22 0
16 19 -5 -15 0
-12 -2 25 -23 0
-12 6 1 8 0
13 19 -23 15 0
-1 -10 -3 -23 0
17 9 -3 19 0
-19 24 16 -12 0
-13 10 -7 3 0
22 9 -21 -3 0
-18 21 -12 -8 0
20 15 -5 19 0
8 11 7 -17 0
-22 21 20 -3 0
24 18 -20 15 0
11 4 18 24 0
-23 15 19 22 0
15 5 14 6 0
-4 -12 -24 -10 0
-4 2 25 22 0
-2 -7 -5 -11 0
5 -21 24 14 0
6 -9 -8 11 0
-17 -8 10 3 0
10 23 5 -24 0
21 4 -2 20 0
3 -1 -7 20 0
20 -14 -3 -21 0
21 -9 1 -6 0
-9 5 6 4 0
-7 -12 25 -8 0
-4 -8 9 -14 0
-4 15 -7 13 0
-20 1 -5 -24 0
-19 -6 4 16 0
25 7 24 -4 0
-3 -14 -20 -7 0
-20 -21 9 8 0
-6 4 14 -8 0
24 -20 -22 2 0
5 -3 -13 1 0
-20 -5 -16 -13 0
4 21 -9 15 0
23 3 22 -21 0
-4 3 25 7 0
-21 14 16 -5 0
14 2 -16 -7 0
13 -12 -18 -5 0
-19 -21 -23 25 0
8 24 -18 -17 0
16 -8 -13 -21 0
-9 -14 16 18 0
1 9 -7 25 0
14 3 -13 23 0
21 -14 25 19 0
-2 -10 17 13 0
13 -15 16 -6 0
16 21 -13 -20 0
-4 12 9 -23 0
3 -23 4 -21 0
-19 -6 16 5 0
-18 14 -11 -6 0
9 12 -22 -2 0
22 25 15 24 0
17 10 -7 18 0
-23 -11 -9 4 0
-10 9 -8 22 0
6 -21 13 18 0
-6 -12 1 -16 0
-17 16 15 6 0
-13 -11 2 17 0
11 -9 17 5 0
-10 -4 5 -17 0
19 -13 -2 12 0
-23 -11 -7 13 0
-19 -2 -23 5 0
5 -15 3 -17 0
18 14 -9 -23 0
5 19 11 -1 0
8 -5 13 -11 0
-7 8 17 11 0
-13 -15 -24 14 0
10 3 23 -15 0
15 6 -24 14 0
16 -21 22 19 0
4 -2 -1 -24 0
-19 24 15 7 0
-20 -6 -21 22 0
-24 11 21 -12 0
6 8 -18 19 0
-4 13 1 -17 0
-2 -6 13 25 0
3 -7 5 1 0
23 -11 -24 10 0
16 5 13 23 0
14 -17 23 -5 0
-16 25 7 1 0
-18 2 14 5 0
22 -11 2 -9 0
-21 -1 22 4 0
-17 -11 20 -7 0
-3 1 -25 11 0
12 -10 3 11 0
-5 -16 -11 -20 0
10 -17 -21 -24 0
18 5 -20 23 0
18 6 5 -2 0
-25 20 -21 24 0
6 17 -8 5 0
-9 12 -14 -11 0
12 13 17 8 0
-23 -11 -3 2 0
19 9 -17 -16 0
-22 5 -4 -6 0
21 7 1 13 0
18 9 -15 5 0
15 -23 1 -19 0
5 -23 -8 -16 0
-1 18 13 -7 0
-25 -22 20 13 0
-21 -20 3 -11 0
17 8 -20 13 0
17 8 22 16 0
-24 -23 -18 -6 0
9 -19 -21 -16 0
20 7 -4 -12 0
-21 -15 -6 16 0
-1 -10 5 -20 0
7 20 12 -23 0
-12 -10 7 22 0
25 23 21 19 0
16 -3 1 -6 0
-6 -9 -15 -5 0
6 -7 -16 -8 0
-3 -23 22 -15 0
16 -14 20 -10 0
14 -7 -3 -4 0
-11 -25 -14 4 0
1 -25 -24 -23 0
-12 25 -16 -1 0
8 22 -4 -9 0
-20 -5 -6 25 0
-1 5 13 -4 0
13 -6 -12 18 0
18 16 -22 -25 0
-14 -15 9 10 0
8 4 24 -5 0
2 -20 16 25 0
11 5 -13 14 0
22 -21 -14 2 0
-21 3 17 22 0
-21 22 -12 23 0
25 5 18 -24 0
-15 6 3 20 0
25 12 -10 -17 0
-1 2 -19 -15 0
9 2 11 16 0
-11 -7 -9 -21 0
1 9 2 -24 0
-21 18 25 10 0
-2 1 -18 14 0
5 -9 -18 22 0
-17 13 -7 8 0
-18 24 -19 5 0
-6 -2 -13 -12 0
21 -1 22 -11 0
-18 -25 21 -10 0
22 -25 -16 -20 0
-12 -3 -19 11 0
10 -9 13 8 0
-17 -22 -24 -25 0
4 -14 -3 -1 0
-11 -3 15 19 0
4 10 -13 -18 0
-8 16 -23 -7 0
-23 25 -3 16 0
20 12 -11 14 0
19 -3 9 -18 0
15 -14 8 6 0
20 1 23 -19 0
-3 11 7 -19 0
-9 -25 12 15 0
7 17 -8 20 0
-19 -8 11 6 0
5 19 -11 -21 0
23 4 15 -5 0
9 5 12 -14 0
2 -20 12 -11 0
21 23 10 -8 0
22 2 -7 19 0
-10 17 14 2 0
21 12 -22 -9 0
-12 -11 -21 -22 0
-13 16 17 23 0
-6 -22 -19 18 0
-14 5 15 -7 0
4 -24 -8 10 0
-17 13 21 -14 0
9 4 1 3 0
16 -6 -1 22 0
24 -6 2 7 0
15 1 12 -9 0
4 -25 -10 -1 0
-2 -25 -23 13 0
-25 6 10 -8 0
20 2 13 -19 0
-25 8 -3 22 0
-19 -7 3 -1 0
11 13 18 -6 0
-1 2 25 12 0
-14 -7 21 -17 0
-6 -16 20 -12 0
21 2 18 3 0
16 -15 -14 -2 0
-25 10 17 -19 0
14 5 -2 -4 0
-6 8 -9 -5 0
2 -3 -5 -23 0
17 -6 -22 -5 0
-11 -19 13 24 0
17 15 13 6 0
-20 -11 22 -12 0
12 -4 -25 23 0
18 -6 -22 19 0
11 4 20 25 0
-17 -23 24 8 0
13 16 -18 -9 0
7 -15 20 -4 0
-13 19 15 -22 0
-1 -13 -5 -25 0
-14 -4 -25 1 0
25 -23 11 -18 0
-3 22 18 20 0
-23 20 -10 -9 0
