c family=4-SAT n=25 instance=1 seed=726001144 models=6
c order 11 19 8 6 2 10 4 14 21 13 5 12 25 1 15 23 24 9 18 3 22 20 7 17 16
c order 18 17 24 2 13 21 16 10 8 5 4 25 20 1 23 14 12 9 19 22 7 6 3 15 11
c order 25 1 5 22 3 10 21 20 16 17 18 7 14 23 2 24 4 11 8 13 6 9 15 12 19
c order 8 9 13 17 14 16 1 6 2 7 22 5 18 25 24 23 20 11 19 21 12 10 3 4 15
c order 6 14 2 23 18 15 3 12 19 22 20 25 4 9 24 21 11 10 17 1 16 5 8 7 13
c order 14 12 16 3 25 23 10 2 9 17 4 11 13 5 8 1 21 18 24 6 15 7 22 19 20
c order 15 21 13 4 9 11 23 8 17 3 2 16 18 7 6 25 19 20 14 5 22 1 10 12 24
c order 16 10 8 3 2 12 4 19 13 9 20 24 1 25 23 5 7 15 11 22 6 18 14 17 21
c order 24 14 2 9 7 1 22 12 19 13 17 5 23 11 6 8 3 20 21 18 15 4 10 25 16
c order 1 22 16 10 15 20 6 19 5 3 21 8 13 11 4 24 9 14 18 23 2 12 7 25 17
p cnf 25 240
7 -1 -9 14 0
-22 -5 16 -9 0
9 3 10 2 0
9 15 -11 -5 0
-24 15 -22 2 0
-16 8 20 -22 0
-25 -11 9 20 0
-18 -2 1 20 0
25 -15 4 2 0
-12 10 15 -17 0
-17 -5 -24 -15 0
23 9 -5 -4 0
-2 20 3 -6 0
10 22 20 8 0
14 -2 21 -18 0
12 -21 7 16 0
-13 -11 19 -20 0
-12 -21 1 18 0
-2 -6 23 22 0
-8 -21 19 -10 0
5 -19 17 -3 0
21 -1 15 10 0
7 16 15 -6 0
-8 -25 -12 15 0
21 -20 -14 -22 0
24 -17 -2 -7 0
-16 -21 1 22 0
7 -13 15 17 0
-10 5 22 -21 0
-2 24 11 1 0
7 2 -24 -5 0
9 8 24 2 0
-6 16 9 -25 0
3 -4 14 -12 0
7 4 -17 -20 0
-12 4 13 -15 0
17 24 -4 -11 0
17 -3 2 4 0
-17 23 21 1 0
-25 19 17 7 0
-4 -13 -16 5 0
-21 11 14 18 0
12 -23 3 -19 0
16 -2 -6 7 0
-16 -3 15 7 0
6 -7 -25 -4 0
6 -4 -1 11 0
5 24 -15 12 0
-23 4 -3 -22 0
12 14 -7 -15 0
2 -17 -9 15 0
-12 4 22 25 0
21 -5 8 15 0
-3 23 -22 10 0
24 19 -11 7 0
-6 21 -8 7 0
7 -3 -23 -4 0
6 -9 19 -1 0
-14 -6 -18 -23 0
1 -2 -5 23 0
-12 15 -20 2 0
-3 -7 6 2 0
18 5 -12 8 0
19 -3 -14 9 0
25 -10 -1 -17 0
-16 -6 -17 -2 0
-3 5 25 -11 0
16 12 23 -24 0
12 -16 -25 4 0
6 1 24 -16 0
-14 10 -18 -12 0
15 11 5 -23 0
19 13 -20 15 0
-24 -18 13 6 0
4 -8 3 -17 0
-4 -14 7 -13 0
11 -10 21 -22 0
2 5 -20 21 0
-14 9 19 -3 0
-22 -21 1 7 0
17 -13 -6 4 0
12 -3 18 -16 0
-15 -1 19 -12 0
-4 -10 3 -8 0
17 21 -22 1 0
2 25 20 19 0
11 7 -20 25 0
21 16 -24 -2 0
24 -6 8 13 0
-9 -22 -1 15 0
-15 -23 20 -9 0
-18 -9 8 11 0
19 -13 25 -20 0
-8 18 -24 -1 0
-4 3 21 -2 0
-15 14 9 -2 0
-23 13 -9 10 0
-1 23 19 -17 0
-11 18 17 14 0
6 -1 23 -24 0
22 -12 -19 -25 0
-24 -6 -23 -9 0
-16 -21 6 22 0
19 8 12 25 0
14 23 -18 17 0
-5 19 13 -11 0
6 9 -12 2 0
23 13 -25 7 0
3 9 5 -15 0
-3 14 4 -6 0
-4 -2 -6 10 0
-3 1 -9 -10 0
24 16 -9 18 0
-21 4 -8 -25 0
1 -23 7 13 0
-13 -25 -18 21 0
10 18 15 -8 0
25 11 1 3 0
-18 5 9 -17 0
-12 -19 20 -6 0
11 14 25 20 0
10 -20 4 -14 0
11 8 -15 12 0
-5 -15 -16 21 0
-1 2 17 14 0
-16 -4 22 -15 0
2 -10 -11 9 0
-12 14 -24 1 0
10 19 -7 16 0
-10 -9 14 21 0
-14 13 16 -10 0
2 9 18 -19 0
9 24 25 -10 0
-21 -3 5 -7 0
11 14 -9 -20 0
17 -3 15 14 0
-25 2 4 23 0
-17 25 15 1 0
18 21 -7 -19 0
4 10 18 -3 0
-19 3 -14 9 0
15 21 8 18 0
10 -19 -23 17 0
-2 5 -1 23 0
25 11 23 15 0
1 -23 19 -21 0
7 -16 2 -21 0
7 -18 -1 -22 0
2 -20 25 22 0
10 17 13 -7 0
23 4 -3 5 0
22 8 2 7 0
-2 -8 -16 -4 0
-5 14 -24 -15 0
16 4 -22 -20 0
20 -7 1 13 0
-22 14 17 13 0
17 -16 -14 -11 0
-8 -5 20 9 0
-1 -25 -2 -5 0
-23 4 -3 15 0
-6 -1 -20 -23 0
5 20 10 -24 0
-3 1 14 -16 0
-12 -24 14 25 0
21 -18 3 22 0
10 -7 -13 15 0
24 -3 -23 22 0
21 -2 24 25 0
-24 13 8 3 0
-23 -9 3 -19 0
20 -9 17 -12 0
-23 1 9 12 0
12 25 -9 -10 0
19 18 5 -7 0
7 -18 -17 -25 0
3 -25 13 -18 0
-24 3 18 5 0
6 -17 -12 -13 0
-23 -15 -6 -13 0
5 -14 21 -2 0
-23 10 16 2 0
-12 20 18 -16 0
24 -10 -22 -20 0
-20 -4 9 -6 0
3 24 -1 -20 0
7 -22 -14 8 0
5 20 -11 12 0
15 -2 -24 3 0
5 -2 6 25 0
12 8 7 -22 0
16 -25 8 18 0
5 -24 -7 19 0
-10 18 -6 -13 0
-12 -13 3 -14 0
-16 17 5 4 0
6 -20 -3 23 0
23 -12 -16 -3 0
24 -2 -21 11 0
-12 8 5 -1 0
21 1 4 -6 0
-22 -21 6 -10 0
12 23 -15 24 0
-3 21 16 -17 0
-11 -14 7 16 0
-9 14 2 21 0
-3 2 1 -17 0
10 -4 -25 5 0
-11 20 -2 -1 0
9 19 -14 -12 0
-23 19 5 16 0
19 -4 23 -3 0
14 1 22 -6 0
-3 -21 4 -16 0
19 9 25 -11 0
14 16 -25 22 0
11 -13 -18 -8 0
22 -24 8 2 0
19 14 2 18 0
-5 -10 8 4 0
10 18 14 11 0
24 7 -10 -4 0
8 -20 -23 -13 0
25 -9 24 13 0
-24 -15 12 23 0
4 -17 -6 -1 0
-20 -18 -21 11 0
-23 -7 9 19 0
-21 -24 8 16 0
25 11 -12 15 0
-10 -22 -19 -21 0
1 -2 17 5 0
-21 1 14 25 0
-4 -6 8 12 0
-11 -23 21 12 0
10 -14 -17 12 0
-23 -15 14 9 0
12 18 21 -10 0
-22 23 20 -5 0
-13 -14 -19 -2 0
