c family=4-SAT n=25 instance=0 seed=726001144 models=47
c order 5 20 12 17 23 25 10 6 8 4 15 3 2 9 14 11 1 18 21 22 13 19 16 7 24
c order 9 25 10 7 19 23 17 13 8 1 15 11 24 21 22 12 16 4 2 5 14 3 6 20 18
c order 5 14 8 20 9 15 7 25 11 10 19 2 6 13 16 21 1 17 3 23 22 12 24 18 4
c order 10 8 1 14 9 19 17 3 13 15 11 25 24 23 20 5 18 2 16 22 21 6 4 7 12
c order 8 6 13 21 2 20 17 10 16 19 18 14 9 22 3 11 1 25 5 24 4 12 7 23 15
c order 10 2 15 17 6 3 1 22 12 18 19 16 25 20 11 13 4 23 21 8 24 14 7 5 9
c order 5 19 20 7 17 15 21 3 12 22 2 8 18 14 13 10 25 9 23 16 11 4 1 24 6
c order 6 12 19 18 10 21 11 23 5 24 7 3 9 22 25 4 2 15 13 14 8 20 17 16 1
c order 5 2 24 6 8 20 7 9 17 23 10 13 19 18 21 22 16 14 1 4 11 15 25 12 3
c order 9 10 20 7 19 15 1 24 5 12 8 17 6 18 4 14 22 21 13 2 3 11 16 23 25
p cnf 25 240
15 -22 11 10 0
-8 20 12 -9 0
13 -20 -2 -17 0
10 15 -21 3 0
-20 -14 1 -7 0
-9 14 16 1 0
4 -21 19 10 0
-15 12 4 5 0
1 -4 -7 9 0
4 -10 8 20 0
24 14 -4 10 0
9 15 -6 14 0
-5 -4 -23 -22 0
2 22 -12 24 0
11 5 -23 3 0
-5 20 23 7 0
13 3 23 -14 0
11 21 9 3 0
10 -18 6 12 0
-18 2 -21 -13 0
-12 4 -19 -23 0
23 -20 6 7 0
-4 -12 9 19 0
22 -3 19 7 0
20 3 21 2 0
-18 16 -5 15 0
6 5 22 21 0
21 -5 10 -23 0
-4 -20 -15 -8 0
-4 -18 2 -8 0
9 -15 -10 23 0
18 3 -2 14 0
9 11 15 17 0
-7 -2 14 6 0
-18 -13 23 -4 0
-25 -3 -10 -22 0
-22 -2 -25 23 0
4 -3 -11 8 0
11 -18 15 -23 0
6 -25 12 8 0
-3 16 -10 -13 0
16 23 -24 -5 0
10 -23 21 3 0
2 3 17 4 0
-15 -1 -5 -17 0
-14 -5 20 -19 0
-1 -4 9 21 0
-16 -24 -12 -9 0
14 3 21 -2 0
-19 22 23 1 0
15 -5 -4 24 0
24 -16 2 7 0
11 20 13 -25 0
18 8 -13 -5 0
9 -13 20 -25 0
-17 -3 6 14 0
-23 -25 4 7 0
-6 20 10 1 0
21 -25 -24 -16 0
-5 7 -24 11 0
-7 -21 25 24 0
24 -11 18 13 0
-23 -16 -1 4 0
-1 4 -13 -3 0
-12 -6 -16 -10 0
-24 -8 -23 22 0
-8 7 9 21 0
25 24 -13 -22 0
24 -11 -9 18 0
-18 -15 -8 24 0
22 -19 20 9 0
-5 -17 19 -10 0
11 -19 -4 -23 0
11 -23 -6 -8 0
-13 -17 9 25 0
-12 -15 -16 14 0
-4 -7 1 9 0
-16 6 15 -5 0
-16 7 -4 1 0
4 9 8 -16 0
-8 25 -13 17 0
-9 -3 -24 19 0
-22 12 8 9 0
1 -9 20 18 0
-16 -17 6 -14 0
16 -3 -21 12 0
-17 -2 9 -14 0
-2 -8 -7 23 0
-2 -6 14 -16 0
6 -12 21 17 0
-19 3 24 14 0
-24 -3 -5 11 0
-1 23 10 18 0
-4 -17 15 2 0
4 -25 -13 3 0
7 11 -13 -18 0
9 14 -16 -3 0
20 2 -11 -3 0
20 -1 9 6 0
-3 10 -4 -19 0
2 -8 -11 -17 0
10 25 19 -3 0
6 2 -24 -20 0
2 -10 -15 11 0
14 -25 21 20 0
20 -10 22 -24 0
-11 4 24 18 0
24 -21 -12 -22 0
17 7 -22 10 0
22 -13 6 15 0
25 16 10 8 0
13 -6 -17 19 0
-4 -8 -10 20 0
-5 -8 -4 -11 0
-21 20 -15 -17 0
20 -4 -14 7 0
-8 16 4 -19 0
-4 15 17 5 0
-1 19 16 22 0
18 -6 -16 11 0
15 -12 5 -10 0
-5 15 -9 -20 0
6 -17 -14 3 0
-6 -21 -24 -2 0
8 -21 -23 6 0
-4 10 -21 5 0
-7 9 18 16 0
24 14 19 21 0
17 -20 7 9 0
12 -23 15 2 0
25 24 -10 -22 0
23 5 -10 -18 0
-23 -21 15 10 0
13 -7 19 -15 0
-16 10 18 -14 0
1 17 -25 16 0
9 -11 4 5 0
-12 4 8 22 0
13 -7 15 23 0
-18 -16 25 -14 0
-7 -8 19 4 0
-15 4 2 7 0
6 -19 -13 -22 0
4 23 9 -12 0
-21 4 16 -6 0
-15 -14 9 -2 0
-10 25 21 2 0
18 15 19 24 0
-16 -3 -15 7 0
-6 -9 -23 -14 0
-3 -9 1 -6 0
3 -21 -2 24 0
-20 21 -7 8 0
24 16 17 10 0
-16 -7 -25 9 0
5 2 -4 15 0
4 -14 -15 19 0
10 -7 -20 1 0
19 9 12 -15 0
-25 -16 -20 2 0
-13 -2 -24 -20 0
23 2 6 -16 0
3 -12 7 18 0
-25 -9 -13 -7 0
-14 -1 -25 -24 0
-6 22 17 -8 0
-16 18 6 -1 0
-11 18 4 -14 0
-6 19 -17 -22 0
-25 16 2 24 0
-8 4 -6 25 0
2 10 -21 17 0
-25 -2 -14 -17 0
10 19 -18 -1 0
20 3 -5 -1 0
-10 21 12 2 0
6 16 18 4 0
-23 -18 13 4 0
-14 -2 -3 -19 0
-10 2 7 8 0
-3 11 7 -21 0
-17 2 8 9 0
-14 -19 -5 17 0
24 8 -5 -1 0
-7 10 21 -13 0
-13 7 -2 -18 0
7 -8 5 12 0
-8 -4 20 6 0
-22 7 1 15 0
-18 6 -4 17 0
-15 11 -23 8 0
-16 25 -21 1 0
-19 -18 25 24 0
-5 -24 14 -25 0
-5 14 15 -7 0
-25 14 11 -3 0
9 -19 8 -20 0
14 -2 -15 -7 0
13 -6 -14 16 0
-12 11 18 8 0
-5 19 -21 10 0
9 25 -4 -1 0
16 -20 2 9 0
-12 -17 -5 -2 0
9 -17 16 5 0
23 7 -13 -14 0
-2 21 -11 -10 0
19 -18 12 -23 0
19 13 -10 25 0
3 -20 12 -18 0
11 9 -25 -2 0
12 7 -2 -25 0
10 16 -4 -8 0
12 4 -15 21 0
6 -21 -18 -3 0
-1 18 17 -15 0
17 9 -15 19 0
2 3 -15 9 0
-19 -6 -5 20 0
15 19 -6 -22 0
-4 -22 -12 24 0
25 16 15 -13 0
-9 24 -21 -22 0
11 -15 23 21 0
8 3 -13 24 0
19 2 -17 -15 0
10 -11 -6 -5 0
-8 21 25 14 0
-3 25 15 -9 0
-10 -8 13 23 0
-1 -19 11 17 0
11 -14 -15 12 0
6 7 -19 25 0
-13 -8 5 25 0
-11 -17 18 16 0
-23 25 19 9 0
15 12 23 9 0
-22 -2 10 3 0
-8 4 -20 -6 0
-13 -11 5 -1 0
