c family=4-SAT n=25 instance=3 seed=726001144 models=19
c order 21 15 22 6 16 5 18 11 23 4 9 2 7 13 1 25 3 17 12 8 10 24 14 20 19
c order 1 13 11 10 19 24 8 2 9 4 23 25 20 14 7 15 3 17 16 5 18 12 22 6 21
c order 19 9 16 4 23 12 5 2 24 1 8 7 18 22 3 20 21 11 6 17 25 15 10 14 13
c order 11 14 10 25 20 15 3 2 12 8 19 13 1 16 4 23 5 18 9 7 17 24 21 6 22
c order 9 22 17 18 25 20 10 2 6 1 12 19 16 7 5 23 8 14 3 21 13 24 15 11 4
c order 7 12 18 19 10 15 25 13 17 16 8 3 2 9 14 1 6 21 23 20 24 11 4 5 22
c order 11 24 3 16 1 13 22 7 9 18 4 8 23 5 15 21 25 2 17 19 20 12 14 6 10
c order 25 6 9 19 17 14 5 23 16 12 10 21 20 24 7 1 13 3 11 2 4 8 22 15 18
c order 25 16 9 3 11 6 10 13 12 4 24 17 23 20 2 21 22 18 14 7 15 5 8 1 19
c order 8 20 6 15 17 1 10 24 12 14 13 16 19 23 21 22 2 3 4 25 5 7 18 9 11
p cnf 25 240
-9 -22 -16 19 0
-10 -18 -24 -9 0
2 -23 25 13 0
6 12 9 -23 0
-19 -12 -2 -15 0
-8 -23 -17 -19 0
10 -4 22 -11 0
18 -22 -20 12 0
18 9 -8 4 0
5 -13 -6 4 0
11 24 2 14 0
-19 16 21 -22 0
8 -6 14 -9 0
12 19 -5 25 0
-7 -5 22 18 0
6 11 -8 -22 0
-11 10 -17 6 0
15 6 -4 -3 0
18 23 24 1 0
-17 -20 -21 3 0
-1 15 17 16 0
-4 20 -5 -10 0
-23 5 16 -6 0
-25 20 10 -21 0
-13 -9 25 -15 0
7 -10 13 15 0
-6 25 -20 -21 0
24 -19 -15 -21 0
18 21 -16 12 0
-21 -13 -12 25 0
4 -6 23 -21 0
-1 7 -9 -25 0
-24 -11 -22 -1 0
10 20 5 -24 0
-6 -23 17 4 0
10 -25 1 -3 0
25 23 24 -1 0
-19 1 -20 23 0
-2 25 -22 5 0
-25 -7 22 15 0
6 23 -11 -14 0
-16 2 6 -22 0
3 -1 12 18 0
4 -12 -10 5 0
17 5 4 -2 0
19 -21 -3 -13 0
18 -25 17 20 0
-22 25 -8 19 0
-11 19 14 9 0
19 -5 4 24 0
21 -11 13 23 0
-3 -9 16 -13 0
6 2 5 -23 0
-4 5 -8 9 0
-11 -10 2 14 0
-7 24 21 12 0
18 -10 -1 11 0
-21 1 -16 4 0
20 -25 17 22 0
-17 -24 -18 8 0
6 -22 -3 21 0
22 15 -11 16 0
6 -18 -12 -25 0
-6 -2 19 -13 0
-12 23 -2 -15 0
-10 2 -22 -21 0
20 -5 17 -22 0
15 -20 23 12 0
3 15 4 25 0
-1 19 -10 25 0
-9 10 3 12 0
-9 7 2 14 0
16 17 -3 -22 0
-25 11 15 -14 0
-14 -12 -20 -21 0
16 -23 -7 -17 0
11 -21 -22 24 0
-12 -3 18 -23 0
-2 -8 22 20 0
15 -16 -12 24 0
-19 12 -24 -23 0
10 -16 -8 -20 0
-13 -20 -24 -22 0
-25 6 13 -22 0
-3 -22 -25 -1 0
-5 -19 -1 24 0
-10 -6 12 -25 0
9 18 1 -10 0
15 -2 -7 8 0
-21 14 10 25 0
-16 -21 9 -22 0
17 -16 -8 14 0
-22 5 1 -12 0
20 -11 -16 23 0
-5 12 8 24 0
12 20 -1 19 0
-8 -23 -24 20 0
17 10 20 -14 0
-17 -6 4 15 0
6 -1 11 8 0
22 24 -16 13 0
16 -15 -3 9 0
25 1 10 -4 0
10 9 -12 -17 0
12 8 -22 -15 0
9 -10 19 1 0
-1 -18 -11 -24 0
-23 25 12 -24 0
-1 2 9 -14 0
-13 -3 -20 8 0
20 14 -15 -13 0
2 -23 -3 21 0
4 20 18 9 0
-8 -21 -12 14 0
-10 2 -16 -21 0
-4 17 -16 15 0
-13 14 16 12 0
23 -17 8 7 0
-21 19 -17 -24 0
18 -13 -25 11 0
15 11 -16 -8 0
15 -4 -16 5 0
6 -16 17 15 0
6 -9 -3 21 0
11 -7 22 -15 0
5 -6 21 -22 0
-9 6 -14 5 0
-24 -4 -21 7 0
16 -22 -11 -21 0
15 18 4 -3 0
6 -17 25 -12 0
6 -25 -15 17 0
-23 -25 -6 -5 0
-7 -15 16 5 0
-18 -20 -12 -17 0
2 -5 12 1 0
24 7 18 -15 0
12 -10 -16 6 0
8 23 -25 -3 0
12 11 -1 19 0
-17 16 -23 7 0
8 -21 23 -22 0
24 -10 -8 -14 0
-3 -14 1 -25 0
-8 21 -13 25 0
-21 -18 13 -16 0
8 14 -18 -13 0
-10 -17 25 -13 0
15 -1 -11 13 0
19 13 2 1 0
-4 -17 -20 24 0
-21 23 5 7 0
-1 23 -25 3 0
-3 -7 -5 -23 0
-1 9 17 -25 0
-12 -3 25 -5 0
-25 22 18 14 0
15 -25 9 13 0
3 25 2 -10 0
4 12 -16 -6 0
1 -22 -16 19 0
-3 25 -1 12 0
-12 -25 19 -17 0
7 -1 18 -20 0
3 6 -18 13 0
-18 -10 6 12 0
-10 -8 -24 22 0
16 22 -3 -15 0
-23 -2 -24 11 0
8 10 -1 -9 0
-2 -16 12 -3 0
17 -21 20 24 0
3 -6 18 10 0
-2 17 10 22 0
-15 -1 -4 2 0
7 -18 15 -11 0
14 -24 -9 6 0
-23 -21 3 -8 0
1 2 -15 -14 0
17 -15 23 16 0
19 -22 -6 25 0
15 10 -6 -19 0
16 3 24 6 0
5 6 4 15 0
-24 22 -20 -21 0
4 23 -21 -17 0
15 -8 -23 -11 0
8 14 -25 11 0
10 -9 -25 -3 0
7 11 20 2 0
9 15 -3 -17 0
-19 -22 3 18 0
23 17 -11 -12 0
-3 -19 13 21 0
-18 20 -17 9 0
5 17 6 -12 0
-19 15 1 12 0
-2 -19 -20 15 0
-14 -4 17 18 0
6 17 -16 -21 0
-17 -20 -19 -10 0
-20 11 12 13 0
16 13 -9 8 0
-9 -21 22 -19 0
13 -20 5 -21 0
-6 -8 -18 -21 0
20 22 13 -7 0
-4 -1 -22 12 0
-16 -11 -8 -13 0
2 24 7 12 0
-9 13 11 -10 0
-12 -10 11 7 0
-11 -20 5 6 0
-10 -15 4 21 0
24 8 -25 -12 0
-18 4 -22 23 0
-6 -2 23 -21 0
1 -16 -21 -17 0
-6 15 -20 4 0
-17 -23 -3 -16 0
-4 -13 19 -6 0
-3 -7 -23 15 0
-15 -12 10 -7 0
-2 17 -19 11 0
3 -8 13 7 0
11 -23 12 2 0
4 -9 -1 -24 0
4 12 -3 -16 0
3 11 -4 -14 0
-15 -2 -1 23 0
1 3 -5 -13 0
-15 12 -3 -11 0
16 -18 1 -11 0
6 -19 3 -11 0
-5 -7 -10 8 0
-4 -23 12 17 0
-16 15 -8 -6 0
21 -11 2 -17 0
-8 11 -17 3 0
-21 -23 -13 14 0
