c family=4-SAT n=30 instance=2 seed=726001144 models=3
c order 15 26 6 25 27 28 10 4 5 16 1 20 11 3 9 24 23 13 19 7 21 14 22 30 18 8 2 12 17 29
c order 1 27 13 11 23 5 21 10 8 28 26 15 29 3 22 16 2 4 6 7 18 19 17 9 14 20 24 25 30 12
c order 3 26 12 10 6 18 13 30 25 4 5 19 8 14 27 11 28 22 15 1 23 16 21 29 9 24 17 20 7 2
c order 12 8 6 10 11 20 4 18 24 27 26 1 14 7 21 30 13 29 3 22 2 25 15 9 16 23 5 28 17 19
c order 27 28 14 10 6 23 11 24 20 7 26 13 30 22 16 3 2 9 12 8 4 21 18 5 15 29 19 17 25 1
c order 25 3 28 4 10 16 26 22 17 18 12 24 27 29 14 11 1 7 21 6 20 2 9 13 19 5 15 30 8 23
c order 3 30 21 18 10 22 29 13 6 1 17 24 5 15 19 23 8 9 7 14 4 2 12 27 25 16 20 11 26 28
c order 14 23 21 4 8 18 22 11 15 10 27 6 1 28 30 12 13 5 7 3 29 17 19 25 9 26 16 24 2 20
c order 17 14 27 11 4 22 25 15 6 24 18 20 5 9 1 16 7 10 12 26 23 29 19 13 3 28 8 2 30 21
c order 19 12 16 21 1 3 20 5 25 13 24 29 11 10 18 30 8 23 7 15 9 4 17 2 26 6 14 28 27 22
p cnf 30 288
-5 3 -20 -28 0
-22 12 -28 25 0
28 23 -15 5 0
29 -25 3 -26 0
18 6 -23 -12 0
-18 -30 13 -22 0
1 -13 15 -30 0
19 7 -27 22 0
-8 26 2 18 0
8 22 -24 23 0
-6 29 -26 -8 0
-30 11 -27 3 0
-26 -22 17 -27 0
29 6 -25 23 0
3 30 -22 23 0
-5 -19 -23 29 0
-10 -1 -18 -15 0
10 6 -30 -7 0
-22 -12 28 15 0
8 18 20 27 0
6 -18 27 20 0
21 14 -24 11 0
5 -12 -13 -29 0
-24 20 15 -8 0
7 29 -5 -21 0
-16 24 19 -9 0
22 -29 1 12 0
28 11 21 14 0
-29 3 22 -13 0
24 15 26 12 0
-10 18 29 23 0
-30 -28 25 -4 0
2 27 -12 14 0
-10 -18 -5 2 0
11 -15 3 -8 0
-10 -24 13 5 0
9 25 -19 24 0
14 -24 7 21 0
28 -15 -21 9 0
17 -13 16 18 0
-1 -2 -27 -22 0
14 2 27 15 0
-11 -23 14 9 0
23 14 22 1 0
-25 11 27 -13 0
-23 -15 1 9 0
1 -30 21 28 0
-12 -4 -28 -18 0
-7 18 -28 -24 0
-16 17 -21 10 0
-8 14 -22 29 0
-29 -28 -7 5 0
-21 -1 -16 -18 0
-8 14 -13 16 0
-19 -28 14 -8 0
-24 28 -2 -23 0
3 -27 -26 -30 0
-8 29 -3 18 0
24 -15 -26 -12 0
-18 -19 3 -25 0
8 6 16 23 0
-14 11 25 22 0
2 -12 19 -3 0
-8 -4 -28 7 0
11 -25 -21 4 0
9 -23 -1 7 0
-30 -23 -11 3 0
6 -16 -2 -17 0
17 -6 3 5 0
-9 -13 12 16 0
3 -7 4 26 0
-7 -22 8 -25 0
3 -15 -8 25 0
-19 -30 7 6 0
1 20 18 10 0
4 2 16 -27 0
-22 -25 -10 -14 0
7 -14 16 18 0
-10 29 13 -21 0
1 5 -20 -17 0
29 -14 19 9 0
-28 -4 22 -11 0
-9 16 20 -14 0
-25 21 -3 18 0
8 -22 -23 -15 0
7 -9 -26 19 0
-23 15 9 27 0
-5 -18 6 19 0
21 5 4 16 0
-26 -9 -30 16 0
-29 -16 6 -28 0
-25 -1 -26 -20 0
-22 -11 15 26 0
3 -10 -21 30 0
-14 21 -8 -25 0
-12 -7 15 10 0
23 -10 6 15 0
6 2 -14 -7 0
-14 7 16 -17 0
10 26 -11 -12 0
-17 -4 -13 -5 0
14 -24 -22 23 0
29 -3 -20 -28 0
-16 -11 14 -5 0
6 -17 -21 -9 0
8 13 -26 28 0
6 -23 10 11 0
1 -5 4 -17 0
-18 -13 -29 -17 0
-8 -2 18 14 0
-30 -3 -9 -14 0
-10 -14 -13 -30 0
4 -23 -14 -17 0
14 -24 -20 18 0
13 -21 8 -24 0
-9 -22 -29 7 0
-8 -10 -5 7 0
11 13 22 -23 0
-2 18 23 -28 0
-28 -24 11 -8 0
25 -5 -17 -23 0
30 -14 25 18 0
26 23 22 -7 0
22 -23 -29 -17 0
25 17 -20 11 0
23 11 -7 -2 0
18 1 4 15 0
-4 -8 21 -7 0
7 -6 28 -4 0
-17 -5 -1 25 0
-25 9 -10 -23 0
-7 13 -8 -16 0
-13 -5 20 -19 0
-1 -5 -17 26 0
-3 7 -19 -26 0
-21 8 7 -18 0
-21 26 -28 30 0
-6 -5 2 23 0
27 -3 -12 -21 0
24 26 -28 -20 0
29 17 -24 19 0
29 -18 -15 -12 0
-23 -19 17 12 0
-15 16 -8 -9 0
-1 -17 -2 -7 0
17 -11 -7 21 0
-19 -22 -30 -21 0
-21 8 -25 -9 0
30 -24 5 -9 0
5 26 -15 -19 0
24 3 4 -23 0
-22 -6 -23 11 0
-29 -8 25 -3 0
-21 -1 -8 17 0
-18 12 -23 -22 0
-26 -7 27 6 0
-12 11 -17 3 0
-12 -3 16 25 0
-17 -16 13 -23 0
29 -28 -15 -1 0
12 16 -5 -17 0
-13 -1 11 -2 0
-9 17 10 -30 0
-25 11 28 15 0
14 -2 20 -12 0
6 -12 28 -1 0
-17 -12 11 13 0
-26 8 -1 2 0
4 21 -20 -7 0
-4 30 -24 -9 0
4 28 1 -23 0
9 -13 -4 -17 0
24 15 -19 10 0
-16 -5 -4 14 0
26 -28 15 24 0
-12 -2 -1 5 0
21 23 28 1 0
-26 21 -4 -2 0
-24 26 -11 16 0
19 -30 10 26 0
-15 9 -23 16 0
-13 -26 8 -10 0
-23 -8 14 19 0
17 -18 -1 19 0
28 -2 -10 13 0
30 6 26 -4 0
-11 19 -18 -13 0
-14 -24 10 -16 0
20 -13 -29 28 0
6 -14 11 20 0
5 -3 -15 -27 0
25 12 -10 22 0
30 27 22 -12 0
15 -26 27 -6 0
10 -7 -6 -27 0
-2 -20 -18 14 0
-7 -27 15 -21 0
25 10 22 5 0
-5 13 -24 7 0
-7 22 25 9 0
-3 -14 -1 -10 0
-21 28 -24 -18 0
-4 -24 -13 28 0
3 1 27 4 0
-10 -24 -25 -8 0
-18 13 23 1 0
27 24 25 2 0
1 -29 -25 10 0
16 8 -10 -21 0
-30 18 -21 28 0
-28 -29 16 -8 0
5 -2 -27 -18 0
13 -27 -19 -12 0
-26 -11 4 5 0
-28 5 -2 -29 0
-22 -11 17 27 0
-22 4 -17 -12 0
12 11 6 -14 0
-16 26 17 11 0
6 17 -12 24 0
10 -14 20 2 0
-10 8 19 -20 0
-16 18 3 1 0
-22 -5 -20 -6 0
15 17 27 -26 0
-2 23 -22 -7 0
27 -1 -19 3 0
-30 19 -1 -6 0
28 12 -9 22 0
12 15 25 -24 0
15 -27 -23 -6 0
-18 -29 20 9 0
29 27 30 20 0
-26 28 22 -18 0
-21 -22 -30 -2 0
-20 19 -30 -23 0
6 -1 2 9 0
18 14 -8 -21 0
-14 13 -18 -8 0
-18 -30 13 -2 0
9 -4 -17 -29 0
5 -28 -25 -11 0
18 -11 20 -22 0
-30 -16 -8 1 0
23 -11 29 7 0
24 18 11 7 0
-20 -6 28 -8 0
-23 -3 -10 16 0
-24 -16 -19 15 0
-28 3 -15 29 0
-12 1 -5 7 0
-15 10 9 24 0
6 -17 7 -27 0
27 30 15 11 0
11 26 -17 1 0
-4 17 -6 20 0
-5 20 13 -29 0
13 -23 -26 6 0
7 21 -15 -29 0
-29 2 30 11 0
-8 29 -15 -22 0
21 5 15 -14 0
22 25 3 -1 0
-1 -13 -28 18 0
-18 -14 23 16 0
27 3 -26 2 0
15 19 1 -14 0
-1 -14 5 13 0
-27 -14 30 8 0
-17 15 -24 -2 0
-21 8 -11 -27 0
21 -27 19 -24 0
7 26 25 17 0
22 -1 17 27 0
-1 6 21 -11 0
-2 -9 -11 -6 0
-12 -30 24 8 0
7 14 -1 -21 0
-6 3 -10 -11 0
5 -2 15 -6 0
1 16 23 -19 0
-19 13 -3 -18 0
-6 -26 -10 5 0
21 -26 28 15 0
-24 -1 -23 -8 0
-24 12 25 17 0
-2 -7 3 4 0
29 -24 13 1 0
