c family=4-SAT n=30 instance=7 seed=726001144 models=3
c order 13 1 9 7 15 4 12 18 14 17 27 26 8 30 6 25 23 3 28 16 5 19 11 29 21 2 22 20 24 10
c order 15 12 26 17 19 27 13 25 9 10 28 24 18 23 2 4 7 20 8 1 21 5 3 30 16 29 22 14 11 6
c order 8 18 16 4 5 29 13 11 1 9 17 10 15 12 22 21 20 7 26 2 3 24 30 19 25 23 27 6 14 28
c order 15 18 8 2 29 1 7 14 26 24 11 6 17 13 20 22 9 4 23 30 27 16 12 21 5 10 19 3 25 28
c order 19 22 1 21 8 20 25 29 7 11 15 23 28 4 10 3 6 18 12 2 17 26 24 16 9 30 13 14 5 27
c order 21 16 24 26 19 27 17 10 9 8 14 12 2 7 22 4 5 23 15 3 20 18 13 28 11 30 6 29 1 25
c order 16 17 7 8 10 27 23 30 6 26 21 5 22 15 25 14 18 4 28 19 20 2 3 24 13 29 1 11 12 9
c order 24 20 10 5 15 14 27 21 28 12 18 25 9 17 11 13 4 6 29 8 3 30 23 26 16 22 1 2 7 19
c order 28 27 21 15 29 26 6 14 2 30 4 22 9 23 11 20 18 13 5 1 10 17 8 12 7 25 3 19 24 16
c order 3 12 23 24 30 15 26 10 27 6 2 18 13 19 28 7 25 11 16 22 8 17 20 5 14 1 29 4 21 9
p cnf 30 288
12 -10 26 17 0
-9 -18 -6 -14 0
1 17 22 -10 0
27 16 7 26 0
-13 27 -16 30 0
-17 -25 -28 4 0
-9 -4 -17 16 0
25 15 -8 -9 0
26 -17 8 11 0
-14 24 -4 30 0
20 21 -11 16 0
-8 -5 -16 12 0
-14 18 -26 17 0
-17 -4 -20 -12 0
-8 2 -10 7 0
-27 5 -19 16 0
20 -4 -13 -5 0
-25 -24 -18 7 0
17 -20 -18 14 0
-19 10 1 22 0
-13 -9 -5 -22 0
-25 -7 10 -17 0
-26 27 24 -8 0
-17 -24 -5 -2 0
-17 -26 23 -8 0
-3 29 -23 -19 0
18 -13 28 25 0
10 -20 25 1 0
-6 1 -9 -23 0
-14 -8 15 -26 0
-12 -2 10 30 0
-9 -28 13 -6 0
-23 11 6 8 0
-10 9 -19 -27 0
-29 -17 -25 4 0
-15 18 22 -29 0
23 26 -19 -5 0
-21 -7 4 16 0
15 17 14 -20 0
-10 -17 -14 4 0
28 -25 -18 22 0
-5 24 -10 -2 0
24 -27 -7 -5 0
-17 -25 24 7 0
-21 -14 12 -29 0
17 -22 -12 23 0
5 -11 -16 -29 0
1 6 -22 19 0
9 -10 30 14 0
-23 10 -29 2 0
20 -28 9 23 0
-6 -21 23 30 0
30 -24 -4 15 0
19 8 28 -17 0
-25 -10 4 1 0
-29 -8 10 18 0
19 -20 -8 -30 0
21 -17 13 -20 0
12 23 5 -7 0
5 13 -28 4 0
20 3 -8 -23 0
20 25 1 -24 0
5 -27 -20 14 0
-19 16 -2 -7 0
-26 12 -28 -30 0
10 -20 28 6 0
14 9 -20 -12 0
14 -28 7 15 0
6 -25 11 -14 0
24 -2 -3 -11 0
-29 24 -12 -26 0
-2 12 -5 -7 0
6 7 -4 -9 0
7 26 -10 -15 0
-14 -25 21 -26 0
22 23 -11 -9 0
15 18 11 2 0
-14 2 -27 -17 0
-4 -13 -9 -25 0
-5 -3 -18 1 0
4 29 10 8 0
25 16 3 18 0
23 25 -14 -9 0
-27 -13 3 14 0
22 -17 -29 -13 0
-27 -28 -22 1 0
7 -25 11 8 0
-28 2 -24 25 0
17 14 -9 21 0
-15 -17 10 -6 0
26 -25 -27 11 0
-28 -6 -27 -17 0
-9 20 -11 -12 0
-5 7 23 -3 0
17 -16 22 -13 0
1 24 -30 -11 0
-3 21 30 -24 0
-29 23 -10 -1 0
-7 -11 30 18 0
8 -11 14 -20 0
-22 -27 23 -4 0
-12 16 -5 6 0
25 -30 22 12 0
-26 -21 8 -20 0
-7 11 -8 4 0
-10 6 9 26 0
11 -17 -12 19 0
20 3 -14 16 0
28 24 -11 5 0
-15 -10 -2 1 0
22 -10 -14 17 0
-23 20 -28 -12 0
-3 25 -23 -2 0
-21 30 -10 -11 0
-5 23 -3 28 0
-16 24 15 18 0
7 -17 -24 -30 0
12 27 -5 -26 0
23 8 -9 -13 0
9 26 19 -8 0
11 27 -22 30 0
-27 26 13 21 0
23 -21 -18 -14 0
-3 -16 -5 -8 0
18 10 -16 -21 0
-7 -24 5 13 0
-8 -17 -2 29 0
-24 27 -10 23 0
-27 -10 17 1 0
-23 -12 10 14 0
23 -29 -30 11 0
4 13 -30 9 0
-23 20 -16 10 0
-1 -20 29 -26 0
30 29 -22 3 0
-5 25 -20 3 0
-30 11 18 -27 0
-21 -3 -15 19 0
17 22 -13 -2 0
3 -16 -5 -23 0
4 27 30 15 0
-9 3 -26 24 0
12 14 17 -26 0
29 19 25 3 0
17 -8 -3 20 0
-2 23 3 -5 0
24 -15 -27 22 0
12 -2 5 -28 0
-28 24 -17 -21 0
26 -27 -30 23 0
-20 -18 -14 -2 0
-4 13 25 -28 0
17 -7 13 -29 0
-5 -10 -27 -9 0
-1 17 23 8 0
19 21 6 22 0
-12 -17 -28 1 0
-23 -13 26 19 0
-4 -30 16 24 0
-28 22 -17 15 0
-27 -3 -23 24 0
-9 -22 23 -19 0
30 9 22 25 0
-13 3 -8 -7 0
9 -24 19 1 0
-1 21 25 -30 0
-8 28 -5 9 0
-5 10 4 -12 0
9 26 -2 5 0
-1 21 -3 -15 0
15 7 9 -10 0
7 -5 -4 24 0
14 25 29 26 0
18 11 -22 -12 0
-6 -8 -13 -25 0
-20 23 -16 29 0
5 -22 1 26 0
-15 19 -18 -23 0
17 19 -20 1 0
12 -30 -27 26 0
-25 -27 -18 -1 0
-2 26 4 -5 0
-8 21 26 -25 0
7 29 -22 3 0
-30 21 -17 1 0
20 -16 -10 -13 0
-10 -16 8 -5 0
14 -1 27 -16 0
12 -8 26 18 0
13 3 14 -11 0
-9 -18 26 15 0
-26 10 -3 21 0
25 28 4 -26 0
21 13 20 -30 0
18 -22 -7 -1 0
-9 5 28 -25 0
22 -3 16 13 0
-22 18 11 3 0
15 -7 24 28 0
25 -27 -20 11 0
30 -14 16 13 0
-20 -29 1 30 0
-16 -17 -3 5 0
-10 -15 24 22 0
-5 11 -8 15 0
-18 1 -8 -16 0
26 29 28 -19 0
-2 -14 12 27 0
-7 -28 15 -26 0
-13 19 -23 4 0
-23 -9 14 29 0
4 -8 -3 -14 0
-30 8 -19 27 0
18 12 -30 16 0
-11 7 -8 -24 0
14 15 -7 -8 0
14 -23 -3 27 0
18 6 -8 -3 0
25 10 -16 -3 0
-22 15 -4 -17 0
9 26 22 28 0
-18 8 26 -5 0
24 20 -10 19 0
8 -14 -30 -11 0
22 26 3 -7 0
23 18 -30 27 0
-4 -6 19 -18 0
-8 -25 -11 -7 0
21 -26 16 -23 0
-30 5 -18 7 0
20 6 -28 -1 0
1 -4 10 14 0
-29 17 30 -22 0
-13 -14 -20 7 0
-4 -13 2 15 0
-15 8 10 -29 0
9 -4 1 7 0
-26 14 -2 -9 0
12 10 4 28 0
-8 -1 16 -28 0
-13 -1 12 7 0
-21 -16 -5 -23 0
15 11 13 -2 0
-23 26 -4 -14 0
-30 18 -22 4 0
7 -26 20 21 0
-20 15 6 -2 0
-14 -19 11 22 0
11 26 10 -27 0
18 19 15 16 0
2 1 18 16 0
-6 -1 -10 -29 0
-19 -11 -14 4 0
26 -3 -7 18 0
-11 7 1 22 0
-3 20 27 4 0
-12 16 -27 17 0
29 20 23 -16 0
26 1 -21 -4 0
-26 -8 -16 17 0
-1 2 -24 -5 0
6 -20 -28 1 0
26 8 -6 -17 0
28 17 -26 7 0
-27 -3 -23 28 0
20 -8 -24 -29 0
27 17 -12 -13 0
-20 13 -4 -25 0
30 29 -6 19 0
-9 5 29 -2 0
-20 -21 -16 -8 0
30 21 26 11 0
18 -3 12 28 0
27 -15 -20 19 0
-15 1 2 21 0
4 24 9 -29 0
18 -12 -15 -13 0
-8 -5 6 28 0
20 -8 5 6 0
-13 19 11 17 0
-16 15 -29 -18 0
11 -5 -30 -3 0
-16 21 27 2 0
23 -6 10 15 0
-8 23 -28 25 0
20 9 -12 6 0
4 -16 -6 -9 0
-10 -19 -1 5 0
