c family=4-SAT n=30 instance=9 seed=726001144 models=4
c order 28 6 14 13 1 22 26 27 3 17 29 7 19 15 24 11 8 10 16 9 23 21 20 12 5 25 30 18 4 2
c order 12 10 29 6 2 23 8 11 15 17 18 19 24 26 20 16 30 21 5 14 9 27 3 7 22 4 28 25 1 13
c order 12 3 28 8 20 7 4 18 6 25 14 11 26 22 27 24 23 17 5 29 30 21 19 2 9 13 16 10 15 1
c order 14 4 29 9 8 25 12 16 26 20 30 27 18 21 10 23 7 2 24 5 6 15 22 28 17 13 11 1 3 19
c order 21 11 27 3 17 18 29 12 22 13 5 10 1 9 4 8 2 26 20 19 24 23 14 28 7 15 16 6 25 30
c order 5 1 19 18 11 20 12 8 15 21 16 27 22 3 7 30 24 2 4 6 13 28 14 10 25 23 17 29 9 26
c order 16 9 15 30 22 17 6 5 10 27 18 23 21 20 13 2 11 24 1 3 12 29 7 25 14 19 28 8 4 26
c order 13 26 16 21 15 6 12 7 17 3 14 25 4 27 22 30 28 1 18 23 10 9 8 2 5 11 19 24 20 29
c order 15 30 29 14 20 7 18 21 13 8 19 25 17 28 23 26 3 1 22 5 10 24 2 4 11 6 9 16 12 27
c order 24 18 21 4 27 30 2 15 20 1 11 22 28 6 19 3 12 8 17 23 29 7 14 26 5 25 10 13 16 9
p cnf 30 288
17 -9 12 15 0
-10 6 12 -20 0
-30 -9 14 -3 0
27 -28 5 14 0
28 -26 15 27 0
-13 20 14 -2 0
23 -24 -14 9 0
11 4 19 -7 0
6 -13 29 -14 0
18 5 29 -15 0
11 -10 14 28 0
25 -1 -30 -19 0
4 28 -25 14 0
-23 17 8 11 0
-29 1 15 5 0
13 30 -19 11 0
30 -8 -19 -1 0
10 -13 -4 -26 0
11 27 14 17 0
-20 10 -25 -21 0
-7 12 -20 3 0
22 -13 25 -3 0
28 18 -13 -27 0
11 6 2 24 0
16 -30 3 8 0
-12 21 -3 -27 0
-3 10 -30 -22 0
18 -15 17 -13 0
6 7 10 30 0
8 -24 23 -13 0
-13 -27 -21 24 0
-20 -9 -17 25 0
2 27 -9 16 0
27 10 -3 -19 0
-26 20 3 25 0
6 -30 -26 -19 0
11 26 -1 10 0
-12 -30 17 -5 0
18 -15 -26 -4 0
-5 27 -19 21 0
-7 -18 28 27 0
-11 -2 -20 -5 0
-8 30 17 14 0
22 -13 -26 2 0
18 30 -17 -22 0
-13 16 -3 2 0
28 -10 29 30 0
16 18 6 -25 0
-5 3 12 -6 0
-16 6 12 30 0
-26 2 5 -25 0
-3 -11 24 8 0
14 20 12 -9 0
27 17 23 18 0
-16 7 25 20 0
-1 25 15 28 0
13 14 27 -3 0
20 -25 22 -14 0
-26 23 -11 -1 0
27 16 5 -18 0
-11 -26 25 -5 0
10 -9 29 20 0
5 -23 -18 19 0
-23 -25 28 13 0
-21 22 8 19 0
8 -20 10 -9 0
-30 2 -14 -7 0
20 -25 -5 10 0
11 22 29 -10 0
-22 -16 -10 19 0
21 22 5 16 0
-22 -20 -5 23 0
-23 14 3 -20 0
-28 -30 -3 -5 0
-22 30 7 -23 0
28 -24 29 4 0
8 -20 18 5 0
-3 19 -7 17 0
1 13 22 -25 0
10 20 -2 6 0
17 -14 22 8 0
30 14 -11 -17 0
20 2 -11 1 0
-6 -14 -2 7 0
27 -23 1 -30 0
21 6 2 -18 0
12 27 -7 25 0
18 26 -3 -2 0
-15 -18 5 -16 0
-6 11 22 -17 0
-23 -7 10 -1 0
-10 -13 -8 17 0
16 30 -13 27 0
1 -11 -5 -20 0
25 -5 -19 -9 0
6 3 -9 -11 0
-3 5 27 -26 0
-16 26 30 -18 0
-10 -1 -27 -21 0
30 5 28 -18 0
22 24 -1 20 0
-28 -16 -20 5 0
-17 19 -4 14 0
-23 19 7 9 0
25 5 -20 22 0
28 -27 13 -25 0
-5 -10 21 -12 0
29 -26 13 18 0
-6 -29 4 -30 0
18 -1 12 -2 0
9 -15 -4 13 0
5 24 -16 11 0
-28 11 -21 26 0
23 -25 17 -8 0
-9 7 5 18 0
4 -22 -3 -26 0
-10 5 -16 27 0
9 -2 -15 7 0
12 -10 3 13 0
-1 -28 -29 -25 0
-5 24 30 -25 0
-14 13 6 3 0
-27 18 5 -28 0
28 25 -10 -27 0
-29 -25 -27 -7 0
-23 27 17 12 0
-29 18 -20 4 0
28 13 -27 -18 0
20 25 9 19 0
25 30 -6 11 0
26 -23 10 16 0
-22 7 -24 25 0
3 -17 -11 4 0
12 15 19 3 0
-19 -6 -12 14 0
17 -19 -3 26 0
-9 -11 -27 17 0
17 28 -22 -19 0
-18 6 -19 20 0
18 11 2 -28 0
-15 5 -22 27 0
-24 -15 -18 28 0
-14 -26 -21 -8 0
-3 20 11 1 0
21 -9 11 29 0
16 -21 -3 15 0
-12 17 19 27 0
-27 -23 -4 26 0
5 -3 24 -22 0
-1 -15 29 -6 0
29 -21 6 -19 0
16 -23 17 -13 0
14 24 -15 -8 0
7 28 1 4 0
-2 -24 -8 -15 0
-5 -14 -4 -17 0
-1 25 26 28 0
1 4 17 30 0
-15 5 20 9 0
-17 -12 6 27 0
10 20 -29 19 0
7 -15 5 -21 0
16 -11 -21 -27 0
-4 14 -18 -30 0
24 14 -19 -10 0
-14 -21 -7 -20 0
-14 26 -22 20 0
21 8 -11 14 0
-28 -25 -19 -15 0
15 -5 -8 -23 0
20 6 -5 2 0
30 1 -22 20 0
-17 18 -15 -12 0
-21 -16 -20 -8 0
14 17 -23 13 0
14 15 -19 -30 0
7 6 10 14 0
-2 29 16 -28 0
-11 3 18 -12 0
25 -1 -7 -20 0
24 -29 -28 -14 0
-1 -22 -9 11 0
10 -15 -5 -20 0
-23 -21 -15 5 0
29 23 -13 15 0
9 -28 10 13 0
23 -18 -26 8 0
1 4 3 -2 0
-19 7 -3 25 0
-8 18 17 12 0
-11 3 6 -1 0
6 11 -8 -7 0
16 18 20 10 0
-3 -14 18 5 0
-27 2 -14 12 0
26 -9 -21 4 0
-7 -14 -26 6 0
17 -3 8 7 0
-14 10 -15 27 0
-10 5 -28 -29 0
-21 18 -16 6 0
-24 -18 12 16 0
-24 26 -15 -23 0
3 -4 22 14 0
-28 8 17 -10 0
-16 7 -19 12 0
-20 27 -4 -28 0
13 -16 -10 -20 0
-4 -11 5 -16 0
7 -13 3 -8 0
-2 -1 18 -5 0
-15 30 -29 -7 0
-26 -25 14 -3 0
7 10 2 -18 0
-3 28 -6 17 0
29 -25 -5 9 0
20 -5 -25 -13 0
-3 -16 1 -29 0
2 23 -1 5 0
22 14 30 -20 0
16 -6 -21 3 0
-13 -19 14 -5 0
-29 3 23 6 0
-4 -10 -23 -2 0
23 18 30 -4 0
-11 -20 6 30 0
15 -19 -23 27 0
10 -5 25 -13 0
-13 -5 -14 12 0
-9 -4 -21 29 0
-10 30 27 -5 0
2 -3 -11 16 0
-5 20 -16 26 0
-27 21 12 24 0
29 26 4 -9 0
11 23 -29 -21 0
-3 -29 2 -11 0
7 24 20 -18 0
26 -22 5 25 0
-27 -15 -7 -24 0
-3 -23 -24 -13 0
-7 -11 -12 -10 0
-15 27 2 -21 0
13 27 -23 -2 0
-25 -20 28 -12 0
-30 -7 -2 15 0
-4 -8 21 1 0
5 26 -2 -30 0
29 -10 -16 19 0
-30 -22 -10 -6 0
-4 2 30 -21 0
30 -16 2 1 0
-27 29 -15 30 0
8 27 -9 10 0
-9 -25 -5 11 0
16 -27 -13 -10 0
3 -25 2 -19 0
-21 27 -26 7 0
-25 -8 1 -24 0
-27 22 23 -24 0
5 -6 18 -21 0
-2 27 7 9 0
-23 -12 -18 -10 0
-6 17 -24 -20 0
-20 13 6 -30 0
26 -30 -2 7 0
6 -28 -30 -16 0
-6 -14 29 17 0
22 -12 -4 8 0
-8 -10 -19 -1 0
-7 -9 -27 2 0
-2 17 9 -25 0
19 -13 -29 -26 0
27 14 13 18 0
-3 -16 4 20 0
7 5 18 -23 0
27 17 -2 16 0
15 6 -18 11 0
1 12 30 19 0
-10 8 3 14 0
-12 -21 16 -7 0
30 7 21 -4 0
-25 -4 -9 -3 0
15 3 -9 -10 0
-23 20 -6 -17 0
4 -19 14 -18 0
-20 -9 14 13 0
27 18 4 -12 0
