c family=4-SAT n=30 instance=1 seed=726001144 models=10
c order 16 30 13 24 6 7 25 14 12 21 8 19 2 3 17 26 29 23 11 1 10 22 9 15 28 20 27 18 5 4
c order 30 10 2 17 12 6 28 11 5 8 27 18 22 16 7 14 15 1 19 26 21 23 25 3 4 29 13 24 9 20
c order 3 2 9 25 23 17 21 12 7 4 14 15 13 8 26 5 16 6 18 28 30 24 29 1 10 27 22 20 11 19
c order 13 16 23 28 25 7 30 8 19 9 3 17 14 5 27 1 4 2 6 29 12 26 11 21 15 24 10 18 22 20
c order 14 20 2 8 18 22 3 28 24 9 17 11 21 23 6 26 10 29 13 4 16 5 1 27 15 19 12 7 30 25
c order 11 10 13 21 15 12 20 5 7 26 29 8 4 1 25 14 23 28 18 6 2 19 9 16 24 22 27 17 3 30
c order 17 12 30 8 22 20 27 7 19 23 3 2 1 16 5 4 24 18 26 15 11 29 13 10 28 14 6 9 25 21
c order 11 22 23 4 27 21 3 10 30 26 19 25 5 7 16 28 15 24 8 2 1 13 20 12 6 29 17 14 18 9
c order 26 20 21 16 4 10 22 9 18 7 1 5 11 23 2 6 24 27 17 19 29 30 13 12 28 8 3 25 14 15
c order 10 21 3 14 26 29 8 22 18 24 4 2 16 28 27 17 11 19 12 20 7 15 6 25 1 5 13 9 30 23
p cnf 30 288
11 6 23 19 0
2 -13 -6 -14 0
-13 8 12 -7 0
-8 27 -20 -9 0
21 -6 -2 27 0
7 -1 16 -2 0
9 25 -16 -7 0
25 -16 -18 23 0
-24 -9 4 1 0
-24 30 1 -14 0
4 7 -30 -26 0
-25 13 -4 -10 0
21 -17 13 -28 0
-16 -29 26 15 0
5 -9 18 16 0
-25 -10 11 8 0
-14 9 15 18 0
29 -22 20 11 0
-15 2 27 5 0
26 5 19 11 0
-17 21 -18 -19 0
3 -7 -26 -14 0
4 1 12 -16 0
-13 -12 18 -19 0
4 -30 13 8 0
-13 15 27 -28 0
-9 11 10 17 0
-2 -14 10 12 0
-20 14 8 -30 0
13 4 -10 -20 0
20 9 2 -6 0
17 -24 -11 22 0
-6 -27 -20 -12 0
-2 17 29 -13 0
-7 17 -26 8 0
18 14 10 -13 0
-23 20 1 -24 0
-8 -5 -13 -4 0
-14 -28 -1 19 0
-4 9 -2 17 0
-24 -22 -17 -27 0
-27 9 21 4 0
3 2 -17 -7 0
-4 19 -24 -18 0
-10 -26 -18 -13 0
-26 9 7 -1 0
26 -19 18 -24 0
-1 24 -8 -18 0
-10 29 26 -17 0
28 15 -6 -11 0
-20 8 28 21 0
-22 1 -30 -3 0
-7 -16 20 -2 0
4 -5 26 -9 0
-7 -13 8 -2 0
3 25 -4 -7 0
-4 -13 3 28 0
10 -27 -8 -4 0
3 -12 8 21 0
27 -16 20 -4 0
-12 23 19 5 0
28 -21 5 11 0
-25 21 -2 19 0
-29 28 -9 -13 0
-29 19 17 -3 0
-29 22 -17 12 0
15 5 -22 9 0
-14 22 -1 -5 0
23 2 20 -5 0
-18 -26 -25 -13 0
25 3 -30 14 0
-29 -21 -8 1 0
-14 -10 -25 16 0
10 23 -6 19 0
-26 3 4 23 0
-2 -10 -13 5 0
7 10 -12 -26 0
-8 -18 7 -21 0
7 11 -18 -24 0
6 -1 18 -20 0
-11 -29 -10 26 0
-15 1 30 -17 0
11 -22 -1 -14 0
19 -17 -3 -22 0
27 1 25 -23 0
21 -30 16 -19 0
-26 -12 20 9 0
-23 26 21 7 0
-10 -18 -7 -23 0
7 23 -6 16 0
-21 6 -13 18 0
-5 12 -1 18 0
8 -1 -16 -13 0
-2 -15 5 -30 0
-4 -7 14 -1 0
17 -1 -9 -23 0
28 -18 21 22 0
14 8 -25 -26 0
-1 18 9 19 0
28 6 -23 -24 0
15 23 1 27 0
25 24 17 -23 0
-2 3 -12 -19 0
-16 -29 -28 14 0
-15 -4 23 7 0
-16 15 25 26 0
-23 -15 -26 13 0
-20 -28 9 12 0
8 -30 -7 9 0
8 20 -15 -7 0
29 30 7 22 0
12 8 9 -27 0
-5 -13 -19 27 0
-30 23 -24 -4 0
-12 7 25 4 0
19 23 16 17 0
13 -1 -4 5 0
-26 -24 30 -23 0
-25 17 19 -18 0
-2 11 23 24 0
6 12 24 -25 0
-11 -30 -29 -26 0
3 19 -16 -22 0
-3 22 30 -7 0
-5 -24 -22 30 0
25 -29 -11 9 0
18 30 15 24 0
28 30 -24 15 0
6 -7 -17 -1 0
5 -22 -24 29 0
-22 21 17 -10 0
18 17 13 -3 0
17 30 -22 16 0
5 -23 -7 -25 0
-9 -27 -19 7 0
25 5 28 22 0
29 7 -6 27 0
26 -27 -28 30 0
17 -15 -16 -12 0
10 -17 20 -24 0
9 -5 -6 -30 0
-9 16 3 -17 0
-17 -13 4 26 0
9 26 30 -8 0
-23 -15 -25 -21 0
23 4 -10 -7 0
-3 28 27 -24 0
11 -6 4 25 0
-28 -6 -24 -29 0
-9 -29 12 26 0
15 19 -6 -8 0
-25 -17 13 -22 0
-1 30 -10 20 0
29 26 -24 -8 0
2 -17 -4 22 0
-16 30 24 -8 0
23 24 4 -20 0
29 3 -13 -5 0
4 29 7 -27 0
1 -11 29 -27 0
14 -30 15 3 0
-3 14 27 1 0
-19 17 -21 26 0
-4 17 18 7 0
26 -28 7 27 0
-4 -14 15 12 0
4 21 -14 25 0
24 -27 -30 21 0
-2 11 30 20 0
-23 -15 6 28 0
-13 4 -25 -6 0
27 7 -13 9 0
-13 -4 21 11 0
-23 27 -7 17 0
6 5 -1 -26 0
-16 12 -30 9 0
25 -4 -19 29 0
27 -8 24 -18 0
21 -23 -5 -11 0
13 -28 -23 -27 0
18 -24 5 -16 0
-5 16 -12 -22 0
-14 1 -10 17 0
-8 1 -11 17 0
14 10 -15 21 0
1 11 9 3 0
13 -14 1 -3 0
-1 27 24 -12 0
20 -23 -16 27 0
-12 21 16 -13 0
-26 2 -12 -28 0
-2 -27 7 -17 0
1 19 -21 7 0
-14 27 3 -15 0
30 -14 2 15 0
16 -2 3 -21 0
-24 -14 -1 3 0
-23 1 21 -3 0
12 -24 3 2 0
20 -11 16 -1 0
21 22 -6 -23 0
-6 3 10 12 0
20 23 -4 -11 0
18 -28 -3 4 0
-6 -23 -26 -3 0
20 -29 22 26 0
-26 11 -22 -6 0
-9 -5 -19 21 0
-14 16 23 -11 0
13 -19 28 -7 0
-1 14 -19 -26 0
-24 10 11 6 0
-13 21 -20 -6 0
20 -14 -28 26 0
11 7 28 -5 0
7 6 -1 5 0
19 -27 -4 30 0
17 4 -24 -3 0
-24 -12 -21 14 0
-11 -3 24 4 0
-13 -16 -2 28 0
2 4 27 30 0
-10 -23 6 20 0
16 -4 -3 1 0
-24 14 -11 5 0
21 -14 9 7 0
18 -21 -9 -30 0
20 9 -28 -8 0
-19 -24 -23 -13 0
-3 24 -1 -6 0
2 -17 -22 -1 0
22 -1 17 -16 0
8 -26 -17 -21 0
8 12 -3 -9 0
30 13 10 -25 0
-4 21 -24 22 0
-5 24 -20 -7 0
4 24 -7 -16 0
21 13 -19 25 0
7 4 10 2 0
-17 -9 26 -13 0
9 -6 30 20 0
-21 1 17 -24 0
-17 7 27 10 0
6 27 -22 8 0
3 -15 -7 9 0
-20 14 -19 -5 0
-29 -23 10 -21 0
25 26 11 -15 0
-14 8 16 -17 0
3 -1 19 26 0
10 -12 -5 8 0
-27 -20 -15 -19 0
-21 18 -17 3 0
-19 14 29 -7 0
-17 -13 4 -5 0
25 14 -3 -18 0
-2 25 -21 -6 0
10 -6 -17 18 0
-24 30 26 8 0
20 -10 -14 -17 0
-29 -5 19 -9 0
-10 6 29 -15 0
3 16 -21 17 0
10 -2 7 23 0
-4 -5 16 17 0
2 -8 -26 -20 0
28 -25 15 -11 0
-8 -21 1 7 0
-3 10 -4 16 0
-21 -3 -6 -7 0
-22 15 11 17 0
5 1 -4 -30 0
16 30 13 -20 0
17 25 12 11 0
20 -13 -3 -14 0
-5 -15 4 30 0
-22 6 10 21 0
-13 22 -5 18 0
-9 -3 -26 -24 0
11 -12 -9 -3 0
3 -19 22 -14 0
-18 16 23 -8 0
16 27 11 -15 0
15 -27 -26 -28 0
-1 11 -30 14 0
-11 30 -5 -16 0
-16 -18 25 13 0
