c family=4-SAT n=30 instance=8 seed=726001144 models=31
c order 13 5 6 8 7 4 27 2 15 16 23 18 25 19 10 12 1 14 28 9 17 22 21 24 20 3 11 26 30 29
c order 1 19 4 3 5 23 27 28 12 8 17 24 20 18 6 10 22 21 30 11 9 25 26 14 15 13 29 16 2 7
c order 7 17 25 22 20 10 15 23 11 24 27 6 4 12 14 1 5 29 28 16 26 2 13 18 3 9 21 30 8 19
c order 25 14 24 5 11 15 13 18 10 6 29 4 28 3 26 2 20 12 27 23 19 9 8 1 16 17 21 30 7 22
c order 30 6 28 29 4 26 19 1 20 25 22 12 11 16 15 27 8 5 24 10 3 21 17 18 13 14 7 9 2 23
c order 4 10 18 3 27 11 1 22 17 30 16 6 7 8 23 25 14 13 9 12 21 20 24 26 29 19 5 28 15 2
c order 1 23 13 24 26 15 17 14 4 19 2 25 5 3 12 27 16 9 10 18 30 29 20 8 22 11 7 21 28 6
c order 16 15 25 6 19 11 23 3 2 10 12 5 21 1 13 22 26 27 9 20 8 18 24 14 17 29 4 7 30 28
c order 28 29 8 30 27 11 26 14 24 15 3 13 4 19 7 2 1 22 23 20 6 16 12 9 5 10 17 21 18 25
c order 21 28 5 24 16 29 3 18 19 25 15 14 20 8 22 7 2 13 17 10 1 30 4 11 9 26 27 12 6 23
p cnf 30 288
-19 -13 15 4 0
-2 -6 17 -29 0
-24 -27 20 2 0
-10 12 15 -28 0
-4 30 24 5 0
2 5 25 21 0
22 15 13 -5 0
-28 -7 1 -14 0
8 15 19 29 0
-11 28 -17 27 0
4 -16 -28 -6 0
-17 -23 25 -18 0
-21 16 29 -24 0
6 -7 -18 -9 0
15 17 29 -24 0
13 -5 -10 -20 0
4 17 -30 20 0
25 19 -24 -27 0
17 27 -1 12 0
20 14 -2 17 0
-9 -27 15 -6 0
-23 19 -12 20 0
30 8 28 -21 0
-10 1 12 -3 0
9 24 -19 7 0
-28 -5 30 17 0
-29 -16 -28 12 0
12 -11 19 -7 0
-3 15 -17 7 0
1 -16 -18 -26 0
1 -2 -25 28 0
13 -10 23 -11 0
-8 17 -15 9 0
-17 -11 2 23 0
-9 -16 4 28 0
-13 -19 -29 -3 0
30 -17 27 -15 0
7 -22 24 -14 0
1 30 13 17 0
19 -16 -1 13 0
-22 -8 -29 25 0
16 -6 13 1 0
21 -13 4 -16 0
26 22 16 20 0
9 -29 7 -2 0
6 27 -4 -25 0
-15 -3 5 -18 0
22 19 -26 8 0
5 25 -18 10 0
19 13 22 28 0
9 19 1 14 0
-5 22 -3 -10 0
29 -17 -11 -20 0
-20 -1 16 -29 0
26 -2 28 5 0
14 9 -17 3 0
27 -6 23 8 0
-1 24 -3 -21 0
-13 8 -5 3 0
-4 -23 2 25 0
24 -10 8 15 0
4 -9 20 -22 0
-12 -13 3 26 0
10 -2 14 -22 0
26 -20 16 -21 0
25 -18 5 -30 0
-14 19 7 -10 0
-13 30 22 -1 0
-10 -24 -22 14 0
-3 12 -27 -14 0
-9 18 29 16 0
12 -10 11 -30 0
-27 21 -23 10 0
25 10 3 -2 0
10 27 -28 19 0
-14 -5 -12 -28 0
23 -4 28 -6 0
-17 15 6 18 0
15 -29 -2 -13 0
14 -5 10 -12 0
1 -21 25 29 0
-25 -19 -4 -30 0
21 -6 9 29 0
4 -15 -1 -25 0
23 18 -29 -6 0
-10 11 29 18 0
4 -14 -11 25 0
-15 17 -29 -1 0
1 -3 -7 -24 0
-24 -5 28 -7 0
17 -21 19 -24 0
11 -22 9 19 0
-17 14 18 1 0
-22 7 -25 -23 0
-16 -4 11 -29 0
16 3 -25 6 0
-6 -1 13 -29 0
-28 -26 -13 -25 0
-16 28 23 -27 0
27 9 15 18 0
24 23 3 -2 0
-2 -10 -16 -6 0
26 -16 21 28 0
17 -12 21 26 0
-18 2 8 -22 0
19 -8 12 21 0
30 25 23 6 0
8 29 21 13 0
6 -23 8 -19 0
-8 1 -6 -16 0
1 -9 14 -11 0
10 16 17 14 0
-9 -25 1 19 0
-21 -20 -7 23 0
5 19 -25 16 0
12 19 17 9 0
-28 -11 24 25 0
-22 1 18 23 0
-16 -8 9 23 0
4 24 21 -1 0
-17 -20 2 -9 0
7 11 -6 26 0
-9 -14 -24 11 0
7 -4 -27 -23 0
-2 -20 26 -12 0
-13 -16 14 -18 0
25 23 30 -16 0
-25 -22 14 -9 0
26 -29 -5 20 0
-19 -17 13 16 0
-23 -25 -14 10 0
-7 28 -2 10 0
24 -30 15 19 0
-15 -7 -23 21 0
27 -22 -17 6 0
-30 11 -21 -24 0
6 -17 14 -15 0
20 27 17 -4 0
-1 19 18 6 0
25 11 -30 -14 0
23 19 -9 -24 0
17 -6 22 -3 0
-13 -8 24 -2 0
16 21 6 4 0
-28 17 26 16 0
4 -18 25 -17 0
-25 26 -23 16 0
-24 -20 1 -27 0
5 -29 3 -10 0
-6 -19 3 28 0
-17 -20 -26 27 0
-22 25 -16 24 0
1 2 -3 16 0
26 -4 -1 29 0
-11 -7 17 -19 0
7 -19 1 -10 0
3 -10 -2 -29 0
-18 3 -21 -20 0
30 20 23 8 0
-11 28 23 -4 0
26 -12 9 -10 0
-26 -8 1 -9 0
12 28 -14 -1 0
-17 6 -11 -19 0
-28 1 -17 -23 0
-20 3 19 -29 0
-27 30 19 4 0
-28 -2 1 -18 0
-28 14 -1 29 0
4 22 23 -9 0
18 29 -26 -19 0
29 1 3 27 0
6 -13 9 4 0
-12 -5 -23 11 0
-7 -13 -4 -5 0
-28 -9 -23 -10 0
30 -13 -10 -17 0
-9 -29 -22 -15 0
-17 -19 -24 4 0
28 -26 -9 -22 0
-3 24 22 -7 0
25 7 -3 -6 0
8 18 2 -24 0
20 23 19 3 0
5 3 27 -22 0
-22 15 30 16 0
23 25 -10 15 0
23 -30 17 22 0
30 3 11 24 0
-12 28 -4 7 0
30 9 -21 -2 0
-6 -23 8 21 0
21 -3 28 19 0
23 8 10 -5 0
22 -13 14 28 0
-24 -11 16 8 0
2 25 3 -21 0
3 15 -8 25 0
21 4 20 11 0
23 22 4 -1 0
24 8 25 -17 0
13 -6 4 28 0
13 25 15 -10 0
-17 15 -14 -20 0
9 -21 -22 -12 0
17 26 -12 7 0
-1 -4 9 -18 0
-25 23 -28 27 0
2 28 20 -4 0
-2 24 8 -20 0
-24 -7 17 2 0
17 27 7 9 0
-21 10 -11 26 0
-8 -13 -14 21 0
26 13 2 -12 0
-11 -15 12 30 0
-17 16 -21 -29 0
15 6 -28 -10 0
-4 -22 19 -17 0
30 -19 -4 28 0
12 -28 -2 -7 0
19 -7 -2 14 0
20 -17 30 -1 0
1 20 22 -12 0
-7 17 6 -24 0
14 -30 16 -2 0
24 14 -11 8 0
-21 26 3 -13 0
-6 -27 15 25 0
18 13 6 12 0
-2 19 14 7 0
-4 -28 8 15 0
12 18 27 -1 0
5 26 10 -7 0
-18 -20 -21 -4 0
-19 16 21 -9 0
-30 -12 -19 -21 0
8 20 26 11 0
-9 23 -22 20 0
-9 19 -14 7 0
-7 -21 -24 28 0
-7 8 -1 13 0
-17 10 -9 -14 0
-18 28 13 26 0
-27 29 -7 -19 0
8 -7 -2 10 0
17 3 -26 2 0
-15 -18 -25 -7 0
-29 8 10 17 0
-30 13 21 28 0
26 -28 -21 13 0
12 -28 -11 6 0
-20 -24 -6 -16 0
14 -3 30 -9 0
-9 -6 5 -23 0
-26 -14 1 -18 0
-5 -16 -21 2 0
-26 19 -6 -9 0
12 -2 -3 -26 0
-4 -28 14 -24 0
-11 2 -4 -23 0
-27 -11 -10 9 0
1 -8 -14 -12 0
-8 29 26 -22 0
1 -5 16 24 0
12 -19 23 4 0
-16 -17 -6 -2 0
4 -3 -6 -20 0
20 23 15 29 0
1 -29 -30 19 0
-21 -14 9 -4 0
2 -27 -29 24 0
-15 -19 -13 1 0
-8 -20 24 17 0
8 27 6 9 0
-28 -19 17 -16 0
26 3 29 -9 0
-13 -21 -5 -26 0
-9 -6 22 14 0
-16 -28 -23 10 0
10 -18 -22 29 0
-18 -7 -22 -25 0
-11 -22 -20 -18 0
24 -21 29 20 0
4 5 19 -21 0
-13 11 -23 16 0
23 -3 -22 -12 0
6 -22 -20 -3 0
