c family=4-SAT n=30 instance=5 seed=726001144 models=3
c order 10 12 29 7 8 6 16 11 21 26 19 5 15 23 9 4 1 14 30 17 24 22 20 28 3 25 27 18 13 2
c order 26 15 3 19 22 12 2 29 14 9 13 16 18 21 28 17 23 5 8 25 1 10 7 20 11 6 24 27 4 30
c order 21 13 3 26 15 14 10 28 6 23 17 7 1 11 20 2 19 8 29 18 22 27 4 12 25 5 16 9 24 30
c order 25 17 6 27 30 10 18 28 9 1 19 13 15 12 24 23 14 22 7 3 2 4 26 20 5 11 16 8 21 29
c order 9 26 13 4 19 24 2 12 18 17 16 28 5 29 20 8 21 15 1 11 7 14 27 10 30 25 22 3 6 23
c order 4 12 18 7 3 5 16 11 25 27 10 14 17 6 2 29 9 22 15 23 26 20 21 19 8 24 30 13 1 28
c order 25 1 21 2 12 20 22 6 4 15 14 30 8 5 9 13 16 29 7 11 28 17 18 27 3 10 23 19 26 24
c order 12 27 14 8 19 25 28 24 5 15 11 16 1 6 18 29 30 7 20 10 26 2 4 17 23 22 9 13 21 3
c order 14 1 24 7 4 11 20 23 29 3 16 28 9 12 2 17 8 25 13 21 5 18 10 15 22 30 27 26 19 6
c order 18 7 2 27 3 17 20 19 28 23 10 26 15 21 16 6 22 25 14 1 30 24 8 5 12 13 11 29 4 9
p cnf 30 288
28 -3 -12 5 0
6 8 21 27 0
11 7 -15 28 0
2 -16 14 25 0
-8 2 21 -7 0
-2 18 -12 15 0
14 -22 7 26 0
-23 -24 -18 -15 0
-29 4 -23 -9 0
-27 29 21 25 0
-24 17 -29 -18 0
10 -28 -20 21 0
-7 -20 -18 26 0
8 -6 -4 -18 0
-1 15 5 -11 0
-24 -18 -15 28 0
-24 3 22 -4 0
-1 19 8 25 0
-23 -25 2 -19 0
-4 -30 -17 -14 0
21 -19 -11 -10 0
-8 28 26 -13 0
7 19 -10 13 0
3 -18 7 8 0
8 15 -5 -17 0
1 6 17 -4 0
4 -15 -25 -27 0
-16 2 -8 -27 0
-4 -19 -23 2 0
11 -30 -12 -15 0
22 7 13 -28 0
-4 10 -24 -14 0
-19 17 15 -20 0
-11 15 -10 -6 0
22 9 -24 2 0
22 -10 2 -18 0
-21 -12 26 -15 0
-1 16 2 24 0
5 1 -21 -8 0
-28 -6 -23 -27 0
-15 9 -30 18 0
24 -14 -26 17 0
6 -14 12 8 0
30 -7 26 24 0
26 -28 -17 -27 0
-15 29 -24 -1 0
-28 15 -2 -11 0
12 -20 -27 18 0
5 16 21 -10 0
23 -30 -19 -18 0
-16 24 4 -26 0
28 -29 14 -15 0
13 3 12 25 0
17 14 29 -25 0
9 30 17 3 0
-5 24 25 23 0
10 -6 16 -12 0
22 -28 3 14 0
25 16 -28 10 0
27 17 -24 -20 0
24 -22 -8 6 0
20 29 -13 -28 0
5 22 -20 -15 0
-30 28 -12 -7 0
-21 14 -16 -29 0
28 -20 10 5 0
-18 5 -15 12 0
24 -1 -4 -12 0
11 26 -19 3 0
-15 24 17 13 0
-7 2 9 13 0
-9 29 20 14 0
-25 13 -11 17 0
-9 -25 -13 -24 0
17 7 -4 29 0
2 -13 -19 -5 0
-12 -20 13 2 0
13 30 -9 17 0
11 -17 3 22 0
-13 28 -15 24 0
3 30 20 13 0
24 3 21 -20 0
-25 -18 -22 -14 0
-18 8 -30 16 0
-16 10 1 2 0
15 28 3 -21 0
5 -16 15 -10 0
7 -19 11 -3 0
11 26 22 -28 0
17 -9 -23 4 0
-20 13 -6 -5 0
-5 30 8 18 0
11 -21 30 16 0
-16 27 -9 -20 0
11 14 -29 -24 0
16 -17 -30 13 0
-17 -5 9 26 0
-25 6 8 9 0
12 13 30 6 0
-12 -23 -19 8 0
-6 7 3 -1 0
-5 16 -15 10 0
-28 -5 13 22 0
25 12 -10 17 0
-25 -3 -23 7 0
9 -19 18 -2 0
24 2 11 15 0
10 -12 -16 7 0
7 -1 10 -23 0
24 -25 18 14 0
-21 -13 24 -25 0
29 12 -19 -20 0
-26 -13 -17 21 0
20 3 -6 11 0
13 -30 9 -11 0
23 6 17 -16 0
24 -15 -26 -3 0
-2 26 12 21 0
-10 6 -3 -11 0
-27 -6 15 -23 0
-16 -13 -19 3 0
-28 -3 -11 1 0
5 -23 1 6 0
21 -6 11 28 0
-8 -6 -3 -22 0
9 -26 22 5 0
-27 -9 -25 4 0
12 -14 -24 11 0
-11 3 6 15 0
29 11 -18 -27 0
-13 6 4 -26 0
20 29 14 25 0
1 25 15 -22 0
15 28 3 -5 0
18 -6 14 11 0
17 11 -27 -22 0
-27 -16 -1 3 0
18 25 24 23 0
1 25 -15 -7 0
17 -6 -13 -25 0
19 -7 -1 -26 0
-22 -9 -6 7 0
12 2 -16 -30 0
-30 24 4 -1 0
17 9 2 -13 0
-25 -1 26 -13 0
6 -9 -5 -4 0
8 7 4 10 0
13 -5 14 -19 0
-19 -30 22 -11 0
19 2 -28 24 0
5 8 23 2 0
-21 -12 -30 3 0
-28 18 -9 -4 0
18 2 -9 -16 0
24 -20 -8 17 0
-22 -1 -10 12 0
28 2 -19 14 0
2 11 15 -16 0
-11 -3 8 10 0
-6 -21 4 -29 0
15 -6 2 14 0
23 1 -11 -17 0
25 20 28 -17 0
18 -29 -22 -25 0
12 -2 -4 -10 0
-14 25 -21 12 0
-28 -7 -15 -8 0
30 14 10 17 0
5 -12 -3 27 0
10 -2 28 -16 0
20 -9 -24 5 0
30 4 9 11 0
7 -2 24 -22 0
-14 26 8 1 0
-21 -30 17 8 0
22 5 8 30 0
-21 27 -7 -23 0
-22 -16 -4 10 0
-1 24 27 -9 0
9 -15 -24 -25 0
20 11 -1 26 0
-16 24 5 -18 0
-1 25 5 -3 0
-12 11 7 -26 0
-28 -8 1 -19 0
3 -26 -9 -12 0
-1 17 -9 -8 0
-30 -21 7 11 0
-29 18 11 1 0
-11 26 -14 -20 0
-6 29 -25 -17 0
-29 7 -18 30 0
11 -2 -13 -6 0
-10 -4 -15 30 0
-12 23 3 -24 0
-30 -7 19 -2 0
17 12 20 3 0
2 4 -26 24 0
23 21 14 -7 0
-26 -15 3 30 0
22 -9 -1 21 0
6 -5 23 -7 0
6 22 -29 23 0
-17 -13 12 27 0
11 16 -22 28 0
9 -19 24 -3 0
27 -9 21 13 0
16 -29 -30 10 0
-2 29 16 8 0
-30 18 -29 -25 0
17 -12 15 22 0
-12 3 -5 25 0
-14 -4 -9 10 0
-29 -7 -4 2 0
-23 2 19 8 0
27 2 -4 9 0
3 -27 11 1 0
-11 24 -23 19 0
6 -16 -7 17 0
-2 9 -28 -16 0
-29 18 25 -12 0
-16 10 11 -27 0
-10 30 -7 23 0
23 -29 21 -15 0
-2 24 15 17 0
26 8 3 9 0
-3 18 30 12 0
-19 29 -18 16 0
4 7 -12 -1 0
23 -28 -7 -4 0
9 21 16 -6 0
-13 21 -3 17 0
-2 -30 -8 -4 0
-20 -22 8 16 0
-23 7 3 -2 0
-13 -30 -3 23 0
-24 -4 -11 -2 0
16 -14 -8 -27 0
7 29 -24 21 0
-10 -9 7 -18 0
-26 8 18 -14 0
-7 -17 -4 23 0
27 16 -20 1 0
7 3 -23 -25 0
-11 -13 -20 -14 0
30 -16 11 18 0
-22 28 -3 24 0
-24 -7 -26 -6 0
-25 -7 -17 16 0
-16 28 -24 -10 0
-27 12 1 -15 0
-6 -30 -21 15 0
-13 -27 21 -10 0
-6 -27 -25 16 0
-17 11 5 -10 0
-25 30 23 -2 0
4 8 30 5 0
21 9 -14 11 0
12 -19 5 27 0
15 -10 -21 29 0
29 14 16 6 0
3 -16 -9 -27 0
26 5 21 -10 0
-23 -10 22 -5 0
-27 10 -16 17 0
15 -27 13 22 0
-17 -10 -5 16 0
1 10 27 25 0
-22 -10 18 30 0
-25 23 -4 1 0
12 -13 -17 4 0
-12 -14 -29 -26 0
19 -22 26 -11 0
-10 2 -8 -17 0
30 27 1 -24 0
-8 -30 18 14 0
15 30 -11 -14 0
-19 5 -11 -4 0
27 17 12 -15 0
-11 14 -2 3 0
29 -19 24 -3 0
18 -26 25 2 0
15 13 7 6 0
5 -30 23 -28 0
15 -7 -17 26 0
-12 15 -14 26 0
-21 16 -5 13 0
