c family=4-SAT n=30 instance=0 seed=726001144 models=9
c order 6 16 27 28 21 12 29 19 9 7 8 15 23 30 1 14 24 10 5 25 18 26 22 2 20 13 17 11 4 3
c order 17 22 15 27 30 29 11 5 3 9 2 20 4 7 14 16 18 10 24 28 23 1 26 12 19 21 13 8 6 25
c order 8 12 13 21 29 1 9 6 27 19 2 28 10 5 20 4 15 3 11 17 22 23 14 24 26 25 30 7 18 16
c order 9 16 5 15 12 2 25 6 1 3 18 8 20 28 11 19 7 10 22 23 4 21 17 30 14 26 29 13 27 24
c order 18 16 5 30 20 25 13 10 6 17 4 1 11 21 24 26 12 23 15 19 29 7 8 14 22 9 27 2 3 28
c order 1 17 13 19 26 18 24 30 28 16 11 10 8 21 9 4 23 12 25 7 20 3 2 6 15 27 5 14 29 22
c order 12 15 2 7 28 13 8 21 11 3 30 9 10 6 23 26 20 25 5 19 27 18 16 14 1 24 22 4 17 29
c order 19 16 26 4 13 14 21 24 6 1 5 10 29 17 12 15 20 25 27 9 7 3 8 2 22 18 30 28 23 11
c order 12 28 14 25 29 11 19 17 9 20 7 2 21 4 24 15 23 10 26 16 8 6 13 3 27 30 18 1 5 22
c order 3 9 5 2 19 27 13 22 26 17 4 14 28 11 23 30 29 8 24 6 15 18 21 20 7 25 12 16 1 10
p cnf 30 288
17 21 -4 -3 0
28 -16 1 -22 0
14 21 -4 28 0
11 9 18 28 0
20 -6 16 -11 0
21 7 1 28 0
4 -26 13 -9 0
27 26 -15 -29 0
5 19 26 -3 0
-22 29 27 30 0
-17 -9 30 -2 0
-19 24 5 -4 0
10 24 29 9 0
-11 -14 -13 1 0
2 -1 16 -23 0
6 20 -3 -24 0
-30 -17 2 -18 0
-14 1 -24 -28 0
-17 2 6 13 0
15 -30 26 14 0
26 -24 14 15 0
-5 2 -21 -24 0
19 -25 -9 11 0
-12 19 21 -18 0
18 23 22 -12 0
20 -30 15 25 0
14 -27 23 24 0
21 -20 7 12 0
-6 15 -10 -29 0
-1 -20 14 29 0
12 18 7 -5 0
-2 -14 24 6 0
18 -8 -2 -3 0
3 -2 -23 -26 0
-12 15 -21 3 0
21 -16 -23 30 0
-22 -15 -18 -23 0
-27 30 24 19 0
-17 -1 -12 24 0
3 16 -9 25 0
24 25 -7 -29 0
-4 -27 5 28 0
14 7 -26 16 0
5 -2 -23 20 0
20 30 24 -16 0
-23 2 5 -30 0
26 11 -8 2 0
-6 -17 10 -13 0
19 24 1 -11 0
28 13 -30 -21 0
6 -27 -28 17 0
-14 -27 8 15 0
-22 18 2 26 0
-5 -17 -4 -27 0
-12 -1 19 -16 0
26 6 3 -25 0
2 12 -13 -16 0
-30 13 -10 4 0
23 15 4 5 0
-30 14 8 -18 0
-30 -8 25 12 0
15 8 -5 22 0
-17 -4 -21 9 0
29 8 22 5 0
-14 -4 26 16 0
27 -18 -13 15 0
26 25 20 24 0
14 -30 -26 17 0
28 -16 27 -29 0
28 -5 -17 -7 0
-4 -3 29 -9 0
26 15 -3 -5 0
29 19 -24 -14 0
23 3 5 17 0
-29 -18 24 -17 0
7 -19 9 23 0
-12 -10 30 -4 0
-15 22 -26 16 0
13 17 10 9 0
-25 -11 -28 9 0
8 25 -12 22 0
-24 -1 -27 -20 0
27 -6 -8 22 0
-18 -26 15 -24 0
8 -27 -14 -7 0
9 17 28 -3 0
9 -15 1 14 0
-6 -13 -7 20 0
-12 7 -14 2 0
-18 -29 1 -23 0
-15 27 -16 -11 0
-24 16 1 -2 0
-18 -11 17 22 0
13 -22 24 -28 0
13 -18 -10 -9 0
-7 -9 22 3 0
-17 8 -2 -14 0
-5 10 30 25 0
5 7 12 -27 0
-30 -9 -21 26 0
-3 28 23 30 0
24 26 23 -28 0
23 -19 5 2 0
-27 -25 -15 3 0
-8 14 26 13 0
-26 14 -12 16 0
-15 11 -1 -19 0
-28 -4 19 -17 0
-18 -11 14 -13 0
-5 29 -23 -30 0
-13 -11 21 16 0
-22 15 -25 -10 0
-15 -11 -29 28 0
10 3 -13 29 0
17 -18 -3 -28 0
-17 -25 -30 -9 0
-26 -2 16 9 0
-13 -7 15 -1 0
5 26 -30 -9 0
-22 28 2 16 0
19 -28 6 24 0
14 -24 6 -23 0
20 -7 8 -13 0
3 -7 -2 17 0
23 -6 -22 -10 0
6 17 21 20 0
22 -12 6 -5 0
10 4 12 11 0
-19 10 18 -15 0
-6 18 -3 -14 0
-2 22 -26 23 0
-11 17 7 21 0
-29 -17 20 13 0
-24 5 7 -9 0
-29 10 -23 3 0
30 -29 -22 12 0
8 19 18 25 0
-28 -30 -3 7 0
-25 -12 3 -27 0
-7 11 1 25 0
-12 -1 -4 8 0
-7 10 -8 -4 0
-23 -10 25 13 0
28 -21 -19 23 0
15 26 29 -13 0
19 7 -21 -30 0
1 -27 -8 -9 0
-8 29 18 11 0
-15 -17 13 26 0
12 19 11 -17 0
-9 -11 -2 -10 0
-23 -25 -13 29 0
17 27 11 -2 0
-26 7 -2 -4 0
30 10 14 24 0
23 6 12 -5 0
14 -9 -5 28 0
8 -14 -2 -13 0
-28 -1 4 22 0
28 -27 -18 -17 0
-11 5 6 -26 0
-9 6 -28 -23 0
25 28 -18 17 0
2 -8 -1 -14 0
-30 -29 23 -9 0
4 -27 -1 8 0
-26 -21 -22 5 0
3 -12 25 15 0
-24 2 28 20 0
11 -23 -3 4 0
8 26 21 10 0
12 -27 3 -8 0
-29 20 -26 19 0
6 21 -10 -1 0
29 6 1 -16 0
10 6 8 29 0
5 27 -12 26 0
-8 -30 6 11 0
18 -29 -4 -15 0
2 -5 1 -23 0
-5 -23 -18 27 0
-29 -7 -19 -23 0
-3 24 18 21 0
-26 1 5 15 0
-29 -5 10 -4 0
-23 8 29 -27 0
2 11 17 9 0
-27 4 11 -12 0
12 -7 16 -17 0
-12 -11 29 10 0
-22 24 21 -11 0
23 -13 -2 6 0
10 -20 2 -24 0
-1 -25 -12 -8 0
9 -27 13 -8 0
-24 -14 25 22 0
29 -4 -14 3 0
-13 22 -5 10 0
18 -2 27 -28 0
11 7 17 -10 0
16 19 -14 -13 0
-10 29 -1 -7 0
22 -30 -6 14 0
7 -19 30 -1 0
11 -24 27 17 0
24 19 -22 -7 0
22 19 12 18 0
-21 25 -7 19 0
-18 3 -10 8 0
-24 6 -14 22 0
16 25 1 27 0
-8 -22 -28 -23 0
29 -1 -28 -17 0
-28 27 -2 -29 0
-29 16 -27 -8 0
-26 30 -29 -22 0
28 -25 21 19 0
-21 -30 -18 -29 0
-18 4 7 -27 0
-22 -29 -5 -17 0
-27 26 -4 -1 0
-10 5 -20 -14 0
23 21 19 -6 0
-1 -15 -16 -6 0
7 -2 -21 12 0
12 -4 15 22 0
-22 -3 1 11 0
-10 23 -8 -4 0
-3 30 -14 -8 0
-15 -22 -14 -1 0
30 -12 -3 16 0
4 -17 -18 -21 0
-25 19 13 -24 0
-21 -12 -26 -4 0
30 25 29 -27 0
28 5 8 11 0
1 -14 -26 -27 0
-26 -28 19 -1 0
-9 -3 -12 -25 0
-11 25 27 16 0
13 5 18 -26 0
-13 -6 29 -30 0
10 -5 16 14 0
-27 -24 -21 -11 0
29 -8 10 3 0
-29 12 2 -1 0
-26 12 3 -25 0
-3 4 22 6 0
-11 6 -23 -24 0
5 -3 -22 23 0
7 20 17 -19 0
4 14 -12 13 0
28 -26 10 -8 0
-9 6 -1 19 0
6 -25 26 -2 0
-16 -28 -5 -8 0
-17 -16 24 -13 0
-25 -10 20 -7 0
-12 -28 10 -8 0
-5 -26 -11 2 0
-28 27 14 -9 0
23 21 1 19 0
-11 -17 -20 -5 0
29 -18 15 9 0
-23 7 -3 -8 0
17 -2 26 -16 0
11 10 1 5 0
18 -13 12 11 0
-22 -7 26 3 0
24 21 -18 11 0
7 -22 -28 13 0
-13 -19 25 -18 0
27 -24 26 -11 0
-20 8 -30 -12 0
5 -25 -7 -20 0
8 1 -6 25 0
-5 26 -9 25 0
-15 11 1 20 0
-3 -22 -21 -6 0
-5 17 27 13 0
18 -12 24 22 0
26 -20 -28 -21 0
-23 19 -17 1 0
14 19 24 20 0
17 23 -20 -26 0
-8 -5 20 -2 0
-9 -10 -4 -28 0
7 23 -29 25 0
