c family=4-SAT n=30 instance=6 seed=726001144 models=10
c order 5 6 12 30 28 23 2 18 15 22 29 26 13 21 16 7 19 8 11 17 25 3 9 1 27 24 14 4 10 20
c order 17 25 12 30 21 22 10 11 23 9 7 15 28 27 16 6 1 3 18 5 24 26 8 20 13 29 14 19 4 2
c order 27 28 9 12 7 8 26 2 20 15 6 21 5 3 16 25 4 24 18 1 22 19 30 10 11 17 13 29 14 23
c order 17 1 27 20 3 4 5 13 11 28 2 25 30 12 14 19 15 18 10 26 21 16 9 6 29 22 24 7 23 8
c order 30 11 8 9 28 2 22 3 13 24 20 29 17 10 21 15 19 26 27 7 18 25 14 23 4 1 16 6 5 12
c order 23 10 19 3 12 25 2 4 15 30 14 24 16 21 28 9 13 6 26 18 20 11 5 8 7 27 29 22 1 17
c order 9 3 30 18 13 22 20 15 2 11 10 27 5 21 29 26 7 19 12 8 16 28 4 6 1 14 23 17 25 24
c order 17 24 16 29 12 3 14 30 28 11 15 4 7 18 6 13 10 21 26 19 23 20 27 5 9 1 25 8 2 22
c order 2 3 29 5 25 12 21 22 27 24 15 13 11 9 4 16 1 8 17 28 19 14 18 20 30 7 6 23 10 26
c order 29 11 23 12 24 22 26 27 6 15 30 2 21 20 7 13 5 17 18 16 10 25 28 1 9 4 3 19 8 14
p cnf 30 288
-8 13 -21 -7 0
-10 -7 20 6 0
-14 -13 12 2 0
25 -22 -24 15 0
-23 -21 30 -24 0
20 22 12 -17 0
26 14 2 1 0
11 -17 -24 14 0
-1 27 -11 4 0
2 18 19 4 0
-28 20 8 6 0
-11 -18 25 27 0
-22 23 -21 20 0
-10 -14 18 -4 0
24 18 -10 -12 0
-22 4 8 17 0
6 -25 9 -18 0
-28 22 -8 17 0
24 -7 -11 -8 0
20 -18 -11 30 0
27 -15 -21 13 0
-13 -14 -1 -10 0
30 -19 -1 20 0
21 -30 6 -8 0
-28 -11 15 -27 0
20 28 7 19 0
27 -9 8 -24 0
30 14 2 -5 0
17 -30 18 6 0
2 21 -19 17 0
-28 -1 -5 4 0
17 -18 -23 1 0
12 -7 -28 -13 0
8 -13 19 16 0
-2 30 -5 27 0
-28 -9 26 11 0
-28 26 27 17 0
-11 8 20 3 0
-5 -12 -22 -15 0
-19 -5 -21 -11 0
20 6 24 22 0
27 -1 -19 -17 0
3 -30 21 4 0
-15 18 -22 -28 0
27 9 -3 22 0
1 12 16 24 0
-10 21 -22 -12 0
27 20 -5 -10 0
22 -25 -24 8 0
8 28 17 16 0
-20 -26 18 12 0
-15 -1 -13 -14 0
-14 -19 -18 -7 0
-27 -18 6 -25 0
-23 14 13 24 0
25 -14 6 22 0
-14 25 -2 -10 0
-6 -27 -17 -30 0
13 28 -18 5 0
3 -28 7 14 0
15 2 26 -19 0
-20 17 -12 14 0
-9 -20 -22 21 0
19 -15 7 9 0
-14 9 -6 22 0
13 7 1 -5 0
24 8 10 4 0
-14 25 -28 29 0
-28 17 1 -4 0
4 28 24 26 0
13 -17 -21 -4 0
9 -18 -10 3 0
16 3 -5 -15 0
-13 2 6 -9 0
-9 28 -21 22 0
-23 15 -24 12 0
-20 -18 -27 -24 0
-20 -15 30 7 0
-22 20 -3 15 0
2 15 -28 10 0
9 28 -6 27 0
-9 -11 8 -21 0
-15 -24 -17 20 0
16 4 -9 -20 0
15 -30 -16 27 0
-23 4 7 -22 0
4 -7 -6 19 0
-14 10 23 -9 0
-14 -21 15 -8 0
11 -2 -25 -8 0
20 12 -9 8 0
-7 22 12 9 0
24 22 -3 18 0
-21 4 14 1 0
28 3 17 12 0
10 25 9 6 0
3 -21 5 -7 0
-28 -5 -1 -9 0
-23 -29 3 30 0
30 -28 -27 11 0
-12 10 30 9 0
13 -22 -30 -18 0
14 23 -27 -26 0
17 27 -3 16 0
24 30 -19 22 0
18 -29 6 1 0
-27 -7 -8 29 0
2 25 -28 15 0
-22 5 21 -27 0
-11 -10 -28 14 0
30 17 -16 18 0
26 -8 24 10 0
-1 30 23 7 0
-4 30 6 24 0
23 -13 11 1 0
-8 -27 7 22 0
-10 4 -15 -11 0
7 22 -25 -26 0
-15 -8 3 -5 0
-4 26 16 12 0
-14 -30 -5 27 0
17 -8 -2 -12 0
-18 -23 15 -25 0
7 26 20 -14 0
-15 -19 21 5 0
-5 -7 13 -2 0
-22 28 -18 -2 0
24 17 -28 -26 0
29 4 7 3 0
-2 19 -24 8 0
-29 4 -12 -22 0
25 16 27 18 0
-1 16 -18 23 0
-13 14 8 6 0
28 26 -30 4 0
-8 -5 15 11 0
24 -2 -12 26 0
24 5 -27 11 0
12 -23 -8 -25 0
25 19 22 13 0
-6 -18 25 4 0
26 6 -14 3 0
-12 23 30 10 0
2 3 30 -14 0
9 7 -26 -15 0
-21 19 -25 29 0
23 -7 26 27 0
-25 22 11 10 0
21 -11 -10 -8 0
-11 7 -22 -27 0
-30 7 23 -10 0
19 23 5 -27 0
19 10 2 -6 0
24 6 5 4 0
22 13 -5 -17 0
5 -2 23 -28 0
-12 2 -1 -23 0
-29 -20 -2 16 0
-19 21 -22 -8 0
4 -8 21 18 0
18 -1 -15 -24 0
-2 1 8 -12 0
-2 -5 -26 21 0
23 -29 13 17 0
-21 -9 -10 2 0
-5 -27 -29 -26 0
-18 -22 3 -26 0
-20 -9 12 -5 0
-10 -11 19 14 0
19 -8 -27 18 0
9 15 1 -19 0
-17 -2 9 -21 0
7 -26 -22 30 0
5 -2 25 18 0
-5 -25 -8 -7 0
10 9 12 28 0
-21 13 -16 9 0
12 14 7 15 0
-4 13 -17 -28 0
15 -5 -29 -20 0
3 20 8 -23 0
-27 23 13 18 0
-16 12 30 -4 0
-30 -20 7 -9 0
6 -23 26 -27 0
-16 25 30 12 0
18 -25 -28 23 0
-22 -24 -18 -6 0
-13 -17 9 -26 0
11 -26 -15 10 0
-11 18 22 4 0
23 -27 12 4 0
2 -19 22 -27 0
-21 -18 -23 -3 0
-30 11 -12 8 0
-21 -20 -4 6 0
25 8 19 -20 0
-19 -20 -30 14 0
19 4 -20 -24 0
-27 -23 -14 9 0
-22 23 8 30 0
30 -23 -4 -7 0
14 7 -17 1 0
13 20 -5 -6 0
-1 -18 -19 -5 0
5 -23 14 21 0
-13 8 -2 -9 0
14 16 -19 23 0
29 17 -11 -5 0
6 3 -25 -26 0
-19 -22 16 17 0
-23 5 29 -6 0
-5 2 -13 17 0
6 23 14 22 0
-9 11 22 -16 0
-6 21 -13 -27 0
-5 -29 -30 -26 0
-3 4 -26 6 0
-15 -14 -27 -29 0
2 -29 -26 10 0
26 13 -5 16 0
-26 -3 -12 -18 0
30 -7 2 1 0
-24 -27 -6 14 0
24 10 -16 -6 0
15 -24 30 26 0
26 -7 -18 28 0
-17 16 19 22 0
-14 1 -21 -9 0
-5 -27 -22 13 0
-7 10 2 8 0
22 -2 -10 30 0
29 -14 3 -10 0
-25 26 13 -11 0
-5 11 29 21 0
26 7 -25 8 0
-9 -19 -3 -21 0
7 -4 15 -3 0
-2 5 9 23 0
14 17 -10 -26 0
12 21 -20 -30 0
-22 -2 12 -17 0
-7 30 18 6 0
-20 8 4 27 0
6 -3 22 12 0
-15 -1 -27 30 0
-3 26 -10 7 0
16 -2 28 -23 0
-27 6 -8 22 0
-19 21 -11 -18 0
-4 29 -8 -25 0
14 -30 -2 13 0
-26 -4 11 23 0
-14 24 -22 9 0
-26 30 -12 -18 0
20 10 15 -9 0
24 14 20 9 0
-23 6 13 -20 0
22 26 -1 9 0
8 15 24 17 0
-16 -1 22 21 0
-7 29 10 23 0
20 -19 -12 10 0
-24 27 5 -15 0
-29 -4 -26 -14 0
23 1 18 20 0
21 20 24 -26 0
-25 -1 -11 24 0
12 -27 14 -15 0
-24 -26 6 2 0
10 30 23 -7 0
22 13 -9 -28 0
17 26 4 -1 0
13 2 6 4 0
-22 12 -2 -8 0
4 -25 20 -19 0
-30 -17 15 -4 0
29 -21 3 -23 0
-8 -7 -9 17 0
-7 14 15 27 0
7 30 -26 -19 0
2 25 9 15 0
16 27 2 -30 0
-18 30 -21 -24 0
-21 17 27 -14 0
-16 3 -15 -9 0
30 25 -2 5 0
30 10 -20 -13 0
