c family=4-SAT n=30 instance=3 seed=726001144 models=87
c order 10 15 23 19 8 13 24 20 7 16 30 18 28 2 6 21 22 17 29 27 4 11 14 5 26 9 1 3 12 25
c order 22 5 15 27 8 12 4 1 28 21 13 17 20 25 16 11 19 26 3 29 10 7 30 24 14 18 6 2 23 9
c order 3 29 8 14 11 5 16 12 21 17 2 25 27 22 4 30 15 6 24 26 28 20 19 18 10 23 9 1 13 7
c order 7 19 13 20 3 22 9 11 16 5 15 28 12 4 24 25 10 17 14 18 27 1 6 29 8 26 30 21 2 23
c order 7 30 28 21 11 17 9 14 25 5 26 29 19 12 22 4 13 1 23 16 10 20 27 3 24 6 18 2 8 15
c order 12 24 23 16 27 2 18 8 11 26 22 28 5 21 30 17 3 13 7 1 10 9 6 4 19 29 14 25 15 20
c order 9 24 7 17 18 19 1 22 8 20 29 2 4 23 11 16 5 21 3 27 13 14 30 25 10 28 12 6 26 15
c order 15 19 8 22 12 28 25 23 2 17 4 29 20 9 21 3 26 5 1 30 13 11 16 14 27 6 7 24 18 10
c order 5 17 15 23 4 20 3 29 8 10 30 22 24 13 28 11 21 9 6 27 19 26 2 14 1 12 25 18 16 7
c order 23 9 2 19 20 8 24 25 10 17 11 28 18 12 7 26 22 21 6 1 27 30 13 5 14 4 29 16 3 15
p cnf 30 288
-29 -26 -28 11 0
1 14 -10 -4 0
21 29 25 -8 0
-13 -12 -10 -3 0
9 -24 23 13 0
-1 -27 -7 8 0
29 -11 -2 -15 0
15 18 -3 -25 0
18 16 -4 -1 0
-26 -15 16 -2 0
-27 20 30 12 0
22 5 -26 30 0
12 5 20 8 0
-27 3 -4 -12 0
1 -7 -22 6 0
26 22 -11 6 0
3 12 -30 -4 0
2 -25 26 -15 0
-30 -18 29 1 0
-16 22 20 -4 0
24 11 -14 5 0
6 19 -17 28 0
12 -25 30 16 0
8 -12 20 11 0
4 16 25 1 0
24 9 -26 21 0
-15 -8 -3 -25 0
15 -25 30 -27 0
27 -22 30 13 0
-4 25 -10 -2 0
-1 4 -22 30 0
-30 20 7 -2 0
-26 -28 1 6 0
8 6 -5 -25 0
-5 30 24 -27 0
-4 -2 -15 17 0
22 -28 -14 -9 0
-7 19 -5 -3 0
7 10 21 -25 0
12 30 22 28 0
-18 29 -1 -27 0
30 22 25 11 0
16 2 -18 -27 0
-6 -1 -23 18 0
-26 -3 7 4 0
24 25 -15 29 0
-29 -22 4 -10 0
-9 30 -19 25 0
-21 -1 -24 -26 0
9 16 -3 -13 0
-26 -29 -25 12 0
-29 -7 5 -27 0
-9 -22 10 29 0
-25 -21 19 12 0
-14 26 -27 -16 0
27 22 -9 14 0
-30 3 24 23 0
-30 28 19 -2 0
11 19 -22 13 0
21 30 24 23 0
11 -5 -22 -12 0
14 -6 17 -9 0
-12 19 -11 -1 0
27 11 -20 3 0
24 7 -9 -11 0
-8 23 7 -5 0
21 30 29 20 0
-27 21 6 15 0
-7 27 2 -28 0
-30 -17 -16 6 0
-2 4 28 22 0
20 -4 -19 8 0
18 -23 7 -30 0
-27 -16 -17 -6 0
-22 -6 30 -28 0
-11 16 -21 5 0
-12 -13 15 -24 0
-6 -22 13 -15 0
24 -27 20 22 0
6 -5 26 20 0
21 -10 19 4 0
-19 -12 -4 30 0
-20 -3 -6 -13 0
20 4 24 -7 0
10 17 14 24 0
11 15 -19 -22 0
7 3 -30 28 0
-14 -23 -28 18 0
8 -15 -29 28 0
-23 20 30 10 0
-10 30 5 29 0
26 23 21 28 0
-24 12 10 22 0
-16 5 -22 20 0
29 21 10 25 0
-14 -25 12 22 0
2 -12 1 15 0
26 -23 13 24 0
1 -10 -27 17 0
-13 -8 14 -3 0
-15 -12 18 -4 0
24 15 14 -2 0
12 18 9 19 0
-5 -19 -14 -29 0
28 13 2 -24 0
-29 -19 -28 22 0
5 9 -26 2 0
5 -10 -28 -14 0
10 -12 22 -9 0
-1 20 -21 19 0
-18 -27 13 -19 0
-9 26 30 -2 0
-22 21 -16 -2 0
-24 -8 16 -26 0
-13 -26 -18 -7 0
-6 9 -5 -25 0
-19 -25 -28 -14 0
-14 30 15 9 0
-23 -19 -29 -7 0
19 23 24 -27 0
-3 16 -11 9 0
-30 -14 27 -2 0
14 19 12 -17 0
10 -12 28 -21 0
11 -1 12 23 0
-2 -27 30 20 0
16 -4 -26 -5 0
-18 16 -23 1 0
15 13 -21 -5 0
12 -29 27 30 0
-24 8 2 15 0
-21 -2 19 -7 0
-1 11 21 -23 0
18 -1 24 21 0
13 -2 26 -8 0
-26 -1 28 12 0
30 7 -25 -4 0
-27 16 -11 20 0
22 -13 -26 -30 0
-1 -19 15 -11 0
22 17 3 2 0
14 -25 -23 -26 0
-27 11 12 -8 0
-8 19 -3 21 0
12 -9 -20 11 0
-17 6 -14 22 0
9 6 -14 22 0
22 -25 -23 16 0
-2 -1 -30 13 0
26 -17 -18 -24 0
3 21 22 17 0
29 16 -30 -23 0
22 -13 -8 15 0
20 -7 22 19 0
14 23 -22 -17 0
-19 -5 30 1 0
-23 8 22 11 0
-4 30 22 -18 0
-19 8 -15 -5 0
-28 17 19 30 0
25 14 -18 -20 0
-27 2 30 10 0
-3 23 -30 13 0
-9 -26 -5 17 0
13 -15 28 -24 0
-24 17 6 -25 0
23 -4 -21 -22 0
-26 3 10 -28 0
-22 21 13 -26 0
-23 -26 -25 -2 0
-2 29 7 -22 0
1 -15 -26 3 0
-14 25 -8 -9 0
2 21 11 20 0
-9 -2 -5 -8 0
10 -2 -13 -23 0
-6 24 18 21 0
30 -23 10 3 0
12 -23 -2 -10 0
-28 -9 -29 -16 0
-6 1 17 -7 0
-2 -14 -28 -13 0
-8 7 26 -2 0
4 -12 -30 -26 0
21 12 28 -27 0
-27 24 29 21 0
-12 -15 20 -9 0
-18 -25 -10 3 0
-3 -13 26 -5 0
-5 -23 -18 9 0
8 25 1 -30 0
25 27 -8 -3 0
-28 -18 -4 -23 0
-15 19 -8 -26 0
-2 -24 23 -19 0
12 -20 15 21 0
11 -13 14 -23 0
-19 29 18 21 0
-6 -8 -23 -30 0
-17 18 -19 29 0
18 7 -3 30 0
-13 -3 -24 11 0
1 -30 2 15 0
11 4 -26 20 0
8 -30 -23 -19 0
-23 -20 -25 13 0
17 -9 14 -27 0
-13 3 9 5 0
16 -13 -29 -2 0
30 -27 -5 -14 0
20 23 9 -8 0
-8 13 -29 -14 0
-24 -13 -27 -9 0
-25 10 -22 -7 0
-13 -28 -2 -22 0
-1 -5 -9 -7 0
-1 -17 -4 -22 0
7 15 -28 30 0
-14 -11 -9 -29 0
12 6 -4 5 0
28 3 -22 -25 0
-28 -14 -5 1 0
-25 17 21 -9 0
11 -21 17 24 0
-2 -7 3 28 0
-28 -24 -12 -23 0
-4 5 -16 -26 0
-1 2 -12 -16 0
13 -17 -23 -21 0
-3 -13 16 27 0
-12 -24 26 -4 0
-7 -21 -26 23 0
-30 -29 -8 22 0
-11 -21 -12 -26 0
12 -23 -27 -4 0
27 8 14 -26 0
24 28 -2 11 0
-5 -22 -8 -15 0
24 1 15 -4 0
8 -25 26 -4 0
-17 28 18 26 0
-15 26 19 21 0
28 2 15 -13 0
-25 28 -7 -12 0
18 -26 30 -2 0
-8 -7 19 -3 0
-20 4 -8 30 0
-1 -18 27 19 0
18 3 13 26 0
-13 -28 23 4 0
21 10 -20 -14 0
18 16 -29 -3 0
5 -8 -2 -9 0
-26 19 -4 6 0
-29 -20 21 -15 0
8 6 -26 -23 0
-19 -30 20 25 0
-17 28 14 30 0
-3 -14 -9 -2 0
-18 -16 5 -20 0
-30 -3 -15 -19 0
-23 27 11 13 0
-5 -27 -22 21 0
5 26 2 21 0
-5 7 -27 20 0
9 27 -3 17 0
14 -19 22 29 0
-7 24 -26 8 0
-19 -25 17 -22 0
7 -15 24 -4 0
15 -2 -30 7 0
-18 -6 -12 -27 0
26 -24 -21 -29 0
-29 -13 -10 3 0
27 5 21 -20 0
25 22 19 -9 0
13 -10 -4 7 0
11 9 -5 -20 0
17 -3 16 12 0
-14 -21 -25 -10 0
7 18 17 -3 0
10 -7 5 14 0
-6 -10 2 20 0
-13 21 -26 1 0
29 -12 -4 7 0
-15 -24 -10 16 0
-8 16 29 28 0
-30 -12 22 5 0
