c family=4-SAT n=30 instance=4 seed=726001144 models=26
c order 17 26 30 5 23 14 8 16 9 20 10 27 15 2 28 7 11 29 13 21 22 6 19 25 12 4 24 18 3 1
c order 15 29 21 28 3 5 19 13 11 30 20 9 17 1 24 23 12 27 6 22 18 2 16 7 25 26 4 14 8 10
c order 22 24 17 16 28 4 18 5 6 25 30 19 2 20 13 11 23 21 10 29 14 27 7 3 9 1 26 12 8 15
c order 23 17 9 16 4 1 22 26 24 29 19 7 2 15 6 20 5 30 10 28 8 27 25 3 13 11 18 14 21 12
c order 18 14 3 16 13 9 27 17 23 22 12 19 25 26 15 7 1 6 30 10 29 2 28 20 4 11 24 5 21 8
c order 14 18 13 19 27 17 23 21 16 29 4 26 11 22 1 20 8 30 10 5 12 7 28 24 25 2 9 15 3 6
c order 30 17 20 8 23 3 16 24 4 12 14 13 19 26 27 25 10 2 9 6 28 11 21 15 7 22 18 5 29 1
c order 7 30 25 29 28 5 24 4 18 19 2 12 8 21 26 1 23 22 27 11 14 15 10 13 9 3 17 16 20 6
c order 19 3 23 17 30 5 25 21 15 14 11 1 6 24 18 27 20 8 12 4 28 7 16 9 22 10 13 2 29 26
c order 21 30 23 10 2 4 7 24 27 19 18 13 8 29 6 28 12 15 17 11 20 9 16 26 14 25 22 1 3 5
p cnf 30 288
-17 16 7 -24 0
26 22 -30 23 0
-28 14 6 -27 0
-9 -1 -29 21 0
26 7 -19 -8 0
13 21 1 25 0
28 -24 8 -12 0
5 -13 -29 -1 0
-28 -4 13 -10 0
28 -18 9 -2 0
28 -2 10 -25 0
-1 -10 3 8 0
5 -22 -6 30 0
-24 -18 -2 28 0
-22 -17 11 5 0
17 -22 -27 -30 0
19 -2 -12 22 0
5 16 -19 9 0
13 5 30 -23 0
-21 28 15 -22 0
19 15 28 14 0
-1 -23 -24 -16 0
-20 -9 -4 -11 0
-1 26 -20 25 0
2 10 29 -19 0
-21 -17 -26 9 0
29 -27 -15 -1 0
22 -15 25 2 0
9 19 25 -20 0
8 14 -16 -21 0
25 -7 17 -5 0
-23 -24 7 -20 0
-16 -22 20 18 0
-8 -6 9 1 0
-16 -24 19 5 0
1 10 -19 14 0
-13 18 -10 -12 0
-10 2 3 9 0
-7 18 -19 25 0
17 9 30 -21 0
-18 -8 -21 -29 0
-25 22 -30 -6 0
-28 15 27 -11 0
8 -1 16 -23 0
-28 -22 6 -21 0
-7 5 14 18 0
19 23 -18 2 0
-8 30 -27 4 0
-15 5 -6 9 0
20 -19 13 -8 0
25 1 -22 -6 0
-1 -10 26 -5 0
-25 -14 5 19 0
-30 6 -26 -20 0
13 21 -4 -17 0
26 19 -9 -30 0
-14 -20 -6 27 0
-9 30 10 -27 0
-10 27 15 -17 0
28 3 -7 9 0
-18 29 10 -21 0
-17 19 25 -14 0
22 -18 14 -8 0
-1 -21 -11 -13 0
1 28 -11 -14 0
-20 7 25 2 0
-30 -22 -26 18 0
26 21 4 28 0
-16 -18 23 -21 0
-22 24 30 -12 0
-18 -8 1 25 0
1 -2 17 -14 0
2 27 17 19 0
10 -6 3 -8 0
-14 20 -8 16 0
3 25 1 17 0
6 -19 -13 18 0
-30 -1 -22 -12 0
-28 13 25 -10 0
10 21 -19 6 0
30 -28 7 17 0
-16 6 3 -2 0
-30 18 7 28 0
9 5 -28 -11 0
-14 20 -6 22 0
-28 -16 -12 -10 0
-6 18 30 15 0
21 -11 20 -15 0
-5 -27 30 -23 0
22 2 26 -12 0
-20 24 11 -7 0
29 -17 -13 5 0
10 -25 14 15 0
-23 13 -28 8 0
-14 22 2 3 0
3 30 26 -16 0
6 14 20 -18 0
4 13 -25 22 0
-5 18 -13 -8 0
24 13 -25 -29 0
-30 26 -8 6 0
-12 6 -11 -13 0
14 22 1 -21 0
-16 -27 -24 3 0
-25 14 -12 10 0
17 -26 -23 -29 0
-23 -19 5 24 0
6 26 -15 22 0
-14 -10 -28 30 0
15 -9 -11 -27 0
-17 -25 -20 3 0
-11 -21 -9 -23 0
25 -6 1 -21 0
-4 -29 13 -23 0
19 -25 9 -22 0
-30 11 14 27 0
-26 9 -21 -30 0
-15 30 -1 23 0
-21 8 -16 7 0
-7 28 12 6 0
6 5 9 -4 0
20 -1 30 -17 0
-27 -6 12 17 0
-16 -3 22 -14 0
1 25 -9 4 0
13 11 -12 5 0
17 23 -22 -25 0
-26 23 -7 -8 0
-8 3 12 20 0
-19 -21 4 6 0
20 8 28 29 0
-22 -13 4 -3 0
18 12 -4 28 0
-28 6 26 -10 0
-11 -7 -23 1 0
-15 3 -8 21 0
-7 -6 -28 -8 0
-18 -14 23 22 0
-17 16 24 -14 0
-22 -12 -30 2 0
3 -8 10 5 0
-28 -1 -24 -14 0
17 -29 18 20 0
10 -29 20 16 0
6 8 -3 -15 0
-6 27 23 25 0
9 2 17 25 0
-18 26 30 -15 0
22 -5 2 18 0
26 15 4 -27 0
-12 14 11 6 0
-23 13 -12 29 0
-1 -28 -14 -4 0
-18 10 -23 -12 0
10 22 -14 5 0
28 11 -7 -3 0
-14 5 -25 -27 0
2 -22 10 -6 0
-21 3 -7 11 0
-3 29 -15 -20 0
-4 -18 -19 -15 0
-4 26 -11 -16 0
-10 6 21 28 0
-25 17 4 6 0
25 30 -19 -21 0
17 6 24 16 0
-2 -22 -21 10 0
-27 25 -11 -13 0
3 19 -10 24 0
-9 25 -29 -3 0
-26 -14 17 -20 0
-21 23 16 25 0
4 -22 -12 29 0
11 1 -17 14 0
-3 -13 -30 -19 0
2 24 -20 -17 0
-22 8 24 25 0
-23 -25 -18 17 0
-2 17 28 26 0
15 28 23 -1 0
7 -10 2 -25 0
-1 -29 -22 -9 0
7 -3 5 -9 0
9 -20 8 -13 0
-11 -3 -1 -24 0
22 18 4 -17 0
24 2 6 12 0
-11 8 -1 -14 0
3 -4 10 16 0
24 2 16 -19 0
5 25 -20 -12 0
-18 21 4 -30 0
-13 -10 -22 2 0
-9 19 -15 3 0
6 10 21 -28 0
11 24 22 4 0
4 15 3 -17 0
-11 27 5 -12 0
28 17 6 9 0
-17 9 -21 -29 0
-22 21 -23 -2 0
-15 -20 19 -10 0
-26 -29 16 15 0
8 -13 4 -12 0
9 17 29 -24 0
-16 11 -17 21 0
7 -15 -5 -27 0
-19 -5 -25 -22 0
-25 -2 -30 9 0
6 -4 29 19 0
18 -16 29 -17 0
6 28 10 15 0
-29 -30 -17 15 0
17 -15 -21 19 0
-12 -24 -2 20 0
-3 -10 -15 26 0
-9 13 24 -27 0
15 -27 28 18 0
-21 26 29 23 0
3 -24 -6 -23 0
-9 8 -10 -22 0
17 -27 24 -21 0
-12 -24 5 -10 0
17 -22 -28 -8 0
18 23 -22 -19 0
18 26 19 24 0
20 24 -26 -8 0
23 16 -22 14 0
-4 19 26 -18 0
-29 19 10 -7 0
-10 -15 9 -2 0
-9 -24 -21 30 0
-24 -11 18 20 0
-1 11 -17 -28 0
-4 -14 -7 26 0
-26 -2 -14 -29 0
-20 -9 -10 8 0
21 -7 -28 4 0
-24 16 -5 10 0
-5 8 22 -20 0
-2 9 -17 12 0
17 -26 23 -19 0
4 7 -10 24 0
20 7 -11 -14 0
-9 -27 -1 25 0
6 16 14 1 0
18 11 28 29 0
-16 28 -2 -23 0
24 23 -29 25 0
21 -4 -30 6 0
26 7 13 21 0
-28 -15 17 16 0
13 -4 -24 6 0
14 -3 11 18 0
22 -24 14 6 0
5 -19 -8 -18 0
-9 -13 29 21 0
-18 11 -7 3 0
2 -8 4 1 0
8 26 18 -21 0
-3 23 12 -11 0
29 -26 14 21 0
14 13 -21 -30 0
30 7 -5 -3 0
-27 8 -2 23 0
-2 -17 -30 -14 0
-5 14 18 17 0
-4 13 -26 -20 0
20 -8 -15 12 0
21 -1 -11 9 0
29 -8 4 15 0
-30 -13 -22 -4 0
29 -15 -17 26 0
-17 -20 7 -28 0
8 21 -12 3 0
30 -20 -24 1 0
23 29 -25 26 0
27 -25 5 -29 0
-15 13 -21 -25 0
16 26 8 -21 0
-19 3 -29 6 0
1 -21 -7 13 0
9 -29 10 -30 0
-12 4 -18 26 0
16 -8 -17 9 0
24 -9 10 -16 0
-29 -2 16 27 0
26 16 29 30 0
