c family=4-SAT n=35 instance=4 seed=726001144 models=1
c order 22 14 6 7 12 11 17 10 20 33 8 35 32 3 19 9 25 13 5 16 24 23 30 29 1 34 31 2 15 21 28 27 4 26 18
c order 24 34 4 32 27 16 9 21 1 25 30 23 12 5 17 11 33 31 14 28 2 13 3 7 6 8 15 19 22 18 10 29 20 26 35
c order 3 23 7 13 12 20 18 6 17 1 25 32 27 28 30 8 26 35 10 31 4 24 9 19 34 14 15 33 16 5 29 2 11 21 22
c order 27 2 18 14 12 26 6 35 3 29 32 21 1 22 4 17 16 33 5 28 24 8 9 20 11 7 15 10 25 34 31 19 30 23 13
c order 16 31 15 30 17 19 11 1 7 33 24 5 6 23 12 29 35 21 18 28 13 26 8 4 34 14 9 32 25 22 20 27 10 3 2
c order 13 25 16 18 14 28 7 3 4 15 23 33 17 19 8 31 20 10 5 6 27 22 35 29 26 9 24 2 21 34 1 30 32 11 12
c order 27 29 17 31 21 6 13 20 28 25 30 34 16 18 3 22 19 9 23 33 26 8 32 12 1 4 24 10 15 5 11 2 35 14 7
c order 20 9 23 12 14 16 22 26 15 11 2 28 29 30 32 18 6 8 25 1 10 17 13 24 33 5 21 19 27 35 31 3 34 7 4
c order 2 34 19 27 18 21 10 15 31 5 14 6 8 7 12 17 3 25 32 16 1 22 30 24 13 28 9 23 35 26 4 33 29 20 11
c order 1 32 20 3 31 2 30 34 5 4 27 21 14 26 22 35 25 29 18 13 11 12 6 9 16 8 24 19 15 10 33 23 7 17 28
p cnf 35 336
-8 -18 -30 35 0
-11 17 -3 1 0
4 35 -5 -17 0
-1 -2 4 -10 0
-22 -16 -29 -7 0
25 -30 -32 -3 0
-12 -13 -16 17 0
-34 12 -4 -2 0
14 22 -34 28 0
-18 4 22 -33 0
-5 20 13 -34 0
-33 26 5 11 0
14 -24 11 -28 0
-29 24 -13 23 0
-12 -23 21 -14 0
2 -9 22 13 0
21 13 -29 28 0
29 23 -11 10 0
28 -31 -14 32 0
-16 17 -26 29 0
8 3 4 -27 0
-2 14 -22 23 0
7 -28 -5 -10 0
19 10 13 -22 0
-28 1 34 -14 0
3 31 17 -7 0
-15 28 -9 32 0
-13 7 -35 -32 0
-2 -35 16 26 0
-22 25 33 -32 0
29 -23 14 -3 0
16 -11 -10 -35 0
-30 -8 26 -16 0
-8 -12 -3 -10 0
-21 4 -12 15 0
-21 12 22 10 0
34 -27 31 4 0
18 11 -32 -9 0
-8 32 -28 -4 0
32 8 30 22 0
33 11 21 19 0
29 -34 -4 -19 0
-17 -8 -11 14 0
4 -31 3 35 0
33 25 10 23 0
-30 20 -31 7 0
-5 25 -31 -2 0
21 17 -7 -33 0
-3 13 21 -9 0
4 -11 18 -16 0
-15 31 -23 -19 0
-23 -14 -34 33 0
-14 -10 -27 -3 0
-6 35 -7 -20 0
-31 -24 -2 -26 0
-20 -1 -35 28 0
-23 16 -29 -1 0
-12 -28 -2 23 0
10 -31 -20 15 0
-7 6 32 -35 0
-30 31 -29 2 0
-17 -20 10 16 0
30 -23 19 21 0
25 19 -26 17 0
-16 -24 15 -25 0
7 9 29 26 0
18 -22 24 28 0
17 -32 -33 -20 0
-29 -14 -5 21 0
-22 -27 6 -33 0
-20 30 34 -29 0
-14 30 -20 -33 0
-20 9 23 -17 0
-33 -10 4 -18 0
22 20 -33 -14 0
34 -23 14 28 0
29 22 -12 -17 0
20 15 -33 22 0
12 16 -8 -28 0
-33 20 4 -24 0
-35 26 19 5 0
25 3 -31 -2 0
2 -18 10 4 0
27 35 34 -11 0
-14 24 -27 -11 0
-7 11 -1 -13 0
-15 17 6 -25 0
-19 4 14 22 0
7 -30 -10 28 0
17 -23 -5 24 0
-1 -23 -5 -6 0
-32 -28 21 3 0
-35 -12 13 16 0
15 27 24 -3 0
28 -25 2 24 0
-10 15 -4 8 0
25 34 6 -33 0
7 3 -10 -25 0
-12 35 -11 -22 0
-6 -25 32 5 0
13 -1 -25 -8 0
-8 -32 33 -7 0
28 -34 -35 -10 0
-34 -13 26 -22 0
-7 -29 -3 22 0
22 -15 -5 30 0
4 34 26 5 0
-7 30 31 9 0
-3 -25 -32 -29 0
4 -20 -26 -24 0
-8 20 -31 3 0
-2 1 17 26 0
-30 -14 4 -23 0
-28 21 26 25 0
-3 30 -7 18 0
-32 -34 -16 -19 0
24 11 35 -23 0
-6 13 -8 12 0
-21 17 15 -31 0
19 17 -23 -30 0
-18 4 22 -11 0
33 35 -3 14 0
-15 -24 23 21 0
34 -31 -15 24 0
14 3 -32 -33 0
-4 -27 5 -1 0
13 7 5 -14 0
-31 -23 -2 22 0
12 -29 -8 10 0
20 4 -21 -15 0
-8 11 5 -30 0
26 -20 8 -18 0
-32 1 -11 -8 0
27 -15 7 28 0
-22 21 25 20 0
-30 -14 -17 29 0
15 -3 -17 10 0
35 23 1 2 0
5 32 -15 29 0
-14 -3 34 -20 0
23 -10 -11 21 0
-30 17 -5 22 0
-19 -12 -10 18 0
5 -22 28 20 0
-30 11 7 -21 0
24 17 -19 -13 0
-18 7 22 32 0
11 2 31 29 0
17 -20 10 -15 0
-28 23 19 5 0
7 -18 -5 -15 0
10 20 28 1 0
7 21 1 -34 0
8 -6 21 -26 0
5 29 -18 14 0
-17 -12 -16 33 0
-7 -2 20 29 0
-5 -18 -32 34 0
-25 18 -28 -12 0
9 -10 18 -32 0
-18 -32 -33 -20 0
13 -32 29 -3 0
35 24 -15 31 0
7 22 17 23 0
-5 -24 -8 -17 0
-11 -3 14 12 0
6 -3 -11 22 0
14 -29 -28 -16 0
21 -24 -5 -6 0
18 27 -25 35 0
34 -32 -29 -31 0
24 -26 10 -34 0
-34 -15 3 -19 0
-6 -1 -28 -19 0
29 3 12 -9 0
-12 23 29 3 0
-3 34 5 -2 0
29 -32 9 -12 0
-28 18 21 27 0
-23 6 -21 -11 0
-9 -2 16 -18 0
34 -3 6 2 0
9 29 15 -14 0
15 22 30 -28 0
13 34 -27 20 0
19 -15 -29 -7 0
25 19 13 29 0
12 3 15 29 0
22 -3 -30 9 0
30 -20 33 18 0
-22 -16 14 8 0
-15 -6 -23 -22 0
-27 -28 -9 -7 0
31 -19 12 -6 0
13 20 21 -31 0
7 26 -20 -10 0
-21 12 3 -28 0
19 -13 -24 9 0
29 20 21 1 0
-2 -19 -18 -28 0
19 28 -11 -15 0
-25 27 20 5 0
-11 22 -14 -25 0
-26 25 11 10 0
-25 21 35 -22 0
20 -29 -17 26 0
-28 -27 -19 -13 0
-30 -26 9 27 0
2 -25 10 5 0
-4 2 10 -28 0
-32 -3 12 21 0
6 33 -23 16 0
2 -25 28 35 0
22 28 -35 9 0
-10 4 -15 -12 0
16 32 -19 2 0
19 34 -14 6 0
22 -8 -21 1 0
23 -21 -18 -7 0
3 -21 23 10 0
24 -11 33 21 0
22 -26 -15 -31 0
-23 -25 -2 33 0
-22 5 32 12 0
-21 14 32 26 0
-35 20 -31 -27 0
5 -14 -34 -33 0
15 28 -27 -1 0
-2 -3 -33 22 0
-13 31 -15 19 0
35 -9 12 2 0
7 -2 11 3 0
28 -25 7 -26 0
-5 -11 -35 -18 0
-4 17 -5 29 0
-12 16 8 -14 0
30 1 -20 14 0
-33 5 -25 1 0
-21 29 16 35 0
-20 -5 -33 -35 0
-21 -34 30 -5 0
34 9 14 30 0
30 32 -24 -17 0
18 -26 31 -20 0
-18 -1 -35 -9 0
-32 -35 5 -31 0
-22 8 11 -35 0
-6 -33 18 14 0
9 28 -1 4 0
11 1 -20 -7 0
-31 21 -29 -28 0
15 -25 3 17 0
16 -15 19 8 0
-13 30 31 -12 0
16 6 -4 -31 0
-3 -29 34 25 0
16 25 -22 33 0
22 11 -5 14 0
-18 -21 17 34 0
-20 4 8 -23 0
27 -28 -17 29 0
31 -5 28 18 0
-33 -16 15 -21 0
-19 9 15 20 0
6 -22 29 5 0
-4 -24 -29 33 0
-25 10 -31 34 0
-11 34 -24 -30 0
-35 -34 16 -19 0
31 -7 -11 -26 0
35 21 -29 15 0
-27 -34 -29 24 0
-21 18 -31 16 0
-2 6 31 19 0
15 21 -11 -13 0
23 26 -5 25 0
23 -21 16 -7 0
22 -7 14 -19 0
-27 26 -15 29 0
28 -7 22 11 0
33 4 6 -17 0
-2 15 31 14 0
29 30 -14 -9 0
15 20 -13 8 0
14 29 22 -16 0
-17 32 -2 -6 0
1 14 12 16 0
33 32 -29 6 0
2 -6 -31 4 0
-5 -33 -12 2 0
-23 -15 -16 -5 0
2 -17 1 20 0
-16 -21 -24 -3 0
-28 25 -17 -14 0
14 -31 1 6 0
13 14 -31 -7 0
-26 -18 -5 -25 0
26 1 -24 14 0
16 33 -1 -4 0
-18 13 -35 8 0
-34 8 7 -12 0
10 17 -9 -15 0
-28 10 -14 -13 0
30 -16 -17 25 0
30 -15 27 8 0
31 9 -14 2 0
24 -10 -20 34 0
7 -4 -28 35 0
-29 33 -10 17 0
-3 22 -25 -8 0
-4 31 5 -20 0
-10 -13 30 3 0
26 -8 29 -31 0
-22 -20 6 -11 0
-7 -24 6 -20 0
-8 -23 10 -20 0
-34 4 -11 23 0
11 -23 1 -10 0
-3 21 -5 2 0
-1 5 -6 -30 0
-12 1 -33 -6 0
-11 19 9 -30 0
12 -27 20 32 0
11 5 -16 29 0
-12 -32 9 -19 0
-33 -24 -21 -20 0
-24 5 -7 -28 0
-25 30 21 13 0
13 -28 -1 9 0
-22 -3 -2 -15 0
-31 -12 5 11 0
-29 34 -3 -20 0
-31 16 32 13 0
-4 -29 -34 -35 0
19 -24 3 -8 0
1 9 19 28 0
