c family=4-SAT n=35 instance=8 seed=726001144 models=7
c order 5 20 21 10 8 28 2 11 13 26 23 7 1 35 14 19 32 25 30 33 27 22 15 6 4 34 31 24 18 3 29 9 17 16 12
c order 7 17 32 34 18 2 5 1 20 19 31 12 15 22 35 26 21 9 28 16 3 30 6 10 8 29 14 24 11 25 33 4 13 27 23
c order 17 12 23 11 22 10 9 6 3 19 4 20 13 28 14 34 35 33 5 2 25 15 30 31 21 29 1 32 24 26 27 8 18 7 16
c order 32 2 31 26 16 4 3 34 15 21 30 5 24 20 13 17 14 27 1 23 6 33 19 29 25 12 22 10 8 9 35 28 7 18 11
c order 22 31 6 21 1 11 7 19 29 20 24 12 8 35 13 34 10 30 2 15 27 32 16 3 33 14 26 25 17 28 4 5 9 23 18
c order 2 9 13 1 19 30 27 15 5 17 18 25 20 32 10 12 8 31 35 3 29 28 7 23 16 24 21 4 6 11 22 33 26 14 34
c order 33 27 17 6 24 2 29 19 22 35 25 11 4 16 5 18 34 9 1 21 7 26 8 28 15 20 30 10 23 31 12 3 13 14 32
c order 34 7 20 13 31 6 24 18 23 2 14 5 12 27 4 3 30 11 29 25 16 8 26 33 35 17 9 19 1 32 28 22 10 21 15
c order 34 32 28 31 26 19 9 23 21 30 14 20 11 15 35 2 10 6 18 33 12 5 22 1 29 24 8 7 27 13 3 4 16 17 25
c order 20 6 26 35 14 33 24 25 4 10 18 19 12 9 5 28 32 15 3 11 8 34 21 27 31 16 22 1 7 30 2 29 17 23 13
p cnf 35 336
32 -12 14 -7 0
-29 32 -33 2 0
14 25 -26 -5 0
25 -8 -17 -9 0
-12 16 8 9 0
-9 -30 -4 1 0
-21 31 -19 -15 0
8 1 -6 22 0
12 -30 -21 -31 0
-29 13 21 -17 0
21 -18 -26 9 0
-33 22 29 -3 0
-15 35 -9 -23 0
-7 31 10 33 0
7 16 -27 33 0
8 -22 25 -15 0
30 10 8 20 0
26 -19 -12 4 0
-30 -10 19 21 0
8 4 24 35 0
-2 19 31 -5 0
-19 -26 -25 -12 0
18 -3 -30 -1 0
17 5 12 7 0
4 -19 1 -20 0
7 23 10 11 0
-34 -23 32 -16 0
21 -24 -10 -1 0
-19 18 33 8 0
5 -16 21 -10 0
26 34 -27 28 0
-25 -20 -18 29 0
28 21 1 -23 0
9 16 34 -13 0
14 8 31 26 0
-30 -15 -31 -8 0
-34 -14 -17 -4 0
26 -11 13 -22 0
-10 -7 14 16 0
24 20 -23 29 0
-8 18 16 5 0
28 9 -27 -21 0
19 -9 -13 18 0
23 -2 5 19 0
-14 -12 -9 -27 0
6 5 15 18 0
-10 -35 -16 18 0
20 -32 24 -19 0
31 8 26 22 0
16 35 33 -32 0
-19 33 26 -2 0
14 -4 19 11 0
-29 -24 30 7 0
18 27 -22 -17 0
-35 -13 -7 33 0
23 14 3 9 0
-17 -34 -11 24 0
-5 -2 33 22 0
13 -31 -27 -4 0
25 24 -23 -5 0
-3 -27 -21 -9 0
-34 22 30 24 0
6 -14 13 32 0
-8 25 -17 6 0
-20 13 -14 30 0
13 15 -5 22 0
6 -3 -32 11 0
14 -23 28 -15 0
4 -31 13 -2 0
6 31 33 -4 0
34 -10 9 -31 0
35 -11 16 -28 0
21 -4 -26 18 0
35 -28 4 10 0
11 -19 -30 -15 0
16 -3 25 -29 0
23 -11 2 -15 0
-15 12 -34 -25 0
-7 -9 -23 -10 0
2 -24 -5 18 0
-4 -12 30 -27 0
10 16 34 5 0
4 33 -8 17 0
-32 -1 -5 13 0
17 -21 -19 -15 0
21 16 -27 -8 0
11 -23 -1 20 0
21 10 -33 25 0
-20 23 -6 1 0
-16 -23 -32 20 0
-27 13 8 -30 0
-13 -20 24 30 0
-29 -27 25 11 0
-22 -31 -1 6 0
-18 -10 -33 9 0
16 -6 -25 -1 0
22 16 -7 -27 0
3 -27 29 33 0
-30 13 -9 10 0
-1 -35 10 16 0
21 -17 -34 26 0
-5 -21 6 -23 0
-14 -35 20 23 0
-21 27 -26 -9 0
16 28 -34 -21 0
-13 -8 25 -28 0
27 14 -8 32 0
7 -17 -2 -25 0
25 -4 27 -7 0
19 -11 22 10 0
-22 8 12 11 0
28 -19 33 35 0
-28 -25 33 26 0
-28 -7 8 -17 0
-17 -15 -3 1 0
-32 -34 -5 9 0
16 13 21 -33 0
9 33 -12 32 0
-6 30 -33 23 0
-29 31 4 -24 0
-24 28 -15 -16 0
16 15 3 10 0
-15 -22 31 6 0
-27 -15 10 -3 0
18 -33 1 -17 0
11 -2 -35 -6 0
28 12 5 -7 0
-3 9 -20 4 0
-3 21 -12 -13 0
28 -20 27 -33 0
-2 -7 -30 -21 0
-29 23 -3 -7 0
-31 -12 -22 -35 0
11 -28 1 -16 0
-16 15 8 22 0
29 9 -30 35 0
-10 26 2 28 0
-32 -30 -12 -13 0
5 -14 18 8 0
12 34 -9 -3 0
-29 16 1 18 0
23 1 6 3 0
17 3 5 11 0
35 -15 -9 -6 0
29 -18 13 -20 0
-12 5 -10 -35 0
3 8 33 -14 0
-8 -32 22 7 0
-12 31 -7 -1 0
-6 18 -25 27 0
-22 -13 -16 -9 0
-27 13 -21 20 0
-5 31 -29 12 0
-14 -28 -23 16 0
24 3 30 -33 0
2 8 13 -16 0
-26 -25 14 28 0
5 24 -1 21 0
29 -35 17 -28 0
-12 15 13 14 0
22 -23 21 -35 0
24 4 15 9 0
-7 -12 22 2 0
25 -8 -16 31 0
-9 30 33 18 0
-33 -32 35 8 0
13 -1 35 33 0
34 21 -7 15 0
31 29 34 -9 0
27 -2 6 -29 0
27 -13 24 -29 0
13 -23 -7 14 0
23 -7 3 -9 0
30 -21 34 -35 0
-19 -16 -33 15 0
-32 14 13 26 0
22 19 13 -26 0
-31 2 -11 -30 0
-7 20 24 -31 0
21 -16 -4 -26 0
-12 11 32 -8 0
-18 -7 1 19 0
-26 -28 34 -3 0
-8 -10 -31 17 0
-25 -17 -29 -13 0
3 -29 -6 -30 0
-12 26 25 -34 0
6 -32 2 14 0
-17 11 2 -14 0
-9 -7 10 29 0
-6 4 -17 -21 0
-24 -4 17 -1 0
12 -23 20 -13 0
20 10 2 4 0
-13 9 -1 26 0
-16 3 30 6 0
26 -21 4 23 0
-15 -21 -2 -1 0
22 24 -8 -5 0
10 6 -19 -18 0
27 6 -24 -26 0
20 -11 -24 -23 0
-26 19 -2 28 0
-31 33 10 -19 0
34 -35 5 17 0
-4 35 26 -30 0
-18 -32 35 -14 0
8 15 32 12 0
-31 -13 20 35 0
-28 9 -24 34 0
16 3 -9 34 0
-4 -25 -19 -34 0
33 -35 25 -12 0
-27 11 -21 32 0
22 12 -33 -6 0
-3 -12 14 11 0
25 -11 33 23 0
-20 14 31 16 0
29 -17 -25 23 0
-26 -17 -23 -6 0
3 -10 6 -28 0
-18 25 31 2 0
3 -33 17 -16 0
-8 -27 -6 2 0
34 -5 -7 3 0
-18 32 -4 21 0
32 27 -16 -23 0
12 -4 -19 -13 0
-27 -16 9 -8 0
-20 13 -4 -25 0
-30 -26 -33 -6 0
-2 16 -4 -10 0
-14 -5 27 24 0
12 4 10 8 0
-6 -12 9 21 0
4 -31 14 -11 0
-2 34 24 4 0
-33 -20 17 16 0
20 -16 12 6 0
17 5 29 10 0
12 -9 4 30 0
-15 25 -30 -34 0
-34 6 2 9 0
10 25 4 -11 0
-1 -5 32 -31 0
8 13 -5 -19 0
-10 -25 30 3 0
32 -10 29 25 0
12 -6 30 -14 0
6 -1 -16 23 0
-12 1 21 33 0
-21 -31 -7 19 0
12 13 -23 21 0
-1 4 -26 -33 0
26 -7 -22 15 0
-31 9 -22 4 0
-7 11 -12 -32 0
-35 5 24 -34 0
-7 30 -26 -28 0
17 -19 12 -22 0
35 19 5 -22 0
-9 -10 1 -7 0
-25 -31 22 4 0
20 26 2 -18 0
-8 7 -28 -12 0
-22 29 -34 -25 0
24 27 5 -25 0
19 34 27 -26 0
-35 -13 7 -29 0
23 14 -25 3 0
-7 -26 20 27 0
-27 34 -21 16 0
-2 -33 8 -5 0
-32 -27 -3 -16 0
-18 -32 -8 23 0
-18 -10 -8 26 0
-8 25 4 -12 0
-28 32 -31 -27 0
13 -6 -35 -34 0
-17 10 9 -8 0
-5 -28 35 14 0
26 6 -28 -12 0
28 -3 10 -35 0
4 3 15 9 0
11 4 -18 -9 0
-18 32 24 -17 0
28 -23 -32 -34 0
-3 29 22 -19 0
29 -6 20 5 0
4 -33 -20 -19 0
23 7 -21 14 0
16 19 -33 -7 0
-1 -29 -28 24 0
-7 28 18 -16 0
11 -1 13 -24 0
31 26 -10 -34 0
10 -32 4 -12 0
-1 33 34 -22 0
-22 -16 5 -18 0
-19 23 -12 20 0
14 34 -7 27 0
27 -30 12 13 0
-35 2 -19 23 0
25 -4 7 -11 0
-12 -3 -25 -13 0
-35 -10 -19 -4 0
-10 22 -14 24 0
-18 32 -30 27 0
-9 7 -30 10 0
18 14 -21 30 0
-3 5 -33 -19 0
-4 -1 30 -11 0
-17 5 -27 -8 0
-17 2 28 -15 0
25 2 -1 -21 0
30 31 18 33 0
-31 17 -7 19 0
13 -32 7 9 0
32 -5 30 19 0
15 -21 18 -1 0
-16 15 -29 22 0
13 -27 -7 21 0
31 2 -17 -21 0
33 -4 -13 -9 0
-13 -15 -2 -22 0
-28 7 -33 10 0
-30 13 35 -28 0
21 -32 26 -33 0
16 3 33 25 0
-32 33 9 -23 0
13 -7 4 17 0
16 -29 -25 8 0
18 34 -19 -24 0
18 21 32 -16 0
-3 -6 -10 -22 0
-24 -29 -6 -23 0
