c family=4-SAT n=35 instance=9 seed=726001144 models=18
c order 2 24 22 31 27 25 16 15 34 32 13 7 19 1 12 30 9 6 11 33 29 3 23 18 4 14 5 20 35 17 21 10 28 8 26
c order 23 33 8 20 30 16 24 15 35 19 5 11 31 10 21 1 7 32 6 29 4 17 14 26 34 28 13 9 18 3 22 2 27 12 25
c order 25 19 8 34 2 11 5 15 3 29 30 22 31 1 32 24 20 17 7 28 10 33 21 27 16 13 35 18 26 14 4 6 12 9 23
c order 31 35 5 29 12 28 27 9 33 24 19 1 25 10 26 7 15 4 20 21 13 30 22 2 23 32 3 8 34 11 6 16 17 14 18
c order 27 33 5 32 20 28 16 14 31 8 30 12 29 19 17 18 25 11 7 3 35 6 4 13 24 10 21 22 15 2 34 9 26 23 1
c order 12 18 22 7 14 19 6 15 20 34 31 24 28 17 32 9 33 30 8 16 11 1 26 21 23 35 25 3 27 5 29 10 4 2 13
c order 11 24 17 8 31 26 20 2 16 14 18 23 34 28 1 21 29 27 7 5 32 6 22 4 10 12 15 9 30 19 35 25 33 13 3
c order 6 30 2 5 34 22 4 18 15 9 3 32 24 7 25 11 35 26 23 12 14 31 21 19 17 29 8 13 1 28 10 33 16 27 20
c order 23 5 33 9 6 32 22 30 35 16 25 2 3 31 1 21 27 26 18 17 12 24 10 19 4 34 14 11 29 20 8 28 7 13 15
c order 30 19 29 1 15 13 7 35 11 14 16 9 25 32 31 3 12 8 26 27 17 24 18 20 2 22 28 34 6 5 21 23 4 33 10
p cnf 35 336
-23 -12 -25 -14 0
-33 24 -26 10 0
26 34 -22 -24 0
22 5 2 -21 0
30 -3 -22 33 0
-10 18 -5 15 0
16 -17 10 -25 0
19 -16 -12 4 0
-5 -12 -28 -23 0
33 7 -27 -1 0
-28 -23 9 -26 0
14 -34 17 -35 0
17 5 4 28 0
33 26 6 19 0
9 -32 14 5 0
1 -8 34 -25 0
-18 -34 -24 6 0
30 28 22 -35 0
14 35 3 5 0
-3 33 22 -8 0
-7 21 28 -32 0
6 22 -13 -20 0
-12 28 -1 -13 0
-7 -14 -11 -33 0
-21 24 -22 13 0
-33 -27 -12 -8 0
31 -24 -22 -25 0
-16 24 30 -19 0
22 25 9 20 0
4 33 23 -22 0
-30 -20 -9 28 0
34 2 5 23 0
-15 29 14 -26 0
10 17 -4 31 0
-8 2 -11 -21 0
-32 22 -17 -9 0
26 -7 21 -11 0
6 -8 9 -35 0
-10 22 11 -31 0
-8 -10 -13 -24 0
-31 20 9 29 0
-24 -7 13 29 0
5 -32 16 -8 0
-17 -15 -4 -32 0
-14 -12 -17 13 0
14 -31 -22 17 0
11 -5 -2 3 0
14 -22 -16 -1 0
-16 7 -4 -34 0
-22 10 -30 -2 0
-21 34 19 1 0
2 8 33 34 0
-16 -5 -8 20 0
-17 -6 -10 5 0
28 13 -15 -8 0
11 4 -12 -35 0
-20 -18 24 -12 0
8 -1 33 -17 0
29 2 -22 -15 0
-5 -28 34 1 0
-35 20 -34 5 0
-20 13 -1 -19 0
-5 -7 -34 -18 0
2 6 32 3 0
16 -24 6 28 0
29 -31 -10 1 0
1 30 -27 14 0
-34 -27 -29 -9 0
-5 -18 -32 13 0
-26 -2 -14 -19 0
25 -15 -18 7 0
15 -19 -18 30 0
-23 -26 -34 15 0
-9 -27 -18 24 0
-9 -6 15 -18 0
29 7 30 33 0
-18 27 1 -3 0
-12 35 5 -22 0
27 23 -15 3 0
9 15 24 -1 0
32 30 -26 -21 0
24 -4 -2 30 0
32 -35 25 -31 0
14 -9 -13 -18 0
-31 -4 -13 -23 0
-27 -22 -16 11 0
2 -35 19 12 0
-9 21 13 26 0
4 22 -16 35 0
-30 20 -28 -10 0
-10 33 -28 -9 0
-16 9 -19 10 0
18 -21 -8 -25 0
10 11 4 8 0
-22 31 29 32 0
1 -10 -17 20 0
4 -35 13 -19 0
19 3 -35 1 0
10 2 34 22 0
-14 -22 -11 7 0
5 23 11 4 0
-33 20 21 30 0
33 25 6 13 0
-24 22 -17 23 0
-28 -17 -6 20 0
27 17 -28 19 0
13 3 4 -34 0
-10 -21 5 17 0
5 24 -8 -25 0
-21 8 -5 -22 0
-1 14 -35 9 0
-26 2 14 23 0
10 4 33 14 0
-14 19 32 -7 0
-26 33 7 -32 0
-26 25 17 -15 0
26 -17 -2 29 0
-33 24 5 7 0
-35 -31 -34 13 0
16 -1 7 15 0
7 -25 3 -19 0
-21 25 35 -16 0
-15 25 34 -17 0
-9 -8 12 -16 0
-25 7 26 9 0
26 30 32 -22 0
19 23 -3 24 0
-5 -26 10 4 0
3 -4 28 35 0
-11 -27 22 2 0
2 -9 8 10 0
29 -13 4 -12 0
-4 12 27 25 0
3 -34 19 -20 0
7 -1 -15 -10 0
-33 -1 -13 5 0
-25 1 -15 24 0
1 25 12 28 0
16 35 -23 21 0
-7 -8 -10 -29 0
-10 -13 -19 -24 0
5 -8 -9 26 0
19 21 -32 -20 0
-2 34 -26 14 0
34 25 31 -3 0
26 3 13 33 0
-17 -14 -15 -10 0
21 13 1 -4 0
17 -27 12 -25 0
32 -16 -12 -17 0
-7 28 1 -3 0
-5 25 -14 30 0
14 2 -24 4 0
11 23 15 19 0
-19 5 -11 -26 0
-17 23 -8 -7 0
31 -32 -34 -30 0
31 -24 -15 3 0
-16 34 -12 7 0
33 31 22 -10 0
-8 -23 -4 -24 0
3 25 12 -18 0
-19 30 26 -16 0
4 -8 22 16 0
-18 -22 32 -7 0
13 18 -6 10 0
8 34 -29 -21 0
34 -29 -31 11 0
33 15 -18 -34 0
-31 18 -8 28 0
4 -25 -34 -1 0
-22 34 -2 23 0
-26 -29 -13 1 0
-12 30 -10 4 0
25 -32 -16 -21 0
-24 13 35 -17 0
-11 22 -28 -3 0
-34 -17 -20 -5 0
20 -7 33 -29 0
30 27 -11 -6 0
-16 14 33 5 0
-28 25 15 24 0
-23 -5 25 14 0
-24 18 29 -4 0
9 22 6 -28 0
16 27 31 -2 0
7 -13 -3 23 0
3 27 -15 -1 0
18 25 -3 10 0
25 -11 20 19 0
-5 30 26 -27 0
-20 16 -24 12 0
-8 33 -11 -19 0
12 5 -23 15 0
17 33 -12 -21 0
9 -21 -25 8 0
11 -16 27 9 0
8 -16 34 19 0
-10 6 -5 -20 0
3 31 -8 34 0
-19 23 4 -25 0
-14 -27 3 -6 0
-7 22 32 35 0
33 28 13 11 0
-14 -27 -35 10 0
-14 -33 -21 -26 0
1 9 -8 32 0
-9 -29 -5 24 0
-24 9 -26 15 0
23 -33 11 3 0
-26 -4 25 -12 0
33 27 31 -16 0
-18 -30 -15 -12 0
13 26 -11 -20 0
-25 8 28 5 0
14 -20 12 -24 0
20 33 -24 -13 0
19 18 -10 25 0
7 12 -11 -13 0
-33 -25 -11 -10 0
27 -22 23 -28 0
27 14 11 12 0
-34 25 -9 23 0
-5 8 33 -13 0
-2 10 -30 15 0
-7 25 34 -35 0
29 -6 -30 16 0
-33 1 -24 -26 0
-2 22 -1 14 0
-22 19 29 16 0
32 27 14 -33 0
-21 -11 -2 17 0
-8 18 -11 16 0
-4 23 -33 -13 0
5 -12 30 34 0
10 -17 19 -18 0
-8 -11 12 -1 0
9 25 -31 -33 0
-17 30 -28 -16 0
-35 33 -22 2 0
-17 34 -33 -27 0
21 -14 -16 34 0
16 -26 5 -32 0
-19 23 -8 -17 0
-27 32 -24 -30 0
35 2 19 18 0
27 -17 29 -16 0
3 24 31 -7 0
-13 26 14 -3 0
11 32 8 33 0
7 -29 32 26 0
-10 6 11 18 0
2 -32 6 11 0
9 15 27 23 0
30 -8 13 -34 0
13 20 -18 -7 0
31 20 -12 25 0
22 -12 11 3 0
24 -28 -22 19 0
4 12 -9 2 0
20 10 -2 15 0
-24 3 7 -33 0
-23 26 -25 32 0
-20 -5 24 -33 0
-12 3 -16 6 0
14 33 -34 -22 0
3 6 9 -26 0
-30 -20 -4 7 0
1 15 -20 17 0
17 19 28 -22 0
27 -16 34 -30 0
-30 -9 -1 -15 0
15 -6 -32 27 0
28 -8 -4 6 0
32 -18 25 -35 0
-26 18 -25 3 0
-19 -13 34 -26 0
3 -27 -12 31 0
2 19 22 -1 0
23 -14 30 -19 0
33 28 -34 -19 0
14 33 26 9 0
18 -20 -6 -31 0
3 -14 -18 -4 0
-26 23 4 -13 0
-5 1 -16 -19 0
21 8 -12 30 0
-20 31 -10 -24 0
-1 8 33 17 0
-18 13 -11 -20 0
13 31 22 25 0
2 -11 -28 13 0
20 21 13 -1 0
31 20 25 16 0
-24 14 -22 -27 0
-12 16 -24 -35 0
8 22 29 23 0
20 24 21 28 0
7 5 -29 9 0
-22 11 35 15 0
5 -31 10 15 0
4 -30 -2 11 0
1 23 -3 10 0
25 -28 24 12 0
22 6 -35 -25 0
27 32 -11 -19 0
26 -6 -24 28 0
12 24 -6 11 0
5 -35 -32 -27 0
21 31 16 -11 0
33 32 4 9 0
13 30 -15 -22 0
23 -15 7 -11 0
20 -25 30 -32 0
31 -20 -16 -5 0
15 -21 -31 29 0
-21 31 4 35 0
-27 9 -11 29 0
-10 25 -2 30 0
34 26 -7 16 0
-22 -27 10 2 0
23 32 -8 -11 0
-2 1 -9 17 0
2 16 -25 -17 0
-20 14 34 9 0
22 -13 12 10 0
-16 -33 -12 -17 0
-23 -21 -19 5 0
7 -26 8 13 0
-20 -35 -23 -32 0
-24 8 -29 -7 0
-11 -21 -10 -32 0
6 4 -26 -32 0
34 -19 21 -35 0
27 25 13 -32 0
23 29 -15 -5 0
