c family=4-SAT n=35 instance=7 seed=726001144 models=9
c order 25 17 16 15 24 34 26 28 18 32 9 12 19 8 33 20 22 21 6 7 2 27 11 30 3 31 14 13 10 5 1 4 29 35 23
c order 35 2 4 34 11 26 32 30 3 21 19 28 16 17 31 22 33 24 25 15 9 13 27 10 23 20 18 7 29 8 1 12 6 5 14
c order 34 13 27 10 25 8 26 14 3 33 20 30 12 6 2 23 21 32 4 24 35 7 11 19 9 15 16 18 1 28 22 31 29 17 5
c order 21 18 25 24 2 23 26 10 30 13 1 14 31 8 11 27 5 28 19 12 16 20 32 6 15 7 29 3 33 22 9 35 4 17 34
c order 15 32 8 21 18 3 5 4 20 25 22 24 2 31 23 9 7 33 29 16 34 28 6 26 35 1 14 17 12 10 30 11 13 27 19
c order 8 17 33 18 13 31 11 29 16 4 5 24 26 12 10 14 9 7 28 21 15 30 2 3 22 25 32 20 34 23 19 35 27 1 6
c order 22 3 2 35 7 12 18 6 33 25 1 28 30 14 10 9 24 4 27 5 13 31 11 15 8 17 21 26 29 32 19 20 23 34 16
c order 24 20 9 1 11 35 15 31 32 6 2 5 19 14 21 34 29 10 13 8 26 28 18 3 17 16 4 25 7 23 27 22 12 30 33
c order 3 32 24 20 35 18 10 13 29 2 27 7 5 19 4 21 1 30 28 15 33 12 31 16 22 11 25 34 8 9 23 14 26 17 6
c order 7 22 31 21 9 30 24 19 11 4 1 6 2 10 12 13 3 16 5 15 14 27 23 29 34 8 18 17 25 33 20 26 35 32 28
p cnf 35 336
-35 29 12 -25 0
-10 -3 -4 -21 0
7 -1 -32 -25 0
27 -24 6 35 0
-14 -8 11 15 0
-26 31 18 -19 0
31 25 8 -29 0
5 -32 12 -31 0
-23 -13 5 -3 0
-19 -17 -9 28 0
-14 16 35 33 0
-17 27 2 35 0
-35 -5 -26 -9 0
-27 9 7 -28 0
26 32 -10 -22 0
-9 -8 -18 -5 0
-25 17 -12 20 0
-21 16 30 20 0
10 -35 -1 29 0
-33 23 -16 -27 0
-12 -21 -27 4 0
-17 25 -7 12 0
7 5 21 35 0
17 24 -13 -8 0
27 -8 -1 -18 0
10 2 25 1 0
-24 9 -23 -15 0
8 -19 5 -23 0
16 12 -22 3 0
-9 35 -6 -4 0
-7 2 26 19 0
10 -4 -16 23 0
-19 26 35 -14 0
-10 -15 2 -19 0
-5 32 18 -21 0
33 20 -34 23 0
-15 29 1 24 0
-24 -7 27 -30 0
-27 17 -30 24 0
31 -29 -4 35 0
31 -19 -16 -20 0
-16 18 -35 27 0
9 -23 13 -34 0
-3 14 -11 -29 0
-21 2 -8 23 0
34 13 -24 -29 0
-31 28 -16 9 0
-6 4 9 20 0
24 25 -23 -31 0
15 -9 24 14 0
35 20 17 -12 0
27 -23 -13 -35 0
8 -12 -19 -2 0
-7 15 -31 -28 0
28 13 32 6 0
-25 21 -11 26 0
-26 -16 -24 -31 0
-11 28 -9 10 0
-35 -6 17 4 0
8 11 30 -24 0
11 -27 -14 -6 0
27 -17 -20 -28 0
17 -6 -24 27 0
-1 33 3 12 0
-2 -19 21 11 0
-29 -12 1 26 0
-21 33 4 22 0
-9 19 5 16 0
-8 26 20 -10 0
20 -5 34 27 0
3 6 31 23 0
-5 3 29 31 0
-11 -16 34 30 0
21 16 -1 -3 0
-4 23 8 32 0
-11 -18 -6 30 0
-8 -11 22 -25 0
-34 -5 -8 -32 0
-18 -30 -11 -7 0
-7 -28 14 -17 0
31 -25 -20 23 0
33 13 -25 -2 0
19 17 31 14 0
19 4 -10 21 0
-23 12 16 -29 0
15 1 3 31 0
27 9 17 -35 0
19 -29 -7 35 0
-6 10 9 -1 0
-18 -20 2 28 0
-26 17 15 -31 0
-34 19 18 -3 0
23 34 -30 18 0
31 9 29 -32 0
8 -30 10 -23 0
-11 27 3 34 0
-2 -6 27 -22 0
-31 6 13 -20 0
-18 19 -6 33 0
1 -22 24 -23 0
22 9 15 -29 0
-1 -32 -6 24 0
-24 -8 5 -29 0
11 -33 18 -6 0
-6 15 -8 32 0
-2 -4 -32 34 0
-30 27 -21 -25 0
30 27 -15 -4 0
-9 15 -23 -6 0
-35 -7 19 20 0
-10 13 11 15 0
-1 -8 -10 -14 0
-17 -21 28 -8 0
-10 8 -29 -20 0
-35 24 32 -3 0
-13 -3 -18 14 0
10 32 -34 8 0
15 -32 27 16 0
-13 8 16 -27 0
-6 -9 30 -27 0
29 35 -10 27 0
-33 34 -8 -23 0
-21 17 -24 9 0
29 16 -7 5 0
-27 -5 -16 -25 0
22 7 20 -5 0
-30 -8 27 2 0
-11 -24 12 35 0
20 27 -4 13 0
9 -16 11 -23 0
-22 8 32 -21 0
5 31 -10 -25 0
-21 11 10 26 0
19 5 1 -2 0
-33 -1 16 11 0
11 24 23 30 0
-14 27 -3 8 0
-9 3 -7 -29 0
14 10 28 6 0
3 21 -2 -35 0
-8 -14 7 35 0
12 20 -27 32 0
-33 -27 -12 31 0
15 6 -3 -20 0
22 -12 -19 26 0
9 -23 5 6 0
33 -26 -17 -14 0
13 -10 -31 -32 0
28 26 -24 16 0
22 -5 -6 13 0
-4 12 23 -30 0
27 -20 -26 -24 0
35 33 3 -30 0
5 -23 27 -3 0
26 -29 32 18 0
-21 -30 33 -2 0
-15 -24 -22 -2 0
33 -1 -8 -7 0
2 -12 -11 21 0
-26 -17 25 11 0
12 29 -32 30 0
-8 -11 -33 -35 0
4 31 -20 -8 0
16 -31 -1 30 0
-31 17 -16 -34 0
-16 17 28 -21 0
-13 3 -5 -21 0
9 21 18 11 0
-4 -6 -12 26 0
-15 -20 -34 -23 0
10 -33 -31 -24 0
28 -24 -31 26 0
-22 31 23 -7 0
22 -13 27 9 0
1 -14 22 -11 0
33 -11 -6 20 0
-24 6 29 15 0
-2 15 9 -28 0
1 31 4 -18 0
-25 -20 -1 -8 0
-32 15 -12 9 0
-28 32 -22 9 0
-18 35 -6 -22 0
-30 -3 -20 23 0
22 -16 24 11 0
-2 29 -35 -24 0
-23 -1 32 -4 0
-18 27 9 33 0
33 -30 3 -16 0
-15 25 -34 -23 0
-8 -2 -35 27 0
-24 -12 25 -22 0
-35 -20 4 -24 0
13 -20 -32 33 0
20 -16 -10 22 0
-10 -32 8 -23 0
34 -28 32 2 0
-15 -34 -3 -31 0
23 21 8 -16 0
13 -25 20 23 0
26 16 -15 14 0
-1 20 -10 34 0
15 -22 -10 16 0
30 -27 -1 19 0
-12 -13 -30 -27 0
15 23 10 -17 0
2 -14 -23 -24 0
-23 -35 15 -29 0
-12 -6 28 -23 0
8 -13 31 34 0
-2 26 -35 17 0
-30 -21 -33 -6 0
1 -28 -32 29 0
11 -33 -14 9 0
23 3 -31 25 0
-25 31 15 22 0
-5 9 1 7 0
29 -10 13 9 0
8 -23 -32 -15 0
-24 -21 -28 -4 0
11 15 -5 10 0
-15 11 12 -32 0
-12 17 20 -25 0
-19 -27 29 -11 0
5 -26 15 -30 0
29 -9 -20 -15 0
1 -20 -10 16 0
-21 28 -11 16 0
-26 -5 -6 -12 0
-20 -25 -7 24 0
19 -2 29 13 0
21 -35 9 -11 0
24 -10 -35 1 0
-16 -14 -12 -32 0
30 -24 15 18 0
-7 28 29 1 0
3 31 -35 6 0
12 -27 32 -21 0
5 23 -2 24 0
-10 -18 -17 -11 0
-15 -24 9 16 0
-19 -26 5 13 0
12 13 -18 25 0
-17 35 1 30 0
15 31 -32 12 0
-20 -3 25 27 0
30 34 -9 12 0
-23 -9 -35 -29 0
-9 -15 -1 -3 0
29 31 12 27 0
14 -21 -19 7 0
-20 2 -8 4 0
-2 32 16 -13 0
13 8 -27 30 0
19 18 31 -20 0
-23 4 18 -1 0
15 -2 -1 19 0
10 23 17 24 0
-28 29 -26 -11 0
-1 -21 -26 -33 0
-23 -25 9 34 0
-23 -3 11 24 0
34 19 12 -24 0
-11 22 -14 -24 0
-24 11 -18 9 0
26 21 1 20 0
-31 -13 18 7 0
29 -27 -26 -9 0
-14 -6 -28 -21 0
17 15 -28 -18 0
25 9 3 27 0
-31 13 -21 -35 0
33 21 -25 -7 0
28 -34 13 1 0
-25 -24 7 32 0
-10 -12 14 28 0
-5 -33 7 -10 0
22 21 31 -5 0
-26 -4 32 -15 0
30 -22 -17 -14 0
-23 -10 -21 -8 0
28 -32 11 13 0
-21 -27 -29 -20 0
-6 -7 -24 35 0
4 -10 -9 7 0
17 -10 12 -25 0
-17 -8 -13 28 0
4 -6 10 19 0
-2 18 32 5 0
-9 -32 33 3 0
-25 17 19 2 0
-34 31 -10 -2 0
13 6 -14 11 0
26 -29 27 -15 0
6 10 4 -31 0
7 8 23 -27 0
20 -28 7 15 0
-24 17 29 -33 0
9 1 11 4 0
-1 14 -2 -35 0
18 14 23 -34 0
20 33 30 35 0
-2 -21 26 11 0
34 21 -17 26 0
-1 -6 7 -24 0
33 3 -30 12 0
-10 19 -21 29 0
-27 -14 -12 2 0
-1 -3 9 -24 0
-3 7 -25 14 0
-13 -19 -35 -18 0
-20 24 34 -19 0
-19 18 21 -22 0
-18 -3 -8 11 0
25 33 3 23 0
6 -18 -28 32 0
-22 -1 23 11 0
-3 -20 23 -15 0
28 18 3 26 0
32 2 35 -15 0
-34 -4 -15 12 0
15 3 -2 -29 0
7 -1 -2 -13 0
12 10 11 -3 0
-4 10 31 -19 0
13 -33 14 5 0
-16 -2 20 11 0
-23 21 30 3 0
12 -31 -13 9 0
6 29 31 -26 0
-27 33 25 -2 0
-26 34 3 17 0
26 -21 -27 7 0
14 19 1 -28 0
-11 14 -20 1 0
-15 19 -26 4 0
