c family=4-SAT n=35 instance=6 seed=726001144 models=17
c order 17 2 28 18 11 29 31 32 4 27 16 9 35 13 25 24 12 34 8 6 30 33 26 19 22 10 5 7 14 3 23 1 15 21 20
c order 27 21 5 14 15 10 33 11 4 23 1 25 28 7 19 12 20 8 22 16 29 34 31 30 9 18 6 13 32 35 24 17 2 26 3
c order 33 24 13 4 19 2 28 26 18 25 35 17 10 8 11 15 31 22 14 34 30 3 16 29 27 20 23 7 21 5 9 6 1 12 32
c order 24 28 25 19 17 29 1 11 31 9 5 33 10 7 8 13 27 18 32 21 16 6 30 12 20 35 3 14 4 15 34 26 23 2 22
c order 32 18 10 20 27 3 25 12 13 19 11 22 16 35 4 2 24 21 9 29 1 17 23 33 5 30 26 14 34 8 7 28 6 31 15
c order 35 28 32 18 23 19 9 22 3 1 26 11 25 14 24 12 27 33 16 8 13 4 29 15 30 10 20 21 5 17 2 7 6 34 31
c order 6 18 21 2 30 1 29 4 12 27 33 16 28 19 5 8 9 17 24 3 15 26 13 34 20 22 31 11 23 35 10 32 7 25 14
c order 20 24 17 32 16 28 10 9 13 22 5 26 27 12 15 18 34 25 35 11 4 6 30 8 29 19 7 23 3 33 1 2 21 31 14
c order 33 8 24 31 34 5 1 2 26 25 20 27 9 13 35 21 32 7 17 12 15 14 19 30 16 18 6 22 10 28 29 4 11 3 23
c order 8 11 5 33 3 34 24 9 23 6 25 17 13 2 32 28 19 1 15 20 21 27 35 7 31 14 12 22 10 16 26 30 4 18 29
p cnf 35 336
19 -10 2 -9 0
18 -21 3 -20 0
21 7 14 -13 0
-1 -32 -15 12 0
-8 25 18 26 0
-24 20 17 -5 0
4 -12 -22 -30 0
-5 -22 -12 20 0
34 4 -23 -2 0
-20 -16 -7 10 0
17 18 25 -22 0
33 -31 6 -23 0
1 10 24 -22 0
-28 -23 33 30 0
30 -10 -8 23 0
22 28 -32 21 0
-30 -15 35 9 0
14 19 -24 20 0
-21 -4 -6 -29 0
-5 21 -14 -8 0
10 -15 17 -4 0
25 -18 -21 -20 0
8 -17 -22 7 0
19 11 13 17 0
-23 -20 35 28 0
-9 32 28 8 0
13 16 -9 -11 0
-33 -26 -1 34 0
-10 6 -13 -19 0
18 21 30 12 0
-2 8 -21 -15 0
25 -35 -16 19 0
13 -2 -20 -32 0
-18 6 12 29 0
9 20 -19 -10 0
24 -1 27 -32 0
-15 32 -31 20 0
26 -34 -4 -28 0
29 5 9 -23 0
15 -20 -29 33 0
-33 22 -10 30 0
-29 -16 -35 -33 0
32 -31 -5 8 0
-27 21 -34 7 0
-29 -22 -15 13 0
34 30 -13 27 0
-5 -19 6 -15 0
34 -14 -13 17 0
2 -13 7 -33 0
9 -31 -12 -2 0
-22 -13 -29 -12 0
25 11 -13 35 0
33 -1 4 26 0
14 1 -24 8 0
33 -12 -35 -5 0
-14 5 -18 29 0
-26 22 21 20 0
-2 -17 -31 34 0
-18 25 14 19 0
12 20 33 19 0
-33 -17 -5 1 0
-16 -27 12 7 0
-19 16 -17 1 0
27 -26 -14 -9 0
13 -12 -5 26 0
-32 -23 -3 24 0
10 -34 -21 -3 0
-28 34 -13 30 0
-34 -16 -7 20 0
21 22 -26 -7 0
-1 34 -19 -26 0
15 -19 12 18 0
3 22 -27 -5 0
31 12 -30 29 0
-9 34 -30 -32 0
2 -9 -6 32 0
-32 -8 3 -12 0
-11 33 8 -22 0
21 24 33 -2 0
3 -26 24 -21 0
14 34 23 24 0
-32 22 -16 -13 0
-4 -29 23 20 0
28 -26 -16 -33 0
-26 27 -11 -35 0
2 6 -9 13 0
-23 -8 -4 -22 0
-24 14 -11 -19 0
11 26 -19 12 0
24 22 -21 9 0
-30 -29 17 -2 0
-9 -3 -28 22 0
25 -9 -7 -27 0
-16 30 -22 24 0
19 -20 33 30 0
-1 15 17 28 0
32 31 34 2 0
-26 -15 -34 27 0
29 33 23 10 0
19 8 23 -18 0
-6 29 17 23 0
-24 22 -3 11 0
14 -21 -22 27 0
-4 -7 -21 -18 0
-26 32 -3 15 0
-28 -30 5 34 0
28 -32 2 15 0
3 21 9 34 0
25 -6 1 -14 0
17 31 35 7 0
-8 12 33 -11 0
-27 -22 -33 -9 0
-30 28 -34 8 0
-22 8 9 -32 0
-22 -34 27 32 0
-6 -32 -2 -16 0
13 15 9 -4 0
3 8 29 -32 0
-22 14 15 -10 0
6 -33 -21 20 0
-19 22 -31 15 0
-23 -26 16 -20 0
-4 18 31 -35 0
15 27 -35 16 0
-4 -21 20 -29 0
1 11 -13 -29 0
-22 14 -24 33 0
-3 25 -31 12 0
4 -7 -31 24 0
5 -29 11 -12 0
4 -31 -33 -20 0
-2 -9 12 24 0
11 13 7 -35 0
-4 -12 22 31 0
13 -1 -9 -31 0
14 16 6 -13 0
22 -1 -34 -21 0
15 -34 -8 -6 0
20 32 15 -17 0
-9 -3 -18 33 0
10 27 -2 -33 0
-32 -11 10 22 0
18 14 23 -4 0
-35 20 26 -25 0
11 -25 4 10 0
-8 -10 3 17 0
-28 -12 20 31 0
-33 26 -14 18 0
32 12 -10 -29 0
-26 -12 28 21 0
24 -23 25 15 0
-21 22 -27 -13 0
26 32 28 16 0
-1 6 -35 33 0
3 27 28 -23 0
-2 -29 -31 16 0
34 -8 19 7 0
-35 -9 20 -3 0
2 -29 -6 21 0
27 -7 -6 -4 0
32 -28 -20 -35 0
-30 -5 -29 -17 0
-18 -34 -7 -30 0
-8 -20 -4 19 0
12 35 -30 -26 0
6 10 -23 29 0
-3 31 23 19 0
-1 31 26 7 0
-24 -10 -18 32 0
-16 -34 4 22 0
-17 35 -16 14 0
18 -4 14 -17 0
8 -17 9 -12 0
-4 19 30 -17 0
-3 15 25 30 0
-6 22 5 18 0
-23 -26 -13 -35 0
15 3 -25 -28 0
8 31 -28 -3 0
-31 -7 -10 -32 0
22 26 18 28 0
24 -17 12 -14 0
13 -26 -27 -10 0
23 -28 30 -29 0
6 -12 24 22 0
32 13 -28 -17 0
2 -12 -35 -20 0
-18 -17 29 -16 0
15 -4 -21 9 0
-25 -35 26 -8 0
-15 -12 13 27 0
10 21 -9 -18 0
31 -24 33 -34 0
16 -12 -4 -15 0
11 -4 -14 -12 0
-30 11 31 12 0
-29 18 -20 23 0
16 -12 5 23 0
7 -9 -6 -15 0
-13 14 -30 -27 0
23 -4 13 -17 0
-14 16 20 8 0
-17 27 -19 -25 0
19 32 20 -12 0
8 27 34 12 0
4 17 -1 -26 0
9 34 15 13 0
-28 16 6 -25 0
-5 22 -16 -1 0
-30 -34 -6 -7 0
25 6 12 5 0
-8 -25 -34 -2 0
26 -33 30 9 0
15 14 -27 -12 0
7 23 -21 -33 0
-3 -2 -14 -11 0
33 26 -32 -12 0
32 -6 -29 -24 0
-32 16 -29 -34 0
29 -28 17 -12 0
3 25 -19 6 0
-16 5 -2 -21 0
-29 13 -24 12 0
13 35 3 33 0
11 -30 12 -5 0
20 -6 30 -35 0
-8 33 11 19 0
-22 25 -20 10 0
-35 -21 -34 -30 0
-2 17 4 -12 0
-18 6 -25 -30 0
-5 -23 19 -22 0
-10 -31 25 -8 0
27 -13 6 20 0
7 3 -34 8 0
33 -30 -35 -6 0
2 16 -26 -32 0
1 -31 -29 13 0
19 33 -29 16 0
19 8 -17 -22 0
-7 -9 8 23 0
17 -25 -11 -2 0
20 15 -7 10 0
-34 35 -8 -7 0
-24 31 14 7 0
-23 -7 32 -20 0
26 9 -19 10 0
-9 19 26 -3 0
19 8 13 -17 0
23 25 2 12 0
18 -20 19 6 0
8 -30 4 -20 0
-2 16 -33 -34 0
-33 -10 23 -4 0
26 18 -17 -1 0
-19 -13 -17 -5 0
32 -14 -35 -19 0
-5 -4 -30 27 0
31 -18 35 2 0
11 7 -32 -21 0
-26 2 23 9 0
-23 -25 6 24 0
11 -1 -23 -28 0
32 23 26 34 0
-10 -15 30 3 0
21 7 24 -23 0
25 9 -32 29 0
-26 -30 5 -28 0
-7 1 -23 -19 0
33 -2 20 24 0
28 18 -22 -3 0
-18 2 31 -28 0
-15 5 12 9 0
14 31 -11 25 0
17 24 -11 23 0
4 -9 23 7 0
-5 -31 -6 -17 0
30 -7 -35 -5 0
-23 -20 15 -29 0
-2 3 -5 -32 0
21 -13 25 -6 0
-15 -33 -23 11 0
-31 4 16 11 0
10 31 -14 33 0
-3 -35 -21 15 0
-27 22 -26 25 0
-31 26 6 -22 0
-28 10 -26 -11 0
30 23 -21 18 0
24 19 -17 -32 0
19 24 -22 -10 0
-8 -19 14 3 0
-10 14 -33 -29 0
-14 -35 -7 -29 0
-1 35 29 27 0
-1 12 -13 10 0
-7 15 -17 -20 0
2 -10 -30 -29 0
-11 18 -16 5 0
22 18 13 2 0
-20 -6 14 22 0
-31 18 -8 -23 0
34 26 -15 3 0
-17 4 27 2 0
-24 23 -33 8 0
29 -22 -16 18 0
-7 -8 3 12 0
35 -30 5 34 0
23 31 -35 -28 0
25 -10 -3 14 0
8 -30 27 29 0
-29 -14 21 7 0
-28 -19 6 2 0
-9 25 27 -8 0
-20 -8 -13 25 0
34 -10 26 -12 0
4 3 23 -11 0
6 -29 4 19 0
4 -17 -1 -11 0
-5 -15 -33 27 0
-23 -14 -12 15 0
15 28 20 9 0
-12 -31 6 -21 0
32 -20 12 10 0
-29 20 16 28 0
-10 -27 30 -26 0
-33 14 35 22 0
-2 -28 26 -12 0
-13 8 24 -30 0
15 -29 -23 -1 0
-19 21 27 32 0
-2 25 -15 -19 0
3 -19 -11 2 0
-11 29 -33 -12 0
-30 -17 19 -35 0
14 -16 25 5 0
