c family=4-SAT n=35 instance=3 seed=726001144 models=2
c order 27 32 19 20 6 30 14 7 3 16 9 10 4 12 28 26 33 15 8 24 17 22 35 21 11 31 25 34 13 2 23 18 1 29 5
c order 17 8 15 30 3 7 31 26 13 4 23 34 25 11 5 20 33 24 2 16 10 32 18 19 6 22 9 12 29 1 14 27 28 35 21
c order 28 35 22 10 17 2 3 34 27 21 25 12 13 29 18 4 7 6 9 11 24 8 19 1 5 16 32 23 15 30 20 26 33 14 31
c order 28 25 26 3 13 7 33 17 15 14 4 30 31 12 10 35 29 9 34 6 23 16 18 19 11 20 21 32 22 2 24 1 27 8 5
c order 34 10 16 1 21 5 23 26 30 33 15 17 18 31 22 14 25 8 27 9 6 2 7 24 29 12 13 32 35 11 4 3 28 20 19
c order 20 32 19 11 23 13 28 33 25 16 12 15 8 2 3 14 24 30 6 34 5 17 10 4 9 35 27 31 1 18 26 21 29 22 7
c order 5 26 23 12 17 27 15 8 6 18 1 16 35 24 30 20 28 14 9 19 21 33 32 34 10 3 2 31 7 11 13 22 4 29 25
c order 15 8 14 19 7 24 21 6 10 5 31 25 17 23 18 9 20 13 11 3 30 1 34 35 27 12 29 26 32 4 2 33 16 28 22
c order 2 5 21 8 13 6 26 24 10 22 35 18 12 20 9 16 30 23 3 34 4 28 17 15 27 1 25 19 32 29 31 33 14 7 11
c order 4 24 32 6 12 9 7 5 15 21 10 29 26 23 11 27 3 18 19 2 20 8 34 25 35 30 14 28 13 33 22 17 16 31 1
p cnf 35 336
11 15 -28 6 0
13 29 -35 -30 0
33 13 -26 -31 0
-19 33 35 28 0
-35 3 11 -23 0
32 -24 1 -4 0
-21 12 -22 32 0
5 -35 20 4 0
-10 18 -2 34 0
19 35 25 18 0
12 -17 15 -7 0
-7 25 -16 -33 0
15 6 -4 20 0
22 -3 12 35 0
-19 -7 5 10 0
16 -3 -32 -17 0
-28 29 4 25 0
-4 16 -31 -24 0
24 8 -12 -23 0
21 -25 -16 7 0
18 -14 8 -13 0
-5 30 35 -11 0
-22 -10 -19 -23 0
-15 -12 21 -2 0
-32 12 11 15 0
28 29 3 4 0
6 -25 -15 -14 0
-10 -11 35 30 0
-3 -5 -1 30 0
25 -26 -9 -16 0
7 25 -4 -3 0
-15 -25 4 -3 0
5 -29 -4 22 0
-7 -10 -3 28 0
-6 -25 -12 4 0
-22 5 17 8 0
1 -5 -29 23 0
-3 13 -21 16 0
-21 32 -33 22 0
10 35 -25 28 0
7 -6 -31 -3 0
7 -3 -4 31 0
-21 -28 -9 -7 0
20 7 -21 -13 0
18 5 -2 -32 0
6 -22 -14 29 0
-26 -15 -34 -19 0
13 -28 -10 -25 0
-7 -16 10 -26 0
25 -27 -24 -30 0
-9 -4 -12 26 0
31 9 -18 14 0
-24 -17 9 -5 0
34 20 15 32 0
4 27 -23 -34 0
7 22 1 34 0
-31 16 17 34 0
-14 7 3 17 0
-33 24 32 -12 0
4 11 -30 -25 0
-17 7 -6 -23 0
-5 11 -10 7 0
-5 -17 -29 -13 0
-35 -27 -17 14 0
-28 21 33 1 0
-23 -24 -14 8 0
-19 -2 -28 1 0
11 -25 -22 -23 0
-21 -30 28 -19 0
19 20 17 25 0
31 24 34 -8 0
25 7 -10 -12 0
29 -23 33 -10 0
33 6 31 20 0
7 -18 -29 -28 0
-27 35 -29 -4 0
-15 26 24 -12 0
33 -22 11 -14 0
21 10 34 -13 0
-20 21 -28 -31 0
19 -27 12 -26 0
18 -31 -1 35 0
-33 -15 -30 -7 0
-32 -34 25 15 0
17 -28 12 -31 0
19 -4 21 -10 0
12 35 -29 -8 0
-11 -21 -19 5 0
4 -34 -3 13 0
-14 -9 16 -11 0
4 1 -24 -29 0
5 26 -25 -27 0
33 -26 14 4 0
3 -25 -13 19 0
-21 -22 -3 31 0
-16 -28 -12 -30 0
8 2 -11 -20 0
33 -23 22 -4 0
-22 1 31 -35 0
-18 -15 -1 32 0
29 18 8 -30 0
-29 -27 21 -6 0
24 25 11 -16 0
26 -23 14 17 0
-13 2 -32 15 0
29 -13 24 -12 0
33 -34 -30 -6 0
-7 -23 30 34 0
-20 -21 26 -29 0
-6 2 31 -35 0
-7 31 -35 5 0
25 -31 15 -6 0
32 -25 -1 18 0
2 -7 28 -20 0
-3 -27 17 16 0
2 31 3 4 0
-12 -19 8 -3 0
-19 3 -27 -24 0
-23 -35 -10 -3 0
-9 17 19 24 0
10 -12 26 -15 0
18 -6 34 32 0
-32 -23 7 14 0
20 17 -30 19 0
2 9 28 7 0
32 -30 -16 6 0
8 -23 4 9 0
-32 27 14 -11 0
27 -5 -32 -30 0
28 22 -35 29 0
-16 18 -28 -29 0
7 -8 26 -5 0
-9 -24 -20 -21 0
24 -12 26 14 0
-23 -29 13 -6 0
15 -19 -4 -2 0
-13 34 -22 -26 0
9 7 -26 -23 0
-27 14 19 31 0
25 23 -2 -22 0
-35 -20 -9 23 0
8 -29 13 30 0
30 -1 -18 28 0
24 -11 -34 25 0
-28 33 -12 34 0
19 35 -33 -21 0
1 5 30 22 0
13 23 -19 -5 0
-28 4 -2 -34 0
-30 5 -29 33 0
-7 -14 10 -27 0
35 23 -5 -33 0
-25 4 -6 34 0
28 27 -5 -9 0
-10 16 18 33 0
-26 -2 -5 -17 0
7 -10 -19 -25 0
-33 -7 -21 -31 0
-27 -9 -12 -7 0
26 -24 5 -17 0
18 24 27 14 0
10 2 -16 3 0
8 14 -4 22 0
-13 -18 -8 35 0
-22 14 -26 6 0
11 12 -31 26 0
-9 13 33 -20 0
-20 21 7 11 0
-30 -17 -15 -16 0
-30 25 31 -24 0
-3 -1 7 21 0
31 -8 3 -4 0
-16 9 -22 17 0
-32 -4 16 9 0
-30 -16 21 -14 0
13 -18 -1 -12 0
10 18 -35 -11 0
-26 21 -8 -23 0
12 -16 -34 17 0
25 -14 -20 3 0
14 31 16 6 0
9 -21 -25 -24 0
11 -5 27 -34 0
32 -5 -26 -28 0
-12 30 18 -26 0
26 20 22 -17 0
-4 -26 17 -8 0
30 -13 -34 1 0
4 -35 -31 16 0
26 10 -17 35 0
-4 20 -23 -14 0
-33 17 -8 -13 0
12 34 6 -1 0
-18 -30 16 -23 0
-5 -8 1 -35 0
10 23 30 26 0
-2 -6 -26 -10 0
3 -21 26 24 0
-24 -12 -29 -1 0
4 -35 24 -29 0
-15 14 7 29 0
-8 4 -17 -34 0
-16 -4 -22 31 0
8 -30 16 -4 0
-2 20 -26 -28 0
-19 -6 -14 -11 0
3 13 -33 5 0
26 35 31 -10 0
-7 22 31 15 0
13 34 1 -7 0
-26 34 30 -18 0
21 -22 -23 13 0
-25 32 -19 -34 0
-1 -8 28 -31 0
-22 11 28 -32 0
-27 18 -17 -26 0
20 -17 -22 31 0
-13 -8 21 31 0
11 4 25 5 0
-14 -24 -10 28 0
-15 -14 12 7 0
32 16 18 26 0
-15 -25 1 6 0
-17 9 19 -21 0
16 -6 19 2 0
6 20 -34 -16 0
21 3 11 -1 0
-20 19 10 3 0
15 -30 17 12 0
-23 -29 10 13 0
-7 8 26 15 0
-33 -23 -31 -10 0
-13 -31 15 2 0
18 29 31 -2 0
-21 6 -3 -14 0
-14 22 31 -6 0
18 -2 26 33 0
-20 -11 -33 -25 0
-3 32 6 -15 0
-32 -3 -25 35 0
-31 27 -6 -14 0
28 -26 -30 1 0
25 -35 20 -16 0
-4 -5 -23 8 0
20 -18 22 -5 0
19 27 -1 29 0
3 10 -12 9 0
33 -35 -34 1 0
1 -34 11 16 0
4 -10 19 17 0
17 -27 -12 29 0
10 -14 -3 5 0
-12 -11 24 -34 0
21 -2 27 12 0
3 22 -31 -19 0
27 10 25 34 0
21 -22 -26 -20 0
-13 8 10 2 0
4 2 21 -33 0
-1 -13 23 -22 0
19 -24 -20 -22 0
-26 -21 -8 -7 0
-33 -29 1 10 0
-28 -14 6 -31 0
-8 -23 14 16 0
19 -9 25 -27 0
-17 -21 18 26 0
18 -16 -27 -28 0
4 9 31 -11 0
16 -15 11 -12 0
-28 -12 -18 2 0
9 -33 -10 25 0
-17 22 -11 -6 0
31 16 -5 35 0
-30 -29 -11 -22 0
-33 10 -25 -15 0
21 -18 -1 -13 0
-6 -25 18 -22 0
-8 -25 -7 22 0
-13 7 -5 -17 0
18 31 25 -2 0
29 21 19 16 0
-3 -9 -26 -14 0
5 -2 3 6 0
-3 18 13 9 0
20 -34 -9 18 0
6 -10 18 -11 0
15 -8 -12 7 0
-16 -8 7 30 0
35 -34 -31 -27 0
8 22 -15 27 0
6 -21 30 -32 0
-22 -26 29 -3 0
10 -7 25 -31 0
-13 7 -32 28 0
-32 4 -25 -13 0
33 6 28 -7 0
-31 -9 -2 -12 0
32 18 -10 -6 0
27 4 -16 -29 0
19 -4 10 -6 0
-7 28 8 32 0
6 26 11 -33 0
29 11 24 -16 0
-8 21 3 -17 0
-34 -10 -1 -4 0
-29 -27 10 6 0
35 -28 -26 30 0
-20 2 -28 -30 0
-4 2 5 -19 0
21 -15 -32 -27 0
-34 2 -10 35 0
-34 35 3 -15 0
-12 7 -26 29 0
-19 -4 28 -7 0
25 8 33 18 0
4 -24 15 -6 0
-19 -6 14 -8 0
11 18 12 -5 0
-28 -12 17 -23 0
-11 6 -5 -34 0
-22 -18 -14 2 0
15 -9 26 -8 0
30 -23 -4 -16 0
31 22 -5 9 0
30 -13 -4 2 0
-18 -32 -2 -35 0
16 5 -2 -27 0
34 22 26 -8 0
-3 -35 -18 -4 0
3 -20 -34 -30 0
19 -5 -4 -17 0
25 -3 22 -21 0
29 -6 -31 -13 0
11 -17 35 -33 0
17 12 -2 -32 0
