c family=4-SAT n=35 instance=5 seed=726001144 models=20
c order 28 31 15 35 34 9 5 32 24 3 10 33 26 2 16 1 23 17 21 14 7 22 30 13 6 12 27 29 18 4 11 25 8 20 19
c order 26 31 7 1 18 35 11 6 27 16 4 14 15 25 23 28 33 32 29 8 19 22 10 5 17 34 2 12 20 3 21 9 24 13 30
c order 16 26 7 33 30 14 24 2 35 20 3 15 10 23 22 11 18 21 1 25 13 29 12 19 31 8 6 27 4 17 9 28 34 5 32
c order 20 23 3 35 34 33 29 9 5 16 24 10 31 15 2 14 1 4 25 19 27 8 6 7 12 17 30 21 18 22 26 28 32 13 11
c order 28 16 24 4 20 22 27 19 11 30 8 25 6 33 23 31 15 10 2 26 14 5 1 13 34 9 21 35 29 3 18 7 17 12 32
c order 9 11 15 23 12 30 5 4 18 1 32 10 26 28 20 3 2 34 14 29 8 35 6 27 7 31 22 33 25 19 17 16 24 21 13
c order 29 18 21 26 10 4 19 33 35 3 23 6 31 5 22 27 9 25 8 13 16 15 28 2 17 30 12 7 11 14 24 32 34 20 1
c order 25 19 3 6 28 31 23 10 11 24 4 32 12 20 9 34 21 26 5 18 8 35 30 29 27 7 16 13 14 33 15 22 17 1 2
c order 16 10 24 2 6 12 1 19 22 27 5 31 8 13 15 33 23 29 25 11 21 32 28 7 35 3 18 34 17 30 9 14 20 26 4
c order 14 3 17 22 6 28 11 26 2 19 7 30 35 31 27 29 23 10 12 20 4 16 1 18 5 21 13 9 15 24 33 25 34 8 32
p cnf 35 336
-33 -3 -14 -13 0
-27 3 29 4 0
4 25 -24 28 0
-7 12 -31 -30 0
30 -22 -6 27 0
-16 -30 -35 33 0
-7 5 -3 33 0
31 33 18 -20 0
-6 -28 -33 22 0
24 -6 -29 -10 0
-21 -25 20 -9 0
1 18 -24 -5 0
-34 -19 -26 -12 0
8 -21 15 3 0
-26 -17 18 -30 0
-28 -23 -8 21 0
-35 -8 -7 -1 0
-9 -15 8 27 0
9 28 -1 -2 0
25 3 -11 -23 0
3 8 -24 22 0
-2 25 20 -1 0
7 -14 35 -21 0
14 29 17 23 0
32 -25 -35 -13 0
-11 13 9 15 0
34 23 32 6 0
33 -20 -4 24 0
-18 -31 28 32 0
-21 28 -5 -15 0
-1 -19 14 -26 0
35 25 16 -12 0
26 11 35 -33 0
24 -5 -4 7 0
-2 22 3 -28 0
-28 -25 16 -6 0
-2 31 35 12 0
-25 31 -21 -19 0
-34 -13 30 5 0
22 9 8 -35 0
15 27 -28 -11 0
-19 -23 -20 -25 0
33 -26 5 30 0
15 31 21 8 0
-32 31 25 -18 0
-13 -2 22 4 0
9 -30 34 21 0
19 28 -23 -27 0
3 5 6 -31 0
3 20 -2 -31 0
-10 -28 33 -24 0
28 -27 -9 -14 0
-13 -26 33 25 0
-35 -17 10 -7 0
31 21 -10 12 0
19 26 6 -13 0
-19 9 14 -29 0
6 16 -33 -19 0
-23 -6 -2 9 0
-2 21 -23 18 0
10 -18 31 -6 0
-19 6 -35 12 0
-20 17 2 27 0
-35 -23 -25 -10 0
-24 33 -6 31 0
-17 24 -30 35 0
15 -16 -23 32 0
35 31 -20 -6 0
-16 -33 -18 -31 0
-23 -17 -14 33 0
6 -30 -21 33 0
27 11 14 -9 0
5 -17 -25 -22 0
31 32 20 -16 0
-24 26 10 -18 0
20 -3 10 -16 0
-27 -15 -26 -32 0
-34 -1 -4 21 0
2 -15 5 -9 0
6 30 28 -1 0
-1 21 -27 3 0
14 23 26 -18 0
-24 -11 -8 -30 0
9 33 -23 -32 0
28 18 -25 16 0
2 -29 -24 -19 0
-27 -12 17 -6 0
14 33 7 21 0
-16 -27 -34 15 0
-18 7 35 -1 0
-32 4 -31 6 0
33 19 -20 2 0
10 -23 -4 -2 0
20 33 -28 -32 0
-30 31 21 7 0
-4 -30 33 -35 0
12 -14 -2 -19 0
34 30 -3 13 0
20 -11 15 26 0
21 30 -34 3 0
-31 -1 3 -17 0
17 11 3 33 0
23 33 30 25 0
-19 3 30 8 0
-17 -20 -18 -12 0
-30 -19 21 -24 0
-13 -16 20 -2 0
-33 16 -22 24 0
-15 -29 20 -1 0
19 -12 11 -4 0
30 11 2 -1 0
24 -23 -31 -32 0
4 -11 27 -19 0
-26 18 23 -1 0
7 -9 -28 -8 0
24 -19 11 -17 0
18 -13 10 2 0
8 4 34 -29 0
10 9 -4 -7 0
-27 -33 25 10 0
-25 -7 -32 -12 0
9 1 21 31 0
-3 -12 -1 -16 0
-12 -27 -8 33 0
32 -2 21 19 0
25 29 6 15 0
-6 -32 18 -2 0
-4 10 -14 24 0
4 -23 15 -34 0
-4 -14 17 -24 0
-15 1 -29 -21 0
-28 9 -12 6 0
-30 32 11 14 0
-13 -9 -18 35 0
-24 26 16 -15 0
29 32 -14 27 0
-33 -11 -4 29 0
-29 10 31 26 0
-4 14 -5 10 0
7 30 -27 2 0
-25 -6 23 -3 0
30 -29 5 -17 0
9 3 -25 -34 0
-23 10 14 9 0
-3 32 23 -29 0
-26 -33 25 29 0
-13 -11 15 -24 0
-5 -24 -23 14 0
26 -27 29 3 0
6 -22 32 8 0
-17 26 -2 5 0
-27 30 8 -32 0
27 19 3 -11 0
-22 -1 28 9 0
3 -21 -9 -28 0
-27 10 -20 -35 0
16 -29 -14 27 0
-8 6 23 3 0
32 12 18 -13 0
-16 22 12 -24 0
25 30 -26 -19 0
-8 21 34 -18 0
11 -24 2 21 0
-18 34 28 -3 0
-7 21 -34 -17 0
18 -6 -11 -34 0
-33 15 -24 -10 0
-32 -18 -21 -26 0
21 11 -35 -15 0
6 -14 -9 18 0
22 30 21 33 0
-7 21 27 -23 0
19 -12 -13 21 0
13 4 -23 -22 0
-11 -23 -12 19 0
2 6 -14 -10 0
-32 -29 -22 2 0
-24 19 -34 -3 0
-5 -13 19 11 0
13 22 -15 -19 0
-7 -31 -13 -28 0
24 -4 25 1 0
-17 -13 -11 -22 0
-26 27 2 7 0
31 -34 17 -35 0
-16 30 31 -5 0
16 -31 25 -28 0
11 -15 -1 -14 0
24 -26 -21 -29 0
8 35 18 33 0
14 18 33 -35 0
29 -31 9 3 0
-21 -4 12 -10 0
-30 -17 -21 13 0
-35 -33 17 -13 0
4 -30 -23 16 0
10 -6 21 -14 0
-6 30 21 9 0
25 -4 22 -21 0
-2 -18 10 -25 0
13 29 -9 -31 0
-20 -4 10 11 0
20 -12 29 9 0
21 25 12 9 0
20 29 -28 5 0
29 8 6 -12 0
-7 -20 1 -19 0
23 -2 18 28 0
14 33 24 -5 0
-6 12 -18 -21 0
-25 22 -23 -1 0
18 -12 -22 3 0
25 16 -19 29 0
18 -7 -28 -5 0
-27 -26 -25 19 0
2 -17 -8 15 0
-18 22 -19 -1 0
26 -2 5 27 0
33 21 -8 -18 0
18 -8 33 16 0
13 -28 -1 15 0
-9 31 -10 -20 0
-7 3 -29 -16 0
8 -2 34 30 0
-6 32 -26 3 0
-7 34 -6 -9 0
11 31 15 -21 0
30 -35 -13 -9 0
11 23 -24 -16 0
31 28 -30 8 0
17 16 -34 18 0
-26 12 -17 -15 0
7 35 -23 5 0
-21 9 23 18 0
-8 -27 6 4 0
32 4 17 -22 0
19 35 29 -12 0
4 -21 33 -34 0
-19 -32 14 -34 0
4 -27 -32 -31 0
22 -10 19 33 0
32 33 13 -15 0
16 30 -24 1 0
29 -30 17 3 0
-13 33 1 -2 0
18 13 28 16 0
35 2 27 -26 0
-23 19 26 -15 0
5 29 -15 -27 0
-9 -2 18 -1 0
-33 26 9 -10 0
26 -16 -22 30 0
-32 2 18 -17 0
-28 22 -21 18 0
29 13 19 9 0
9 16 24 -25 0
28 22 -18 21 0
-23 -27 26 -7 0
21 30 -6 -2 0
27 13 -24 -10 0
9 33 -25 15 0
13 21 28 8 0
-6 -19 -9 35 0
22 34 -2 11 0
7 30 8 34 0
-9 7 27 -17 0
31 -33 30 -8 0
1 -20 9 2 0
-9 -25 -18 22 0
27 -5 -2 -34 0
35 3 -16 23 0
21 1 11 20 0
32 20 -26 -27 0
-21 -2 -11 17 0
19 15 33 12 0
21 4 26 12 0
2 29 10 23 0
-34 4 -22 -23 0
20 -18 -28 -6 0
30 -34 12 29 0
-10 2 25 31 0
-17 26 -34 -2 0
-14 -4 30 18 0
30 -27 35 21 0
-24 26 -32 -29 0
-20 2 32 -26 0
24 -13 32 10 0
-29 20 5 27 0
10 2 -34 -4 0
-12 22 -28 20 0
10 7 35 -19 0
8 -26 1 -5 0
-16 7 23 -22 0
-6 -27 9 31 0
-33 20 27 -9 0
-16 15 -9 -33 0
11 19 -33 13 0
33 -2 34 -16 0
17 -14 -12 8 0
-2 27 5 32 0
-33 4 -7 3 0
15 -31 17 3 0
15 -34 -25 31 0
7 15 19 -5 0
24 15 -16 19 0
-25 -19 -8 13 0
5 6 17 -19 0
-2 -25 -12 -34 0
-22 -4 -19 26 0
21 1 7 27 0
-8 -33 -13 34 0
15 -12 -4 -26 0
-32 26 -13 5 0
-28 26 1 -6 0
-23 13 28 30 0
29 28 -9 -24 0
18 13 14 -17 0
26 -32 9 27 0
-4 -13 -28 -31 0
29 -12 -15 -10 0
25 7 24 4 0
-34 -28 5 10 0
-4 27 -32 2 0
6 -9 -28 26 0
-21 -29 31 -27 0
-9 29 -25 13 0
16 -14 33 -10 0
11 -28 -26 -23 0
18 10 -16 -21 0
19 12 -26 31 0
-6 -30 -8 -32 0
-33 -11 16 -18 0
9 34 14 -22 0
28 -34 -19 -32 0
20 -18 9 16 0
-24 -19 -31 -8 0
