c family=4-SAT n=35 instance=2 seed=726001144 models=32
c order 32 19 28 17 4 8 29 35 1 16 21 14 3 9 7 6 23 30 22 11 18 25 12 20 10 26 15 2 31 13 5 27 33 34 24
c order 22 8 31 15 24 29 30 27 2 10 18 3 35 1 26 32 28 25 6 13 11 23 20 21 17 14 4 5 16 12 7 9 33 34 19
c order 35 25 7 23 4 31 2 18 12 8 32 6 20 15 30 3 17 13 29 9 24 14 16 26 11 28 27 1 21 33 22 34 10 19 5
c order 1 11 34 27 8 2 24 32 25 4 10 35 12 33 29 5 18 20 17 6 16 9 15 23 30 22 31 3 7 19 28 26 13 21 14
c order 23 20 1 25 29 24 4 31 8 19 11 30 3 18 32 16 26 10 5 28 17 21 7 13 9 34 35 6 14 2 27 12 15 22 33
c order 4 35 15 19 10 22 18 12 17 8 16 25 13 2 3 23 24 5 29 9 1 34 21 32 14 30 33 11 27 28 7 20 26 6 31
c order 35 2 1 12 9 10 7 32 33 21 29 3 17 19 23 13 5 4 26 14 15 28 27 8 22 31 20 24 18 16 11 30 34 25 6
c order 35 9 14 16 7 17 20 8 4 6 1 22 2 23 29 24 27 21 10 15 33 13 34 32 5 30 28 12 25 11 3 19 31 18 26
c order 14 12 16 28 7 23 19 30 17 18 29 4 25 15 21 34 6 26 1 8 32 27 11 20 10 22 35 13 9 3 2 31 33 5 24
c order 28 32 10 12 2 27 31 33 9 19 6 11 14 25 24 16 22 23 13 21 18 26 20 34 3 17 29 8 30 4 5 7 35 15 1
p cnf 35 336
6 -25 -14 -10 0
9 7 -14 -29 0
22 1 29 11 0
27 -28 9 -3 0
12 -34 16 -10 0
21 -31 6 33 0
-25 -16 -28 8 0
-13 -30 -25 -15 0
26 9 -5 21 0
22 -15 16 10 0
-33 2 -4 11 0
-4 29 33 18 0
14 19 -7 25 0
-15 -9 -5 30 0
-20 7 -34 9 0
21 19 3 -1 0
29 11 13 -33 0
-18 22 14 27 0
30 24 -23 2 0
20 18 -35 -5 0
24 -19 26 -12 0
-2 -26 -18 6 0
23 22 18 24 0
-2 -16 9 -31 0
-4 11 -32 6 0
19 3 27 15 0
-18 28 -17 -20 0
-16 32 -7 29 0
5 11 9 30 0
-24 -7 -30 -9 0
31 -20 -34 -10 0
-6 -1 33 16 0
14 16 27 20 0
6 -1 -20 -3 0
27 5 -3 10 0
-34 32 -16 25 0
-5 -16 -19 -23 0
-30 3 -14 28 0
20 -26 -21 11 0
18 -33 14 16 0
14 17 -12 1 0
-18 1 -23 -10 0
16 6 -18 19 0
-22 28 32 -29 0
-4 9 -25 -1 0
20 33 30 -5 0
8 29 14 2 0
24 -3 -20 13 0
28 -26 -25 -13 0
2 13 6 -7 0
11 -3 -31 1 0
-22 -5 -13 18 0
21 -33 12 -25 0
-26 -31 -32 22 0
35 11 10 23 0
4 24 -19 20 0
-29 4 28 -17 0
16 -14 9 -29 0
13 28 -35 17 0
-5 21 -16 30 0
-5 31 29 -32 0
-26 -24 15 -2 0
10 -6 11 35 0
-5 18 19 15 0
14 27 -25 -29 0
20 23 -33 6 0
-6 11 20 -25 0
30 5 -27 24 0
-31 28 -34 -29 0
-25 -34 5 27 0
-31 26 -16 -17 0
30 -11 -34 7 0
7 4 33 30 0
35 17 -7 25 0
34 2 11 25 0
12 4 -24 -20 0
-13 8 -23 7 0
-9 -20 11 29 0
-8 12 24 3 0
-11 12 33 5 0
16 -13 23 3 0
-4 -24 27 -34 0
8 -31 -4 -11 0
-28 -9 26 -32 0
17 -28 -18 8 0
2 -1 -34 14 0
-2 20 -35 -1 0
-25 -13 5 32 0
-22 -3 33 -7 0
29 13 32 -2 0
-10 6 -32 27 0
-22 -13 -29 -3 0
-11 27 -6 13 0
27 -17 1 8 0
8 -19 28 17 0
12 -14 -23 26 0
13 29 -12 -15 0
-33 -31 18 -3 0
-19 -31 22 4 0
23 24 -8 -1 0
-10 8 -5 -19 0
6 2 13 -5 0
-5 19 -7 33 0
-35 27 30 11 0
4 1 34 22 0
-24 -13 30 -17 0
-4 -24 -17 -28 0
-1 6 -11 -23 0
-3 26 -4 -17 0
13 16 -24 30 0
-26 -14 10 -16 0
3 -16 -28 -7 0
34 -23 12 16 0
-6 -8 23 -30 0
22 33 -35 -29 0
-18 7 4 32 0
-33 2 19 23 0
12 3 5 1 0
-19 -13 2 -29 0
25 -31 17 9 0
-21 25 -12 -1 0
25 10 -6 -9 0
-19 -14 34 3 0
-23 28 29 -4 0
8 9 3 -32 0
25 9 4 -17 0
30 -31 15 7 0
-20 5 32 7 0
-29 -28 25 -22 0
-4 -35 31 -23 0
14 -16 6 -29 0
16 -1 3 -15 0
-32 16 -12 29 0
-13 -14 11 26 0
-3 16 21 4 0
20 -7 -16 -32 0
3 1 33 9 0
20 -10 -9 -8 0
-31 -14 -21 -18 0
-1 22 -4 10 0
-35 29 12 -30 0
24 31 33 -12 0
35 31 -34 -29 0
19 25 13 18 0
23 6 -22 35 0
18 16 -15 34 0
-22 32 -31 18 0
11 -9 -15 -25 0
10 6 28 -22 0
26 -10 5 -11 0
-9 -35 -14 -3 0
-12 -27 6 15 0
13 34 -14 17 0
-23 -12 27 -34 0
-35 31 -27 22 0
-18 -13 -17 30 0
-19 18 -10 11 0
8 -33 -12 31 0
-23 -25 30 -31 0
-4 -16 33 -8 0
-26 -23 -34 -4 0
19 -25 -6 9 0
-29 -30 27 14 0
-3 -31 23 -11 0
-29 6 22 -26 0
-17 33 -18 -19 0
-18 23 -7 -21 0
14 23 35 -27 0
-13 -5 30 18 0
-2 -10 -5 27 0
-26 -15 9 -21 0
-2 -29 -14 23 0
32 16 21 -19 0
-1 -26 7 -12 0
-6 -22 4 11 0
26 7 16 -30 0
-30 -34 -21 -32 0
-25 -18 -33 -5 0
18 2 14 8 0
-21 -27 -33 -29 0
21 -32 24 -29 0
4 6 -8 -5 0
-35 -21 -31 5 0
-20 24 22 -25 0
15 -23 -24 9 0
-15 16 35 -25 0
17 3 -9 -18 0
-12 -17 -13 -31 0
32 -28 -29 -33 0
-17 -9 -1 14 0
-34 24 19 1 0
28 33 16 -5 0
5 -11 -22 -18 0
-3 -19 -5 -13 0
29 -31 9 -10 0
-35 5 -34 32 0
26 -27 25 12 0
15 -20 30 16 0
-31 34 28 -14 0
-29 -2 -19 6 0
19 13 -1 5 0
26 35 -31 -4 0
-12 -11 -28 -34 0
5 18 -29 8 0
-8 -26 -5 -25 0
13 -34 -5 25 0
-24 9 -14 12 0
11 16 26 -25 0
-20 12 -4 -18 0
-2 1 21 -7 0
-21 32 -13 -11 0
23 2 -21 3 0
14 6 -22 -26 0
-28 -10 9 -5 0
-28 -8 23 12 0
-12 -25 13 26 0
-27 21 9 -17 0
13 29 6 -19 0
5 23 -1 -24 0
-5 23 33 6 0
-31 -10 -7 4 0
-11 -20 -1 -13 0
-14 24 -15 12 0
-16 31 22 -33 0
-2 -28 22 8 0
3 21 14 -34 0
-28 -34 35 27 0
1 -20 30 -19 0
35 -34 28 -15 0
-34 -23 35 10 0
-10 20 -21 -6 0
-19 32 -11 -34 0
11 31 28 14 0
-20 30 -13 16 0
18 25 -22 -34 0
9 27 -31 -21 0
21 -3 31 28 0
-8 -12 -17 -5 0
5 -25 -3 23 0
25 -9 29 -20 0
-20 31 -8 -32 0
-12 8 -17 21 0
27 10 8 -13 0
25 -2 -34 28 0
-1 13 -33 22 0
-8 -28 -5 -27 0
29 25 14 -7 0
-1 -11 35 -29 0
-22 6 25 31 0
25 23 34 -35 0
-2 -19 -16 -4 0
-17 -35 -2 -32 0
21 -10 4 28 0
-26 6 -19 -22 0
5 -26 22 -10 0
-5 33 27 -22 0
28 10 18 -14 0
-31 -13 -35 -14 0
9 16 7 -3 0
-1 -26 9 11 0
-35 -5 32 -8 0
-17 -21 -35 2 0
16 -13 -7 -35 0
34 22 -25 -11 0
-23 17 -27 33 0
18 -27 33 -35 0
-9 -2 27 21 0
-24 11 22 -12 0
4 15 -35 22 0
33 -22 -17 6 0
16 1 23 -18 0
-9 -25 11 20 0
-30 4 3 17 0
15 22 9 -24 0
17 -30 35 12 0
26 -5 9 -10 0
-11 32 9 -3 0
17 34 1 -33 0
-35 -23 26 -8 0
-13 -2 -32 -18 0
-33 30 31 2 0
-28 -20 6 -2 0
19 -31 -34 26 0
33 -21 -12 -5 0
-29 -1 -3 35 0
-4 26 -7 -28 0
-23 25 6 -34 0
17 -32 -27 -6 0
33 27 30 10 0
-11 10 4 3 0
-1 25 -4 27 0
-22 -13 -6 -3 0
-7 -4 3 -25 0
10 -16 -35 -29 0
-10 24 8 -9 0
-7 -21 12 31 0
-23 26 24 -29 0
-35 19 32 33 0
29 -18 -1 10 0
-25 -3 13 -8 0
-35 25 -21 -28 0
35 23 -11 -18 0
-18 -15 10 9 0
19 -10 -20 -1 0
-25 -7 23 -13 0
27 24 -7 17 0
-3 -2 -23 -33 0
-22 12 -13 -35 0
-19 11 31 22 0
-8 21 -32 28 0
-5 12 22 -14 0
-19 -16 -26 33 0
-17 34 9 19 0
-35 8 14 -20 0
4 -12 23 6 0
-7 29 13 -1 0
-1 -2 23 21 0
-23 5 9 -4 0
16 31 -6 20 0
4 -19 -5 -3 0
2 5 19 18 0
-17 -15 -4 -26 0
-8 -3 -21 -23 0
-13 25 -28 -30 0
-7 30 -8 5 0
-14 7 5 -1 0
-10 -35 3 33 0
-3 5 -24 25 0
16 -30 -26 25 0
26 20 25 12 0
-14 7 3 -16 0
-8 18 -25 7 0
20 9 4 -1 0
20 -25 -17 -28 0
33 -24 20 15 0
-31 32 -7 -33 0
