c family=4-SAT n=35 instance=1 seed=726001144 models=1
c order 19 12 35 8 29 20 31 7 3 14 16 24 18 22 32 33 10 25 11 28 5 9 26 23 13 27 30 15 6 17 1 34 21 4 2
c order 31 23 7 4 18 30 22 9 3 26 21 11 29 13 17 12 20 1 19 28 15 8 35 33 34 16 6 10 32 5 27 24 2 25 14
c order 13 22 4 20 32 15 26 12 1 35 17 29 34 33 3 31 18 2 14 6 5 11 8 25 7 9 23 28 21 30 19 10 16 24 27
c order 35 2 30 4 7 24 12 33 14 21 11 20 6 23 1 18 27 10 15 3 17 19 22 16 9 25 32 28 5 13 8 34 29 26 31
c order 3 16 11 32 12 26 30 2 1 22 34 23 20 29 19 14 21 9 24 25 6 10 27 17 33 4 13 8 5 28 35 7 31 18 15
c order 15 32 13 31 22 12 9 33 17 4 8 5 26 20 30 18 10 7 16 6 25 27 19 34 2 3 28 29 35 23 11 1 14 21 24
c order 19 15 29 22 31 30 26 18 8 27 4 21 23 12 3 33 16 5 2 10 17 7 34 13 9 20 25 1 14 11 28 35 6 32 24
c order 22 3 16 1 26 13 10 5 28 15 31 23 19 8 9 30 24 27 34 21 25 20 12 6 18 17 4 2 29 35 14 11 7 32 33
c order 4 18 23 20 33 3 12 19 29 14 5 10 7 15 13 16 1 34 35 27 11 6 2 25 9 24 28 22 31 8 32 17 30 21 26
c order 7 35 22 3 4 10 33 30 31 23 6 25 9 13 17 21 5 19 18 27 2 28 26 29 12 8 24 14 16 34 1 32 15 20 11
p cnf 35 336
-26 23 3 11 0
35 12 -33 -17 0
-22 7 1 -33 0
-8 -14 -17 -18 0
-7 5 -20 -35 0
-30 -23 -20 22 0
-17 -30 5 -27 0
-10 21 12 4 0
-35 -2 -29 31 0
33 11 35 10 0
15 1 -19 33 0
2 -30 10 -25 0
-11 -8 12 23 0
9 24 -10 35 0
-18 -1 14 30 0
14 31 -3 16 0
-7 -9 -28 2 0
-16 -7 33 -13 0
-28 31 -34 -11 0
20 5 -21 11 0
-9 2 20 -32 0
28 29 -26 1 0
-11 7 -17 22 0
20 -29 -24 23 0
32 -13 24 -4 0
14 -16 -25 27 0
18 -28 34 -6 0
31 17 -27 6 0
-25 13 -21 -4 0
4 -18 -25 10 0
31 17 27 33 0
35 28 -18 -9 0
32 -31 -34 26 0
-6 -5 26 -27 0
19 22 -6 -13 0
5 25 -21 28 0
-21 -29 -31 -15 0
17 -12 2 -14 0
30 1 -10 8 0
-27 -29 -10 21 0
23 -31 -19 12 0
25 27 23 10 0
-20 -17 -25 -2 0
19 15 26 34 0
-5 14 9 -4 0
13 -15 23 -18 0
-5 10 -3 28 0
26 -16 33 2 0
1 23 -12 32 0
-6 -8 -5 35 0
34 23 25 21 0
25 31 -14 -34 0
16 -20 -30 -35 0
27 1 33 26 0
-13 -7 -19 -5 0
33 35 23 -12 0
-30 -11 -4 -24 0
33 -18 -7 16 0
-7 34 -19 -29 0
12 1 -3 19 0
-24 -26 -19 34 0
-2 29 32 18 0
-30 -8 -20 16 0
26 7 -24 18 0
-34 -31 -26 -10 0
23 -18 -30 21 0
31 -15 -27 -35 0
7 -10 -33 -32 0
8 1 28 -18 0
-25 -21 33 6 0
-29 33 -12 -3 0
20 -4 -18 28 0
-34 2 -35 31 0
-24 10 -31 1 0
10 -17 12 -7 0
9 -8 13 24 0
-24 -5 32 9 0
4 -9 29 -17 0
-17 -25 14 -2 0
-13 15 7 -16 0
27 -26 -34 30 0
-3 10 33 5 0
31 -17 -29 9 0
-10 -21 -17 -6 0
2 -15 -35 -30 0
-34 14 24 10 0
-18 -2 5 20 0
-24 -3 1 22 0
-34 9 32 22 0
2 -30 11 10 0
-34 12 -30 11 0
-24 16 30 8 0
-6 12 7 -11 0
18 15 -30 6 0
6 11 30 15 0
-6 18 34 -29 0
-13 31 -28 -14 0
29 -10 14 -15 0
-29 28 11 -4 0
-3 -30 -4 -13 0
15 32 4 -31 0
-8 22 4 7 0
-24 22 16 28 0
-9 -19 23 -6 0
29 16 26 -11 0
-14 -29 4 16 0
-29 -27 9 -10 0
32 -23 13 -17 0
-35 30 7 -4 0
-21 10 7 -5 0
-8 -17 24 32 0
-3 11 -14 26 0
7 21 -23 -13 0
9 14 27 17 0
-35 16 18 -2 0
17 13 16 10 0
8 -31 3 4 0
12 11 20 -34 0
7 -4 35 28 0
-28 3 22 -31 0
6 4 27 10 0
8 4 -33 29 0
17 -30 16 32 0
-2 13 29 17 0
21 -19 31 11 0
16 20 14 -25 0
-12 26 30 -7 0
-27 -21 -23 17 0
29 -34 -4 21 0
6 -11 12 23 0
-23 29 5 -19 0
-19 2 23 -24 0
-26 31 -23 11 0
-34 15 -9 24 0
-17 -5 6 -23 0
-24 9 19 35 0
31 19 -9 -28 0
-16 5 17 19 0
10 -22 20 2 0
-1 24 27 25 0
-24 25 -4 -32 0
-3 -31 10 -6 0
5 -2 7 -13 0
16 -20 25 -10 0
2 -14 7 -1 0
15 5 6 19 0
12 -1 -24 6 0
19 -15 2 4 0
17 20 -18 30 0
3 16 15 5 0
-34 -20 13 19 0
-19 -33 12 -24 0
-14 10 -13 8 0
-33 -9 -13 6 0
24 -25 -19 32 0
-11 -9 27 29 0
18 4 12 7 0
26 -29 22 -24 0
25 19 -34 -31 0
-14 -30 -11 -17 0
27 -21 -24 16 0
-9 23 13 24 0
35 -25 -30 -10 0
-4 -13 22 -5 0
8 23 -1 18 0
2 -23 31 -35 0
-22 6 -16 -31 0
13 -5 -17 -15 0
14 -29 -10 33 0
-11 -20 32 -4 0
-32 -14 -2 10 0
-23 15 32 6 0
-19 32 8 22 0
19 -33 21 -14 0
-18 -27 7 31 0
-16 -10 -19 35 0
-35 9 -30 14 0
-23 -6 -34 11 0
35 -20 -31 -4 0
20 -31 13 25 0
-10 34 -28 -3 0
-14 -19 18 -22 0
3 -32 -20 -7 0
-26 -2 -19 -23 0
2 30 -11 22 0
28 -10 -3 -30 0
11 -24 32 -5 0
11 9 -32 -33 0
16 23 -10 31 0
-15 29 33 24 0
-28 29 26 25 0
34 24 1 -13 0
-9 -1 -15 27 0
-16 -31 21 11 0
-33 -17 -9 -1 0
-35 13 -24 15 0
-35 6 -28 -9 0
-20 -18 27 6 0
-11 -19 14 -21 0
3 6 33 -1 0
-28 -17 33 -4 0
-5 14 25 -33 0
14 29 -10 -28 0
20 6 -21 -29 0
17 5 -13 -16 0
-11 31 -35 -26 0
-25 -22 12 32 0
14 23 15 -31 0
-32 -5 -7 15 0
31 -34 -17 22 0
-9 -35 4 23 0
-8 13 26 -33 0
-33 30 11 10 0
-33 28 -10 -20 0
-24 -26 34 1 0
34 -26 21 19 0
32 9 18 -17 0
-26 24 31 -25 0
-8 22 -32 2 0
3 26 -2 -4 0
17 -7 19 29 0
-16 1 8 5 0
-13 25 23 28 0
-16 -15 -28 -10 0
-3 -10 -13 20 0
-32 2 11 -9 0
-21 13 8 -4 0
30 -11 16 15 0
27 -35 -28 -24 0
-11 -14 18 -2 0
3 19 -5 -17 0
8 -27 -1 -32 0
-16 -28 -8 -17 0
-22 -24 6 -12 0
21 29 13 26 0
28 30 -2 -23 0
-11 8 26 20 0
-27 -10 -16 -25 0
-19 -15 -16 24 0
26 2 8 14 0
-15 1 19 27 0
-2 22 30 20 0
18 11 -12 22 0
-31 -16 34 28 0
-19 13 -18 -28 0
-33 -22 -7 -13 0
32 23 15 -26 0
-32 33 20 13 0
18 14 -5 -25 0
-29 -34 -9 16 0
-22 -9 -19 28 0
-21 -3 -33 17 0
16 35 -28 -29 0
22 -6 -2 -11 0
29 -24 -32 6 0
25 11 27 2 0
-33 16 -27 -25 0
-7 30 4 -17 0
7 -21 -28 30 0
9 29 -2 -28 0
30 -5 -4 2 0
-23 28 35 -27 0
34 30 -26 -11 0
-33 32 10 3 0
-11 -7 12 25 0
29 16 -6 -12 0
22 -32 -30 -4 0
25 8 31 2 0
-16 1 8 -22 0
-4 26 12 -16 0
-28 23 25 33 0
13 -31 -23 -15 0
-34 -30 27 13 0
-33 -13 21 -5 0
-1 -3 14 -13 0
-9 -25 15 -3 0
2 30 8 34 0
-29 16 21 35 0
-12 24 -29 10 0
-25 24 -20 9 0
31 33 20 1 0
17 4 -26 10 0
-9 -28 -23 -22 0
-21 -17 30 -20 0
24 -35 -27 4 0
1 -31 -9 -33 0
-14 -13 -21 -12 0
-12 -1 -27 -16 0
34 -35 -31 29 0
19 18 -28 -14 0
4 -35 -8 -14 0
6 27 -16 -32 0
-5 -4 -28 12 0
-32 -4 3 -20 0
19 -32 -10 3 0
-11 19 3 -30 0
28 32 -25 8 0
-28 3 -4 30 0
35 4 -8 -7 0
35 -13 34 20 0
7 9 15 11 0
-29 -7 -30 -32 0
-35 21 33 6 0
-19 2 34 16 0
-17 -33 19 32 0
-6 23 -17 -20 0
31 25 -20 32 0
-19 7 17 35 0
4 -20 -33 -35 0
15 34 -27 -14 0
-13 20 -35 5 0
32 19 -13 -31 0
-14 -23 20 4 0
16 8 -5 -18 0
-5 -15 -3 1 0
-32 25 22 29 0
-16 -2 19 -1 0
23 -6 4 -17 0
-19 -13 15 23 0
-15 23 12 3 0
-15 30 7 14 0
14 13 -3 -4 0
22 -34 16 35 0
-6 2 -18 -15 0
-22 2 -34 -31 0
21 -9 34 -35 0
-21 -10 -12 13 0
-21 2 31 10 0
-19 -16 -6 -33 0
33 -25 18 10 0
-3 32 -9 4 0
32 6 11 -3 0
-12 18 -25 -11 0
17 -35 2 -6 0
33 -26 27 4 0
19 -15 -2 18 0
