c family=4-SAT n=35 instance=0 seed=726001144 models=13
c order 4 32 30 35 6 21 19 23 5 31 27 8 25 20 34 7 17 24 2 16 11 18 29 33 9 12 1 28 22 14 3 26 10 15 13
c order 34 24 32 19 15 25 26 3 12 30 1 31 20 17 14 5 33 29 23 4 27 21 9 35 7 16 2 22 8 13 18 6 10 28 11
c order 25 27 18 4 24 11 32 17 33 28 7 10 5 3 31 12 30 6 13 14 34 26 2 19 1 23 29 9 8 20 35 22 16 21 15
c order 12 27 23 7 30 28 5 29 18 35 2 33 34 16 20 1 11 21 10 15 19 6 31 9 4 22 17 14 25 26 13 24 32 3 8
c order 7 32 13 10 5 24 3 9 19 17 8 6 14 23 33 31 30 18 12 28 35 26 1 22 15 34 20 25 27 16 29 21 4 2 11
c order 15 16 20 7 27 3 17 23 22 6 14 13 34 10 28 25 8 33 21 9 5 29 18 26 24 35 19 12 11 2 32 4 1 31 30
c order 9 26 24 22 17 21 31 1 20 33 5 7 2 15 28 27 12 3 6 18 29 4 35 11 13 14 25 16 10 30 19 23 32 8 34
c order 33 6 11 23 15 21 28 13 26 29 27 12 18 4 20 22 35 7 10 25 30 9 2 19 14 3 8 34 31 5 16 32 17 1 24
c order 12 13 24 8 16 30 5 17 2 21 1 35 25 6 10 14 20 9 4 34 33 32 26 28 27 19 31 18 22 15 3 7 11 23 29
c order 7 28 8 10 19 12 29 20 6 33 11 4 25 22 16 27 5 32 3 35 34 18 26 1 14 31 15 2 21 17 23 24 13 30 9
p cnf 35 336
-9 -30 -2 6 0
-13 23 -14 -11 0
-26 27 10 -34 0
31 2 -3 -13 0
-10 17 8 15 0
-22 -5 12 16 0
-22 4 16 -20 0
16 -22 -14 -6 0
33 23 10 -3 0
9 -16 -4 18 0
-35 16 26 -4 0
29 18 13 15 0
-6 -3 -14 -35 0
-18 -13 -35 30 0
-3 8 -5 29 0
-23 -21 -3 -7 0
23 -13 -19 -33 0
27 -26 -19 -15 0
11 -13 29 18 0
-18 9 -4 23 0
31 23 -16 20 0
-31 17 12 4 0
10 -33 -29 -12 0
-14 -7 -5 34 0
11 -19 -18 5 0
-26 19 15 33 0
17 -35 30 -15 0
-22 -5 -9 -1 0
-30 10 -21 7 0
-18 -32 -9 -19 0
-18 -12 -30 -14 0
-20 24 8 -13 0
28 -17 -3 -24 0
7 2 1 15 0
2 12 22 -19 0
-35 -2 -29 -3 0
-1 -4 12 5 0
17 2 11 -33 0
-32 -6 -33 12 0
2 -15 -1 29 0
20 -19 5 13 0
33 3 -7 14 0
26 32 -31 15 0
14 5 33 8 0
12 -6 -28 -1 0
-12 -8 -34 -30 0
34 2 1 -12 0
-21 32 1 24 0
-28 17 12 -22 0
-18 -3 26 -19 0
19 -2 9 10 0
-19 5 -22 12 0
27 -34 32 7 0
19 26 -24 10 0
-19 -17 -15 -33 0
-6 22 13 -30 0
-18 -7 -29 -12 0
-20 -28 18 22 0
-30 -4 -24 -6 0
10 -35 -15 -4 0
28 -19 -18 -33 0
9 6 18 -16 0
-21 -20 31 32 0
1 -27 -25 33 0
-8 33 -24 -19 0
-20 -28 30 16 0
8 -33 -34 -7 0
2 33 23 5 0
16 13 28 10 0
7 -34 -24 -19 0
13 33 24 -1 0
34 20 -30 -9 0
28 -4 26 18 0
14 -5 7 32 0
15 -23 -30 14 0
-34 -6 -33 23 0
17 5 -16 -22 0
-29 -8 25 23 0
5 -21 -15 18 0
-1 -24 -4 -30 0
18 -8 9 -7 0
1 4 20 7 0
22 -21 26 10 0
1 11 -28 5 0
-12 -14 9 30 0
-19 5 7 -18 0
20 -14 -12 -13 0
-15 24 32 -34 0
35 -15 -31 -33 0
8 -4 25 -21 0
23 16 -11 28 0
-18 -27 24 -13 0
-20 -6 4 -27 0
-28 -23 -1 -17 0
-10 -7 16 -18 0
-10 -29 -8 27 0
-25 -18 31 -9 0
-26 -13 28 27 0
-32 8 -13 -7 0
-1 20 24 -28 0
5 -30 12 26 0
-14 -18 -9 -20 0
-32 -15 -19 -18 0
3 22 -13 -1 0
32 -14 28 20 0
9 -21 7 -12 0
19 35 29 4 0
13 -31 -34 -7 0
-16 -13 -5 -30 0
21 -22 28 12 0
-5 -8 22 27 0
18 10 -8 23 0
-15 -32 -9 -33 0
22 26 -19 25 0
35 -7 23 9 0
34 8 32 -23 0
-2 -25 -9 34 0
22 33 24 30 0
28 -5 20 -14 0
-32 -25 21 6 0
-11 -30 -25 -12 0
34 -5 -19 -18 0
-28 14 -9 19 0
-32 -21 -26 1 0
-31 -17 -19 -15 0
28 -11 25 21 0
-34 6 1 21 0
-35 18 -33 -14 0
-27 14 -7 -6 0
-34 26 35 33 0
-25 -33 2 -30 0
-6 22 34 26 0
10 35 33 -14 0
-6 14 12 34 0
-27 -21 -18 19 0
-19 -23 -26 -7 0
-1 -15 12 9 0
1 -33 -11 -32 0
-14 -23 5 -29 0
3 22 -2 -30 0
12 -21 7 -17 0
-25 -3 33 22 0
-16 -4 29 -12 0
-18 -27 -7 3 0
-33 -22 12 -7 0
21 24 -11 -27 0
14 -32 17 19 0
-18 7 20 -15 0
-28 -32 -24 -12 0
5 34 33 -8 0
19 -13 -14 -32 0
11 -23 -14 8 0
2 -28 -29 -14 0
-4 19 1 -23 0
-35 -6 -26 -4 0
5 -27 12 23 0
8 20 -13 -22 0
-16 20 31 5 0
-19 1 25 -4 0
-33 -34 -6 -15 0
-30 -3 7 -23 0
15 27 -22 13 0
6 5 12 -1 0
18 23 16 -8 0
-12 -10 20 31 0
-34 8 -16 29 0
-17 -31 24 35 0
-9 -29 15 12 0
7 -15 17 -16 0
-17 18 -10 -32 0
-4 16 -13 7 0
-23 -33 -5 34 0
13 8 19 -33 0
11 -26 34 23 0
-29 11 -4 32 0
24 35 13 -5 0
26 -6 -23 9 0
20 -30 8 -17 0
28 -4 8 2 0
-24 28 2 -26 0
-21 8 -4 23 0
29 -2 28 34 0
1 23 33 -14 0
10 -16 35 33 0
-18 13 19 29 0
4 -19 -11 14 0
5 -35 21 -20 0
-12 9 5 -14 0
17 -19 29 -30 0
-33 22 -18 21 0
7 -11 25 17 0
-4 -22 -1 -19 0
-20 -16 -17 9 0
-3 -25 -14 2 0
30 -23 -29 17 0
-28 26 8 -6 0
-32 -10 -16 21 0
-9 -25 24 12 0
5 -11 -12 -16 0
27 28 14 34 0
3 14 -16 5 0
-12 35 28 -30 0
-24 17 -16 18 0
-26 3 22 -31 0
-30 29 18 -15 0
-28 -32 -20 1 0
-10 24 1 11 0
-35 30 -14 -16 0
35 2 -21 26 0
-20 32 27 6 0
25 -32 15 16 0
19 -25 -13 -17 0
26 -14 31 6 0
-19 15 -13 -25 0
-10 -2 -30 -15 0
29 -19 2 13 0
-17 -32 -13 12 0
-26 -14 1 32 0
18 23 10 -12 0
-2 -30 -9 -27 0
-12 -16 35 -22 0
15 23 -6 3 0
-15 13 -9 -35 0
-20 14 1 6 0
33 11 18 -15 0
-18 5 17 -8 0
3 -20 -24 -16 0
7 9 6 2 0
-14 23 6 -7 0
2 -13 10 -9 0
5 18 -13 -9 0
23 7 -10 5 0
21 20 -19 -31 0
11 -25 13 12 0
26 -10 -8 12 0
-11 14 9 12 0
23 -16 -17 -22 0
-11 -15 35 13 0
7 -8 -9 -25 0
-6 13 5 3 0
32 16 14 -30 0
-19 -1 -35 -27 0
14 -16 32 -31 0
12 9 -34 1 0
33 -32 2 30 0
24 9 -1 -4 0
14 -25 -20 30 0
-20 -1 -15 11 0
30 -2 -9 27 0
-10 -34 8 14 0
32 -34 -25 26 0
-35 -1 25 34 0
33 -27 17 28 0
-25 26 21 -22 0
29 -24 -34 21 0
9 -25 -31 26 0
5 22 -13 3 0
26 -3 19 21 0
-25 31 34 29 0
15 -5 21 1 0
22 -1 5 29 0
-6 -18 -7 -22 0
-2 -22 29 20 0
-27 16 18 13 0
-31 1 2 4 0
-19 23 7 1 0
-1 15 -2 9 0
-30 -5 12 22 0
13 2 -32 21 0
-12 35 21 33 0
-21 -9 -6 29 0
10 -22 -34 31 0
24 -3 -10 -25 0
15 1 31 2 0
7 -1 33 28 0
-27 -34 -23 31 0
-17 24 1 -16 0
35 -18 8 16 0
-11 -16 -34 21 0
23 26 13 34 0
-16 -8 -30 12 0
17 -25 16 5 0
-13 3 -20 -29 0
8 -32 1 4 0
9 4 27 -22 0
7 -28 -24 -16 0
24 -16 10 4 0
20 5 3 -22 0
28 13 17 32 0
-31 26 23 24 0
-17 5 18 14 0
32 20 9 33 0
23 13 14 32 0
15 -33 -14 -27 0
2 11 7 -18 0
11 2 -21 10 0
-12 21 32 -35 0
31 13 -19 -32 0
16 -11 -1 34 0
-25 -28 32 -24 0
25 6 -16 11 0
7 34 -16 -22 0
30 -24 -13 -32 0
3 -30 -1 -5 0
-4 7 20 -19 0
17 -32 -18 11 0
2 -7 -17 22 0
-18 -11 32 -10 0
-11 -28 -6 -15 0
-19 27 6 30 0
-1 11 -22 20 0
-6 -1 -18 34 0
15 10 -28 -23 0
-10 -16 -32 -4 0
-22 -20 30 32 0
-5 31 11 -19 0
19 10 -18 -29 0
-21 -35 -5 -16 0
-23 -35 2 -19 0
-12 -23 -31 -14 0
28 -33 -18 22 0
14 -24 11 20 0
28 -34 -12 -4 0
6 -26 21 17 0
11 8 1 -7 0
-30 -26 21 20 0
35 -4 -7 -21 0
-29 33 -18 -26 0
11 -10 -27 9 0
-22 6 -28 -14 0
-18 -26 4 24 0
-30 -25 34 -18 0
6 -1 34 25 0
14 -23 33 -35 0
23 16 25 34 0
-21 3 16 34 0
