c family=4-SAT n=40 instance=1 seed=726001144 models=4
c order 34 11 23 16 31 26 8 7 25 38 40 36 30 28 20 32 21 12 27 5 13 14 10 3 9 6 33 19 4 35 37 18 15 17 39 24 22 29 2 1
c order 17 29 30 14 20 15 3 24 1 23 21 22 18 32 11 8 26 40 28 10 33 4 13 7 27 39 12 25 37 2 19 31 36 9 34 35 6 5 38 16
c order 22 29 21 23 34 6 32 36 13 38 33 31 5 20 28 1 9 10 7 37 15 25 12 3 39 16 24 40 18 14 30 8 4 35 2 26 11 17 27 19
c order 5 25 22 28 36 3 20 11 34 8 39 37 16 30 19 7 24 35 15 29 14 23 9 4 40 2 31 27 10 18 32 26 33 13 6 17 38 1 12 21
c order 31 5 39 23 34 28 37 26 30 15 20 16 10 6 8 12 25 27 33 21 13 32 22 7 35 40 19 38 18 17 1 3 29 9 14 11 24 2 4 36
c order 27 16 2 1 25 7 4 21 11 9 31 35 5 12 3 36 19 22 18 23 15 32 26 13 28 33 20 14 37 29 24 30 40 10 34 39 38 17 6 8
c order 11 3 26 27 29 12 5 7 19 2 28 8 33 40 22 10 16 35 17 9 38 39 31 21 1 23 18 34 30 25 36 37 4 6 24 20 13 15 32 14
c order 35 3 29 4 24 7 27 34 1 33 26 20 18 8 14 5 19 17 40 30 23 15 32 31 38 22 2 9 16 6 37 21 28 13 25 12 10 39 36 11
c order 3 7 39 4 17 33 8 28 2 24 22 38 36 26 25 19 29 11 14 37 12 15 5 13 18 1 27 30 32 16 40 31 20 35 34 23 9 21 6 10
c order 13 1 22 38 25 7 3 31 12 8 21 17 28 9 34 37 20 5 4 33 24 30 27 18 10 16 14 23 2 36 40 39 11 26 29 19 6 15 35 32
p cnf 40 384
-2 6 32 -31 0
-31 2 3 -10 0
19 -2 33 -30 0
30 33 28 6 0
-24 -32 26 34 0
7 15 21 23 0
-40 -17 -31 -3 0
-13 19 -27 -34 0
31 8 38 16 0
-17 -16 -24 -30 0
-33 -40 -21 4 0
2 -11 1 -17 0
13 35 -37 9 0
38 -24 -21 12 0
28 -23 1 5 0
20 -5 27 -23 0
30 -17 14 -11 0
13 -2 -18 -17 0
25 -16 -20 -35 0
-11 24 -14 -15 0
-10 26 -23 -24 0
28 -6 -3 26 0
-30 17 15 32 0
20 -18 -33 26 0
-20 19 -5 -22 0
-23 -30 -32 28 0
-32 11 -22 23 0
18 8 -12 -14 0
33 3 8 -38 0
17 -24 27 26 0
7 -35 10 -26 0
-13 16 -31 -2 0
-5 15 27 -9 0
-8 15 23 2 0
33 -32 17 13 0
-20 6 40 1 0
30 28 9 -14 0
-25 -8 -11 -4 0
-10 33 16 8 0
27 28 10 37 0
-9 14 -7 -23 0
-29 -25 40 22 0
-1 14 -18 10 0
10 2 -16 -37 0
-23 1 -12 9 0
-22 17 38 6 0
32 -8 10 -25 0
38 -35 19 7 0
5 -34 -3 27 0
-23 -26 29 -2 0
20 1 -12 -11 0
37 -34 1 20 0
-25 10 32 22 0
-20 -30 7 14 0
-23 -28 -4 27 0
5 6 -36 2 0
-11 3 -4 -26 0
-39 11 -1 40 0
-39 -17 -19 -31 0
-10 34 -35 32 0
30 -39 -9 -15 0
19 28 -2 37 0
2 28 19 12 0
-33 19 -1 9 0
-39 3 -37 21 0
34 -15 -29 10 0
-34 6 -35 15 0
-16 -20 25 34 0
4 -28 24 -15 0
-30 21 -36 -24 0
8 4 -30 11 0
28 -20 -12 -35 0
17 -25 3 -18 0
-26 34 -25 -29 0
-35 19 37 3 0
-25 23 38 -26 0
36 9 -16 27 0
29 10 -33 -13 0
-33 27 38 19 0
30 1 -21 -7 0
-22 -32 -12 7 0
-6 7 -10 1 0
-4 27 1 33 0
20 -5 24 34 0
15 34 -11 -5 0
34 -7 33 -38 0
10 -36 9 -5 0
-4 -33 12 -35 0
-39 12 17 -4 0
-26 -22 -5 38 0
6 -13 34 40 0
18 20 -34 24 0
-27 -6 -18 -29 0
-20 -17 38 11 0
-17 -8 -19 -12 0
-13 25 -5 -12 0
-27 15 -13 6 0
8 34 20 -16 0
26 20 -39 -36 0
-3 24 22 -8 0
-26 -4 -25 -2 0
32 9 -18 -36 0
-29 25 -18 -35 0
-12 18 -31 23 0
31 33 -6 4 0
-39 -9 -28 17 0
-17 11 36 37 0
-32 35 39 14 0
-38 -25 -32 -16 0
-4 -3 -15 38 0
25 -20 17 -4 0
17 -36 28 6 0
23 39 -9 -4 0
22 -37 -18 -23 0
-12 -32 8 -34 0
23 -18 -36 -33 0
27 25 37 -36 0
36 -17 38 -23 0
13 -18 23 -16 0
6 33 27 38 0
12 17 -39 -24 0
-4 24 -10 -7 0
-37 -1 3 17 0
1 30 -23 -17 0
18 -3 -21 -4 0
4 16 -34 -8 0
-37 -10 -15 4 0
-17 33 -9 -13 0
32 -23 36 -28 0
39 31 32 22 0
-10 -29 -21 31 0
-35 -20 23 15 0
-4 11 -14 -36 0
32 13 -6 37 0
-36 -25 38 -28 0
7 33 28 -21 0
-26 3 -11 -35 0
-3 14 -27 -18 0
-23 31 -2 10 0
-27 -15 -3 -6 0
-31 8 13 4 0
-13 22 -29 14 0
-1 39 21 16 0
-30 -4 11 22 0
-8 2 21 -23 0
-20 -4 -10 1 0
-24 -33 29 9 0
-39 -28 -7 -6 0
-16 -3 38 -26 0
22 -31 8 11 0
8 23 -19 40 0
-38 -8 14 39 0
31 3 27 -12 0
30 -5 -15 24 0
15 6 16 22 0
-28 4 7 23 0
-34 -23 -36 18 0
8 1 -24 -12 0
13 -34 5 37 0
2 -1 31 -26 0
3 6 40 -9 0
-29 -14 -33 -34 0
14 2 40 -8 0
-26 3 22 -40 0
-11 25 -15 37 0
16 -21 -6 32 0
-40 35 -23 11 0
-10 -16 26 -34 0
5 -13 18 4 0
-34 -4 15 -29 0
39 -22 -2 30 0
7 -11 -31 -22 0
17 21 -37 -25 0
-22 -5 8 33 0
-2 -13 -33 -7 0
-28 22 -26 12 0
-13 -4 38 7 0
7 6 -40 -25 0
22 34 23 -40 0
-38 7 -28 -17 0
13 31 7 -38 0
26 30 3 29 0
-15 -24 34 13 0
-11 -20 -39 -19 0
-22 -9 24 23 0
17 -22 1 -40 0
-38 -7 3 -15 0
36 -18 40 16 0
36 30 -20 37 0
-36 5 -4 12 0
-14 -38 -16 -30 0
18 -1 24 -32 0
12 16 39 34 0
-39 38 10 1 0
-4 -30 39 9 0
-28 -1 33 -37 0
-3 19 30 -4 0
-25 7 37 -1 0
27 40 -37 8 0
30 -7 -4 35 0
1 -40 -6 18 0
-2 28 37 23 0
-3 -19 -2 -8 0
13 23 -18 -12 0
-30 -35 -14 38 0
32 19 29 14 0
5 -29 30 -21 0
32 25 -21 -1 0
31 33 -36 12 0
22 -11 33 32 0
-18 14 19 -1 0
-40 -38 -35 -9 0
34 -29 -33 -14 0
-6 32 -12 30 0
-1 15 -17 -34 0
34 -21 11 32 0
36 -15 18 13 0
-38 26 -36 24 0
-17 6 -36 -24 0
-21 -20 -26 5 0
17 11 19 18 0
37 -1 33 16 0
-29 -23 28 6 0
-18 11 16 34 0
-40 -38 7 -27 0
38 34 -15 -1 0
18 4 10 8 0
6 18 32 -22 0
-12 -13 38 35 0
-25 -27 -26 -9 0
10 26 20 14 0
-38 17 24 -35 0
-27 -35 5 39 0
30 -5 25 22 0
27 -28 7 -33 0
2 -12 10 -23 0
30 -40 8 33 0
10 -18 -9 40 0
-23 36 11 -39 0
3 -26 33 -39 0
14 18 -32 36 0
-33 -31 -26 -18 0
20 12 21 -1 0
19 -17 39 -7 0
-16 -24 -1 -8 0
-39 -40 14 -30 0
-8 -14 3 -16 0
32 -26 -22 -3 0
-36 21 17 16 0
-31 -24 37 23 0
20 -2 -32 26 0
4 5 9 14 0
-9 -19 -24 -15 0
-21 19 31 20 0
-24 -17 36 -19 0
-31 -15 4 -17 0
15 -11 13 -21 0
-23 7 27 5 0
28 6 -4 -9 0
13 -11 -8 19 0
-6 -34 1 -18 0
8 19 -35 3 0
5 -33 40 -26 0
13 -36 -5 19 0
33 21 30 -1 0
37 3 21 -14 0
13 39 27 7 0
-29 12 -7 -28 0
-26 -5 -31 -7 0
40 -37 21 28 0
-2 28 3 23 0
10 -31 -33 26 0
29 15 -2 7 0
10 -32 -5 9 0
11 -22 3 -5 0
28 -21 -9 26 0
5 -25 36 21 0
23 -13 9 -10 0
-16 -17 32 -24 0
7 25 30 -3 0
7 6 -23 29 0
17 -24 33 -20 0
28 38 -30 -8 0
-30 -13 29 -36 0
-25 -31 17 12 0
-6 20 -27 -34 0
3 9 10 24 0
17 -33 37 39 0
33 -1 -28 -12 0
-40 -18 17 -31 0
-15 26 -11 -22 0
-2 35 -31 -28 0
-39 12 29 5 0
-38 19 13 -37 0
-16 -4 19 23 0
-23 -5 -34 3 0
27 25 -22 -28 0
7 -2 33 -6 0
29 13 -27 -25 0
-7 -2 -31 -4 0
-3 -4 31 -25 0
-18 -6 3 -37 0
30 29 26 33 0
23 26 -33 30 0
14 -22 11 2 0
-36 -22 -40 38 0
14 38 17 -9 0
-10 9 38 -13 0
-24 14 -4 25 0
-13 -29 8 -28 0
-33 -2 14 12 0
6 26 -12 30 0
24 1 13 -28 0
23 26 -35 -3 0
-33 -37 26 9 0
22 -19 36 -7 0
-17 39 31 -3 0
3 -26 27 18 0
9 1 13 -19 0
-15 -5 3 -13 0
13 -11 -35 1 0
-30 22 -36 -23 0
6 -18 -7 24 0
-28 3 -29 -4 0
-1 -4 11 -36 0
-40 -12 -35 -21 0
-37 36 -10 1 0
40 -24 23 34 0
19 -31 24 -34 0
35 14 -22 24 0
-16 17 32 12 0
22 -36 -29 8 0
-34 37 16 -1 0
-38 -5 17 28 0
-21 36 -28 4 0
-13 11 -23 16 0
-6 -25 -30 32 0
-12 -8 -17 -27 0
-22 -2 1 12 0
27 -2 -22 38 0
-10 21 4 -24 0
-28 -36 24 -29 0
36 -12 -23 34 0
32 -26 39 33 0
-32 26 -24 18 0
-27 36 -38 21 0
6 -39 -13 18 0
-22 19 24 14 0
1 32 15 28 0
20 31 -27 -11 0
24 36 7 35 0
-5 40 -10 -30 0
-18 -36 -32 -9 0
-2 13 -6 32 0
39 -10 -1 2 0
-28 -10 -12 19 0
35 -27 -33 38 0
26 8 -5 -9 0
23 -15 -14 -36 0
-29 14 -16 -4 0
-9 12 -35 17 0
-38 -19 -27 4 0
-34 -39 -19 -23 0
-5 -4 -14 8 0
13 -38 -39 6 0
26 12 31 14 0
-18 -20 14 -13 0
26 13 18 -39 0
8 -14 -2 -9 0
29 -5 12 25 0
8 9 -11 20 0
-1 20 -5 26 0
9 27 -26 -25 0
-19 14 -16 26 0
22 -20 -17 -38 0
-8 10 -29 -9 0
-29 30 14 -8 0
-1 -13 -25 3 0
34 -14 -3 25 0
39 34 16 13 0
33 -29 -7 -13 0
-27 18 -9 39 0
24 -14 -25 6 0
-3 34 -15 -24 0
