c family=4-SAT n=40 instance=7 seed=726001144 models=8
c order 17 37 9 12 26 10 3 2 7 25 16 36 14 8 21 34 1 30 35 5 23 33 32 13 29 20 31 4 15 24 38 22 27 18 40 11 39 28 19 6
c order 37 39 40 7 22 36 10 23 31 27 35 26 14 32 19 6 34 4 20 17 12 1 8 33 25 24 29 38 11 9 2 28 13 30 15 5 21 18 3 16
c order 6 9 20 34 40 16 37 13 32 33 17 1 39 15 27 2 26 28 29 11 31 12 24 25 35 3 38 10 14 4 7 36 18 8 23 19 30 5 22 21
c order 6 2 3 31 13 19 27 4 12 1 23 26 7 10 36 21 33 34 39 14 9 16 25 40 5 15 20 17 30 38 28 18 32 24 37 11 29 22 35 8
c order 35 30 23 2 22 29 38 13 26 27 28 14 11 15 17 33 7 40 16 5 36 18 1 3 8 6 12 20 9 19 34 32 39 4 31 37 21 25 24 10
c order 37 30 15 20 22 39 10 13 4 36 5 18 19 28 17 35 23 24 29 6 34 9 38 7 14 32 40 21 12 31 8 16 3 26 2 11 1 27 25 33
c order 13 23 14 19 35 22 25 3 1 36 34 6 26 17 31 5 28 18 29 9 33 27 10 4 37 30 2 40 11 15 32 20 8 24 21 12 39 16 38 7
c order 3 34 36 30 6 27 31 11 24 12 37 10 15 2 28 14 5 35 13 25 17 26 8 16 9 18 32 23 33 7 1 39 40 21 20 29 38 4 19 22
c order 31 2 17 8 21 39 26 28 16 7 24 30 10 35 27 34 3 12 15 5 18 11 36 23 32 14 33 1 40 19 13 37 20 22 38 6 9 4 25 29
c order 33 24 2 30 32 19 18 4 5 28 31 36 6 37 11 27 7 26 13 14 12 40 10 1 8 21 35 29 9 17 25 34 22 39 3 16 38 23 15 20
p cnf 40 384
-23 9 10 -11 0
22 -18 28 40 0
-40 -39 -10 -4 0
31 -38 7 -4 0
-19 32 -39 -9 0
-18 -40 15 -36 0
-6 19 -4 -3 0
-37 -10 -30 -1 0
3 -20 9 14 0
36 -38 -6 15 0
1 28 -7 14 0
-37 -12 21 -36 0
-17 -10 -9 11 0
-38 31 19 13 0
8 29 22 25 0
-12 -19 -17 -21 0
-9 8 -24 -33 0
-17 10 18 -29 0
19 13 -35 -11 0
-33 2 -3 -26 0
-40 31 25 -9 0
26 19 -3 40 0
14 -34 -8 39 0
4 2 -15 40 0
13 17 16 27 0
6 -34 -30 -15 0
-30 -40 -27 -31 0
11 -7 -23 -21 0
-29 12 -16 17 0
-32 -15 -4 13 0
27 -34 -19 -21 0
3 22 35 28 0
36 4 -22 8 0
-23 -19 27 -25 0
-18 -23 -15 28 0
-30 -5 8 -33 0
33 -14 -11 31 0
21 28 36 -32 0
32 2 39 17 0
-33 3 20 -9 0
31 -21 -30 -10 0
-26 15 7 -18 0
25 -27 5 29 0
-36 -24 -39 14 0
37 29 -12 34 0
1 29 31 18 0
2 -32 31 -16 0
6 -12 20 -31 0
-16 -8 36 -34 0
17 40 32 38 0
19 15 -3 -1 0
5 -6 15 3 0
-15 -17 36 -33 0
31 -27 -9 -11 0
4 35 13 33 0
23 39 2 13 0
20 -35 -24 -23 0
-29 -10 -22 -4 0
-3 4 10 19 0
22 26 20 -32 0
-19 24 9 18 0
27 39 21 2 0
32 8 -19 7 0
-3 -32 19 37 0
13 -23 -37 -31 0
-2 -7 38 -35 0
27 40 15 -35 0
37 38 -5 31 0
39 40 -8 -32 0
-37 -19 -16 30 0
19 -18 25 15 0
18 15 10 -1 0
-10 19 -11 27 0
-21 -26 12 36 0
4 27 -39 35 0
22 -23 -20 34 0
-33 9 -35 30 0
-1 22 -32 30 0
-33 37 2 20 0
-9 13 -5 18 0
-16 -33 -40 23 0
-14 12 -28 15 0
7 20 31 9 0
15 -16 -6 -38 0
9 -21 3 -27 0
7 9 13 37 0
-20 18 -12 -35 0
-33 17 -40 -21 0
-35 -20 -6 34 0
22 -18 -2 19 0
-40 34 -37 -16 0
-5 24 -32 13 0
8 -10 38 -16 0
-14 1 26 17 0
-2 -37 -36 19 0
27 -15 33 1 0
-40 33 -35 -27 0
19 1 28 18 0
-13 30 -15 36 0
27 9 -34 -10 0
32 -29 26 21 0
15 8 -19 -26 0
-5 10 -21 -29 0
23 26 -38 -25 0
-16 12 -28 -21 0
25 -24 -15 -2 0
26 -13 17 24 0
-13 -37 10 8 0
-3 15 18 14 0
-30 28 -38 39 0
35 -39 4 20 0
-34 -39 -37 33 0
-17 40 -7 -24 0
9 -36 -24 34 0
14 18 6 -22 0
-38 13 35 -16 0
3 -26 -34 -39 0
-6 -22 -39 13 0
26 10 8 33 0
18 14 -5 6 0
-3 -18 -38 35 0
30 -2 26 -28 0
16 5 25 11 0
-1 -17 31 16 0
11 -6 -13 12 0
-26 -6 -28 -17 0
25 39 24 -38 0
-10 9 40 -33 0
24 -37 30 -7 0
35 -18 -8 27 0
8 23 19 -35 0
35 3 -22 -40 0
21 -4 2 30 0
32 -12 -14 31 0
14 -32 -9 3 0
23 7 -31 -37 0
11 -24 -30 3 0
-17 40 -13 23 0
-5 -28 8 4 0
27 -16 -15 -7 0
-18 -6 22 28 0
-30 -39 27 -36 0
30 -17 -14 10 0
14 -37 -38 39 0
-26 4 21 -5 0
-4 27 14 6 0
-16 -12 -24 -28 0
-8 -5 -23 40 0
-21 -28 -38 -14 0
-12 31 -20 37 0
24 -2 18 -21 0
-11 20 36 32 0
-31 2 -4 -15 0
-23 9 29 -33 0
5 38 -32 -7 0
-14 -29 -26 6 0
32 38 20 39 0
-3 17 34 -6 0
3 -38 22 -39 0
6 38 -1 -16 0
-24 -26 -4 19 0
-9 1 -12 11 0
22 -29 -32 -21 0
-15 11 -34 6 0
-2 -5 37 -4 0
12 -30 -33 22 0
-32 -13 -23 -12 0
24 -37 -14 -26 0
29 -38 -37 -27 0
-28 3 14 33 0
21 32 22 -9 0
-16 -30 33 -20 0
-20 6 34 31 0
1 5 -8 -15 0
37 -3 27 -5 0
-26 6 36 -23 0
30 -16 4 -21 0
-38 36 -7 22 0
34 1 -15 17 0
31 35 -5 20 0
5 -37 -9 -27 0
33 -24 34 22 0
7 -18 -19 -33 0
-19 -13 35 -39 0
25 9 37 -1 0
-16 1 18 -10 0
-26 1 -37 21 0
20 -17 39 2 0
-35 -28 19 6 0
18 36 26 -6 0
34 12 18 -36 0
1 -7 24 19 0
-24 -38 17 -7 0
24 -27 -16 -10 0
-24 -5 18 36 0
-21 -22 6 36 0
14 -33 -15 -11 0
-29 37 -35 14 0
-4 -13 -31 28 0
-35 7 4 6 0
26 -21 7 -13 0
29 20 2 -8 0
-19 -24 35 13 0
6 20 31 10 0
20 15 21 39 0
24 -17 -11 15 0
-15 30 7 -4 0
12 1 17 27 0
2 -6 3 35 0
30 1 -20 21 0
24 22 -11 -38 0
-9 40 -39 -4 0
31 -13 -16 -28 0
26 -29 -11 -22 0
-27 -40 25 21 0
36 -14 33 -31 0
-34 -21 22 1 0
-17 33 -30 -31 0
-15 -31 -16 5 0
4 -5 39 15 0
36 -6 23 13 0
1 38 -12 4 0
1 -28 22 15 0
14 24 11 7 0
-28 -39 -30 31 0
26 -34 18 -23 0
37 16 -36 -1 0
-1 -26 -37 -36 0
22 20 27 1 0
-33 13 -23 20 0
22 31 33 -18 0
-11 -16 -35 -3 0
-7 -23 24 37 0
-26 35 -14 -17 0
35 -15 -30 19 0
-7 -28 12 33 0
-30 21 -11 -19 0
-1 -28 21 38 0
26 2 35 13 0
17 -20 -24 -5 0
4 -12 32 29 0
23 -29 -15 -31 0
-29 24 17 -28 0
33 -6 -29 38 0
-23 40 -13 -27 0
4 -35 -32 16 0
20 8 35 -18 0
-3 8 -15 19 0
7 3 -8 -40 0
-2 27 38 -18 0
3 -34 -13 -37 0
8 18 -26 -40 0
-2 3 36 40 0
-40 17 24 -3 0
-5 34 32 23 0
24 35 20 -38 0
35 10 9 -31 0
-12 28 34 -5 0
20 1 16 26 0
-19 5 26 27 0
-8 -3 25 -30 0
-1 28 11 -18 0
15 33 -19 18 0
-18 26 15 -35 0
4 -1 27 14 0
15 -27 -36 -25 0
5 10 29 -40 0
-34 -5 33 -1 0
-38 -35 1 -18 0
10 -40 14 17 0
33 -31 7 15 0
31 9 37 25 0
38 6 26 19 0
-21 5 -3 -32 0
31 -18 8 -22 0
-35 -6 10 -16 0
-31 -5 -12 33 0
-20 13 19 22 0
8 26 39 1 0
3 25 7 33 0
-31 11 5 -29 0
-15 -1 34 27 0
23 36 -26 -38 0
-34 -14 -21 -11 0
39 10 -34 -23 0
-3 7 -31 40 0
-1 31 17 -23 0
-30 -2 33 29 0
11 -24 -1 25 0
-22 -7 29 34 0
3 40 7 -26 0
-33 -37 14 1 0
-19 -39 10 -28 0
25 7 -20 -38 0
-21 -11 35 -6 0
-1 -30 10 -23 0
14 8 -38 11 0
16 3 27 -7 0
22 36 -13 31 0
-31 -28 -20 39 0
-21 7 26 -13 0
16 36 -19 -10 0
9 -2 37 -40 0
39 -22 1 23 0
-19 -36 -25 -27 0
21 31 -9 8 0
10 -17 34 12 0
-1 30 -33 36 0
-37 12 -34 -6 0
-40 -10 28 -27 0
-40 12 -34 -27 0
1 7 -10 9 0
3 -26 19 -11 0
23 15 8 -30 0
-31 -23 3 7 0
-6 -20 -35 13 0
-38 -15 33 20 0
-11 3 -2 30 0
-19 -5 -12 29 0
27 -26 -1 -24 0
-12 -36 6 18 0
22 4 -35 9 0
9 -7 32 -4 0
6 30 13 -36 0
24 10 21 -32 0
-32 18 -7 4 0
-19 28 37 -16 0
-14 25 6 -18 0
-20 -2 25 23 0
-31 10 -22 -14 0
-20 12 -28 -32 0
-2 -11 -34 -10 0
-35 11 17 -5 0
29 -7 -26 32 0
6 25 36 4 0
-21 17 -10 -16 0
-18 -31 30 -34 0
-1 -30 11 -33 0
38 32 -40 -14 0
19 10 6 -8 0
34 -9 6 39 0
35 -18 -38 -24 0
-20 23 1 6 0
-37 29 -34 -28 0
24 30 26 -10 0
26 -27 -16 8 0
-18 -25 -9 39 0
29 -1 25 -8 0
37 -30 -5 -36 0
9 -29 34 28 0
-13 -14 -15 -33 0
-2 15 22 8 0
4 -16 -25 -5 0
10 33 -15 -31 0
-5 34 2 13 0
-25 -28 16 26 0
36 29 -3 -13 0
28 10 23 4 0
-30 16 18 11 0
31 -34 4 -30 0
15 -16 24 19 0
-3 -12 -23 -26 0
7 10 31 -30 0
12 34 39 -3 0
25 11 2 -14 0
-21 40 13 27 0
-18 -31 11 -7 0
-28 -7 16 -23 0
-28 -7 -37 12 0
-31 35 11 5 0
-29 -13 37 -15 0
38 -32 35 -21 0
-15 -34 37 29 0
16 39 31 -17 0
-3 11 -10 -6 0
1 4 -12 -15 0
39 12 5 16 0
40 -6 -9 13 0
-22 -15 -12 -28 0
-8 -24 7 -2 0
15 -5 -26 -10 0
-33 -39 11 1 0
-23 -27 22 -32 0
-25 22 1 28 0
