c family=4-SAT n=40 instance=5 seed=726001144 models=2
c order 17 2 39 22 37 38 35 7 27 18 31 15 24 28 4 33 34 13 6 10 23 30 8 21 36 29 11 32 14 25 19 1 3 16 12 40 9 26 5 20
c order 16 3 25 5 32 27 2 7 13 18 17 35 38 20 12 14 31 23 1 30 6 21 10 15 28 29 34 37 40 8 11 26 24 33 4 9 22 19 39 36
c order 6 4 30 13 3 20 33 21 34 10 31 17 35 36 14 26 19 23 25 12 11 16 1 40 5 18 7 8 15 27 24 28 37 39 32 2 29 38 22 9
c order 38 33 15 18 30 26 12 31 32 3 9 27 7 28 2 22 11 21 34 40 1 6 35 36 13 5 14 29 17 23 8 16 37 39 20 10 4 19 25 24
c order 33 23 14 12 28 9 21 25 22 2 4 37 1 26 5 3 10 40 20 27 32 7 36 24 38 17 18 16 6 31 34 13 39 11 19 29 8 15 30 35
c order 5 36 30 29 1 12 11 22 28 31 18 2 38 7 24 37 26 34 6 35 16 10 23 25 32 27 33 8 3 9 21 14 15 20 39 13 40 17 4 19
c order 39 32 10 12 11 9 23 19 33 8 6 24 35 34 15 38 25 1 37 7 14 29 3 30 5 2 26 17 21 28 16 18 36 31 13 40 27 4 20 22
c order 12 29 8 39 27 21 7 16 10 20 31 17 2 33 4 3 19 23 30 1 24 6 35 22 13 9 40 37 5 38 15 28 14 36 26 18 34 32 11 25
c order 4 8 12 22 34 11 9 15 1 3 2 39 18 30 14 23 32 40 7 38 27 19 24 33 6 37 28 35 17 13 16 25 29 21 31 20 26 36 5 10
c order 38 15 39 17 2 9 11 22 1 7 13 5 25 30 27 16 36 19 31 6 12 14 20 23 40 28 8 24 10 26 37 21 18 4 3 35 29 34 32 33
p cnf 40 384
-12 -36 25 24 0
-32 -16 -33 -34 0
2 30 -23 -29 0
1 -25 -8 31 0
1 2 6 -22 0
15 26 -17 20 0
15 30 -10 -5 0
-2 -31 14 18 0
-35 7 39 37 0
-38 -33 11 -1 0
-10 -20 34 -5 0
-40 30 -22 -26 0
40 20 30 5 0
-33 18 -34 40 0
39 -1 -33 -36 0
37 18 -15 -35 0
33 -6 -27 11 0
15 -16 -9 4 0
-3 -29 15 30 0
21 4 34 26 0
32 30 -10 -4 0
39 -17 -5 -6 0
-30 35 -11 9 0
22 7 -27 17 0
-32 -18 -8 4 0
-31 1 11 38 0
22 39 25 31 0
35 -36 9 -1 0
-16 -15 38 36 0
-23 -34 5 -38 0
-15 -24 -35 -5 0
20 -24 -1 37 0
25 4 7 38 0
17 38 31 22 0
20 -34 -8 -35 0
6 37 -26 8 0
-6 39 37 35 0
-27 -16 40 -21 0
-12 -20 30 -36 0
19 23 -33 38 0
16 -22 4 -18 0
11 5 21 -19 0
18 -38 3 40 0
30 -3 34 38 0
38 13 -6 3 0
13 15 30 17 0
-25 38 3 28 0
15 -2 -37 -11 0
14 -34 23 -32 0
37 25 24 -36 0
20 17 22 -30 0
25 16 -21 -37 0
13 -36 11 -1 0
-5 -9 39 -22 0
-27 -30 7 -2 0
14 15 40 37 0
-27 11 37 -36 0
40 -7 26 35 0
7 -8 -40 -39 0
-31 29 17 33 0
26 -17 6 -28 0
-36 11 27 2 0
7 -8 -1 -2 0
27 -8 -40 26 0
-7 5 14 -1 0
-16 3 21 9 0
-35 16 -14 -13 0
4 7 16 -40 0
-23 -18 33 -15 0
34 -29 -28 31 0
14 15 37 6 0
-30 -21 -32 -22 0
7 -2 -13 -27 0
10 -27 19 22 0
21 12 18 -27 0
-5 14 17 -32 0
-20 27 40 33 0
-4 -30 8 36 0
37 34 -32 19 0
32 -35 -16 9 0
1 -18 31 -39 0
1 -35 14 -9 0
-23 34 -9 -10 0
-34 -18 39 -2 0
-8 -18 15 -24 0
6 29 7 2 0
-17 -24 38 -40 0
-11 12 -20 2 0
39 40 12 -10 0
33 -31 -38 -36 0
32 4 -13 28 0
-23 16 7 -3 0
-22 -11 20 38 0
21 8 -11 2 0
22 -14 4 -5 0
-29 -31 26 -20 0
-18 -40 5 7 0
-38 5 -15 -35 0
5 -24 -34 10 0
-19 38 28 -2 0
-23 -7 2 9 0
5 10 8 -22 0
32 -36 -31 -22 0
25 27 -40 4 0
4 -8 -27 -17 0
40 29 -15 -13 0
-33 4 -29 24 0
-24 16 9 -29 0
8 -11 -35 -27 0
5 -11 3 31 0
-1 22 20 -37 0
9 -38 36 32 0
-33 -26 -27 -14 0
40 -38 -33 23 0
38 -36 -26 -31 0
30 4 5 -27 0
32 -17 -22 -29 0
-29 5 10 -40 0
-14 27 18 -40 0
-32 -6 27 -35 0
35 38 -9 1 0
27 -36 19 -3 0
1 12 -8 25 0
24 8 -12 1 0
-24 19 28 23 0
-24 1 -13 32 0
22 -28 -3 21 0
-8 25 -40 -3 0
28 -32 6 -23 0
-13 -31 32 -14 0
37 -38 5 16 0
32 17 -9 35 0
40 -30 -25 -39 0
26 28 -3 32 0
-10 -5 29 -20 0
-7 40 6 -13 0
-24 -25 -30 21 0
5 -14 -34 -38 0
-32 -20 -7 -14 0
-35 26 8 39 0
40 2 21 36 0
-4 1 3 18 0
38 -31 17 19 0
-7 -29 24 -23 0
5 -18 33 16 0
-17 4 -37 8 0
-9 4 -34 7 0
-13 15 34 -38 0
-5 28 -33 -31 0
11 -25 -24 -10 0
-36 38 -32 22 0
-23 34 -29 -22 0
-29 -16 25 -40 0
-33 29 -8 -2 0
-37 -2 -15 -12 0
37 31 -23 -24 0
-7 -12 2 19 0
-34 3 -21 35 0
33 -18 -9 -7 0
-31 -28 -14 36 0
4 7 25 21 0
31 -15 -3 9 0
-13 -23 36 21 0
3 -27 14 11 0
-19 -31 -39 -4 0
36 5 -32 -2 0
-11 3 -24 39 0
22 -21 -29 -3 0
-12 -1 8 -40 0
4 -3 27 -29 0
-17 2 1 28 0
20 -6 26 -9 0
-38 26 2 -17 0
-27 -7 35 30 0
33 -7 26 -12 0
28 22 -36 39 0
-35 30 15 -24 0
31 -11 21 -6 0
10 -14 -31 27 0
28 25 -22 31 0
33 -6 -14 18 0
12 -40 7 16 0
-20 28 -18 39 0
-8 -20 -33 27 0
-29 -28 -37 26 0
-31 -16 -22 29 0
25 8 -21 10 0
23 -15 26 36 0
12 26 1 17 0
-17 31 -25 24 0
-2 -17 -28 32 0
23 -18 -13 11 0
-19 -3 25 -15 0
2 -36 -23 6 0
-28 10 -39 -24 0
33 -1 29 -21 0
5 12 -6 -15 0
31 -36 28 23 0
21 -29 -10 20 0
-31 14 -40 6 0
10 -7 6 4 0
-28 -33 -39 -30 0
18 -25 -12 -2 0
33 21 18 28 0
-2 5 -21 -20 0
30 36 -40 14 0
-33 -26 8 -32 0
-37 12 -15 -32 0
3 -9 26 30 0
-24 9 29 -31 0
-13 -14 4 -29 0
-20 11 -30 38 0
-33 -25 30 16 0
-1 15 12 22 0
33 17 -8 38 0
17 -3 21 -18 0
2 28 16 15 0
-31 4 -39 16 0
-25 14 -24 -17 0
9 5 -23 -6 0
26 30 18 14 0
-8 32 35 -4 0
-10 -15 -33 -13 0
5 -16 14 -17 0
4 -6 -18 -30 0
28 -5 -8 31 0
-9 -38 -16 40 0
5 -25 40 -7 0
13 -5 35 28 0
34 35 13 5 0
29 -32 -15 -18 0
20 -21 -4 -38 0
32 37 17 -4 0
-12 -1 5 39 0
-2 -34 -15 -33 0
-2 -6 39 5 0
-36 22 33 19 0
-22 16 32 25 0
-26 10 7 -13 0
-17 -33 -38 -32 0
-34 15 -29 38 0
20 -1 -23 29 0
8 -20 -37 -23 0
-34 -14 -19 32 0
18 33 -17 -36 0
15 24 22 -21 0
-14 36 -13 -26 0
7 -37 -21 -8 0
1 -21 25 -32 0
12 27 29 -33 0
22 -11 -26 28 0
24 26 -7 27 0
-11 -33 2 9 0
-33 20 -35 14 0
-12 2 38 -10 0
-29 26 19 -14 0
7 -1 33 8 0
23 -12 -2 -18 0
-29 7 -17 22 0
-40 20 23 32 0
-7 -37 18 -16 0
17 -21 -40 19 0
11 -20 -4 -13 0
-5 -19 4 29 0
5 -13 -40 -27 0
17 -39 6 -21 0
33 11 -22 14 0
16 -32 31 -18 0
-32 1 -15 -36 0
25 14 -27 -9 0
-20 25 -27 34 0
11 -1 19 25 0
-32 -20 31 2 0
18 38 -19 -1 0
-22 2 18 -23 0
15 37 36 -30 0
-15 -29 8 23 0
-1 -10 -27 23 0
30 19 16 -20 0
-40 -25 -12 -20 0
36 -21 11 17 0
30 -36 26 20 0
-20 -27 10 -36 0
37 -4 -13 22 0
9 40 29 33 0
-17 32 -36 5 0
-39 -16 12 40 0
12 34 -22 6 0
36 -10 -39 -16 0
-4 31 -27 11 0
5 -9 38 -28 0
-13 16 23 -34 0
-19 35 -38 17 0
-32 -16 -39 -10 0
19 15 6 -14 0
-19 32 24 8 0
14 -37 8 -34 0
-39 40 5 13 0
-33 -17 -2 -16 0
-5 -20 4 35 0
3 38 11 -23 0
-32 -9 -13 -6 0
-34 -9 -39 -10 0
22 -2 -13 -34 0
-18 -19 38 -29 0
-6 -33 14 -15 0
-38 -13 -30 -19 0
13 -6 -5 -8 0
-17 -2 -24 -8 0
-6 25 19 22 0
21 15 22 -39 0
37 -26 -4 -14 0
-23 -8 -29 26 0
-35 -27 -31 9 0
-25 18 -34 -10 0
5 11 12 -8 0
-27 -25 3 -30 0
28 -24 18 31 0
-25 -27 -20 31 0
-17 -2 38 28 0
-12 -18 -25 -24 0
33 -15 29 36 0
-39 8 12 17 0
33 -23 -20 -1 0
-18 34 29 32 0
-1 30 16 3 0
-36 35 3 -38 0
-2 25 -9 17 0
-22 7 10 33 0
-30 -23 4 8 0
-31 5 -29 -38 0
-39 9 5 15 0
7 -34 -36 29 0
1 28 -26 35 0
13 16 -34 -40 0
-2 10 -25 -37 0
11 -3 -13 -27 0
-28 5 -31 -36 0
19 -30 -29 3 0
2 -30 -35 24 0
40 6 -1 -4 0
10 17 39 -35 0
5 9 39 -21 0
-28 25 -18 8 0
2 29 19 -17 0
-35 -20 -15 -38 0
16 34 -24 17 0
-2 24 25 37 0
18 -34 5 26 0
40 19 36 -34 0
-24 38 -9 -2 0
-35 4 -7 -25 0
-21 -27 2 -31 0
-7 12 -33 -25 0
30 -19 26 -8 0
7 -12 40 -36 0
18 -34 21 -30 0
29 -35 5 28 0
-21 36 7 25 0
15 32 -39 -22 0
17 40 12 -18 0
-23 17 -21 -14 0
1 3 20 -30 0
-30 -20 24 -39 0
1 27 -15 -26 0
-3 -1 33 21 0
23 -40 -10 21 0
5 39 2 15 0
-25 -5 9 18 0
4 -3 -13 -1 0
-12 22 -13 23 0
-22 -14 11 -23 0
-16 17 -1 6 0
11 -21 31 -13 0
-1 -4 -30 22 0
-32 13 -37 33 0
19 -36 23 -11 0
23 -13 29 26 0
-12 8 9 -14 0
29 -28 -4 37 0
-9 -38 7 -31 0
5 -21 -4 -20 0
23 -32 20 34 0
17 -33 27 -22 0
