c family=4-SAT n=40 instance=8 seed=726001144 models=3
c order 5 14 37 18 35 40 6 17 38 19 27 24 20 31 4 10 36 26 34 29 25 8 3 12 30 32 1 21 9 23 33 22 7 28 16 11 15 13 39 2
c order 32 20 21 10 26 15 36 12 7 14 37 31 17 19 40 2 24 18 27 25 16 28 29 22 13 11 4 8 30 1 6 9 39 35 3 5 34 23 33 38
c order 35 16 34 26 22 20 27 32 33 6 7 25 39 37 4 31 40 14 8 13 19 17 9 1 18 23 36 15 12 30 24 38 29 3 10 2 5 11 28 21
c order 22 32 33 27 15 25 37 2 6 8 21 34 28 35 11 16 5 38 13 12 26 36 30 39 23 10 17 3 29 14 20 1 4 19 18 9 24 40 31 7
c order 31 18 20 39 11 2 4 16 14 29 34 30 6 19 36 21 5 25 23 9 24 33 1 35 28 7 37 27 8 3 26 40 32 15 17 13 10 22 12 38
c order 40 13 25 5 34 24 36 29 27 32 21 31 15 38 2 22 28 23 4 14 3 33 9 39 6 17 18 19 10 1 12 26 20 16 7 8 11 37 30 35
c order 27 3 1 2 37 35 12 8 5 34 21 38 13 16 15 22 31 23 36 18 11 14 4 17 9 30 7 24 39 40 10 29 25 19 32 6 26 28 33 20
c order 29 21 20 26 38 34 31 3 13 36 10 15 28 39 17 35 16 2 27 22 19 24 30 12 40 33 8 18 23 1 4 9 37 5 32 6 11 7 14 25
c order 14 7 23 2 5 40 11 33 39 8 10 12 32 37 38 27 31 18 13 4 34 6 3 26 24 1 36 20 21 25 19 16 28 9 30 29 17 22 35 15
c order 15 32 6 40 39 22 1 16 12 25 7 29 35 4 17 18 20 31 27 34 30 21 28 5 2 36 26 19 38 10 14 11 23 3 8 37 13 9 33 24
p cnf 40 384
-14 22 31 -21 0
18 -24 -36 -27 0
6 39 7 -15 0
26 16 -14 23 0
31 -34 14 -35 0
32 5 -11 -3 0
-18 -12 -32 -29 0
16 -26 32 29 0
16 1 6 28 0
-6 24 -21 -20 0
-3 34 -15 25 0
-6 -24 -4 18 0
4 -7 -23 -29 0
-16 -22 20 25 0
-23 -22 -9 35 0
3 9 25 31 0
-13 -24 -25 -14 0
-17 23 -8 -19 0
-10 33 -29 4 0
29 -22 -19 -12 0
-25 -10 -16 -11 0
-32 23 12 -31 0
-32 -1 9 16 0
19 17 -11 -3 0
-27 17 14 -29 0
-28 12 -23 -13 0
17 -1 -30 21 0
-32 34 29 -5 0
11 -18 35 -27 0
-3 33 -8 12 0
1 11 19 -30 0
-28 1 -7 -38 0
26 -20 30 7 0
-18 -16 -9 -10 0
39 30 6 -33 0
-21 38 15 -6 0
18 39 16 9 0
-12 34 -35 15 0
-17 12 -20 -4 0
-1 -28 -36 -20 0
-20 1 26 27 0
-22 -24 -21 -30 0
-39 9 14 -32 0
-36 -4 24 -2 0
14 -5 -19 -28 0
-40 -29 -14 7 0
-31 -6 21 30 0
-40 -15 9 23 0
-3 16 30 -26 0
-17 6 20 -33 0
-22 40 -7 -6 0
-27 -32 -14 40 0
-39 -2 -14 -29 0
-8 30 17 6 0
10 24 13 14 0
30 32 -33 35 0
-36 -31 25 -2 0
-4 22 29 -17 0
-28 -26 17 -20 0
33 -16 8 -29 0
-8 20 -9 -25 0
-35 -26 -12 -6 0
35 -23 -21 22 0
29 17 -8 -7 0
30 -32 38 31 0
-13 -17 -26 -19 0
16 3 -36 -20 0
36 30 2 -1 0
26 -19 -38 -25 0
-29 -7 -32 31 0
-36 16 -15 31 0
-28 16 -33 -22 0
-34 14 36 -4 0
18 -27 -33 5 0
-36 -5 -16 -32 0
35 -37 -25 34 0
20 2 -7 35 0
-13 11 4 33 0
-19 14 -2 -22 0
38 -6 10 24 0
31 -35 -34 -27 0
22 -37 16 -8 0
-34 21 2 20 0
-17 34 24 -39 0
-38 25 -15 37 0
-16 7 20 3 0
-21 -4 -15 -10 0
36 28 39 24 0
-4 8 35 -33 0
-32 30 -31 -33 0
31 38 -10 22 0
-35 -22 32 -33 0
37 6 25 -15 0
21 18 5 -4 0
-20 -3 36 38 0
-28 10 9 -32 0
30 -34 16 -20 0
34 -31 -27 -13 0
-34 27 -14 28 0
18 -26 36 27 0
-32 9 15 -13 0
40 -12 -21 2 0
26 -6 -35 24 0
-6 -14 -39 -20 0
8 2 5 -3 0
-6 -33 4 28 0
-6 -16 1 35 0
-39 -35 -24 16 0
-36 -19 -30 23 0
37 -12 -39 -28 0
36 28 -21 25 0
-20 30 -13 -34 0
29 19 -16 36 0
28 -35 -31 40 0
10 31 38 -2 0
16 -10 4 8 0
38 12 19 -33 0
17 20 -33 11 0
-30 -21 -38 -2 0
18 37 -26 5 0
-5 24 -29 -11 0
33 -23 21 39 0
-15 21 13 -31 0
-29 25 5 28 0
36 -26 -31 30 0
7 1 4 26 0
-31 -24 -7 40 0
36 -11 -15 32 0
21 8 13 28 0
10 -32 36 27 0
3 -16 -26 19 0
-6 -24 22 -21 0
-18 21 -38 -30 0
11 13 -37 39 0
-36 23 38 -22 0
-32 -18 -25 -6 0
16 7 9 -2 0
34 -5 36 -11 0
23 6 36 -3 0
13 1 37 -5 0
28 35 -4 -17 0
2 -33 -38 20 0
-21 22 -23 39 0
-22 40 -17 -37 0
-11 -6 24 -14 0
-2 8 35 26 0
-26 -36 11 39 0
9 28 -33 32 0
-7 -24 -31 -13 0
4 31 12 -26 0
-21 15 -33 2 0
-8 -37 2 19 0
24 34 -32 -35 0
-37 -23 20 -6 0
29 25 37 40 0
-35 -32 6 3 0
-14 -5 -16 -40 0
-17 33 -4 25 0
16 -24 -26 23 0
13 -18 4 -14 0
22 -18 -4 -35 0
-34 8 25 23 0
-30 -15 -32 36 0
-1 -26 -6 -34 0
10 -20 -3 2 0
-21 25 -16 -37 0
8 -14 13 -27 0
25 24 -11 -16 0
11 -38 24 -37 0
-31 16 29 -23 0
2 -39 15 17 0
23 -10 14 -19 0
37 -18 10 -26 0
-40 -27 18 -22 0
-21 24 -28 -25 0
-5 8 32 35 0
28 23 6 -17 0
-33 1 24 -35 0
-1 31 16 -38 0
-31 -4 -3 -21 0
12 40 -37 -7 0
-32 38 -29 -20 0
4 30 -29 -31 0
-22 20 38 17 0
-6 -5 -12 -20 0
18 -16 4 -28 0
-8 -15 -23 7 0
38 10 -18 -26 0
17 -1 30 6 0
-23 -36 19 20 0
16 14 -12 21 0
-14 -3 -15 31 0
-22 23 -28 4 0
11 2 -4 -37 0
-35 18 -17 8 0
26 -9 -31 20 0
28 8 -2 -30 0
-31 24 -3 25 0
-25 -38 -13 18 0
21 -22 -1 35 0
16 35 -26 -31 0
31 -4 -37 -8 0
3 32 36 35 0
-37 -13 -15 -34 0
1 32 12 23 0
11 -2 -12 -22 0
29 26 -25 21 0
39 4 12 38 0
4 -17 -25 -6 0
26 -15 3 10 0
7 40 -23 6 0
-10 -39 5 -31 0
33 -27 -15 2 0
-9 -31 -21 -24 0
36 -16 5 8 0
-23 27 -2 15 0
-8 14 25 1 0
13 -35 25 1 0
27 32 -9 7 0
4 33 30 26 0
-28 -18 7 15 0
-13 -35 10 32 0
-15 -17 1 -10 0
37 19 -11 14 0
6 18 -13 -5 0
-39 9 14 -34 0
21 -32 39 -28 0
17 -19 29 14 0
24 -22 19 -21 0
28 19 -34 -11 0
-31 39 27 -20 0
-40 -9 -20 36 0
-19 24 -11 -15 0
1 3 27 -13 0
-2 -9 25 -14 0
-34 -18 -32 39 0
-4 37 3 -39 0
9 34 -17 27 0
-36 26 23 35 0
-19 32 39 33 0
-40 38 -27 37 0
38 29 19 -18 0
36 -18 26 -16 0
-40 24 8 -12 0
-20 23 -30 -40 0
-9 18 34 12 0
-22 -30 24 -39 0
5 29 -14 -17 0
-12 18 -14 11 0
25 -26 3 5 0
-3 36 -5 -33 0
-35 -11 9 7 0
-4 -16 34 1 0
35 28 -13 -18 0
16 -29 17 10 0
39 32 -7 12 0
-5 -18 26 -2 0
9 -32 -11 8 0
7 30 -38 39 0
-8 35 -33 27 0
-5 8 16 36 0
-34 -26 -11 -9 0
10 -6 8 -14 0
16 -3 -11 -12 0
21 -6 -10 -35 0
14 -23 -31 -36 0
4 26 29 -30 0
23 36 20 2 0
-2 -31 27 -22 0
28 37 3 38 0
18 -24 -35 -5 0
-14 17 15 9 0
-3 28 25 -27 0
15 32 -38 19 0
32 -35 33 -13 0
6 -4 35 -3 0
7 8 14 -10 0
6 -37 18 32 0
-24 19 -6 10 0
-14 13 -3 40 0
-29 34 35 -22 0
-21 -1 -25 -8 0
-35 -24 -4 -15 0
-2 -36 -31 16 0
-26 -5 23 -11 0
-30 38 -31 -29 0
9 -26 35 15 0
23 40 26 21 0
23 -25 -12 14 0
-14 6 26 -3 0
31 30 -10 -1 0
-30 -33 -13 35 0
17 24 -29 37 0
-29 39 33 -6 0
-37 -3 -31 40 0
32 3 34 13 0
-18 31 -28 4 0
-12 2 -6 -3 0
11 -28 34 -17 0
21 37 -40 14 0
-37 -25 -1 27 0
18 33 27 -35 0
-10 -2 -11 -17 0
-36 17 10 11 0
39 12 14 37 0
-22 4 3 -23 0
18 3 -7 -37 0
40 -32 22 -13 0
-38 8 -18 5 0
17 -6 30 -31 0
21 -8 -35 -9 0
34 -21 25 -1 0
-27 17 4 24 0
14 35 28 13 0
13 37 7 22 0
32 22 8 -14 0
9 -38 24 -25 0
38 -18 -37 23 0
-10 14 12 -2 0
6 24 -40 23 0
-22 27 39 3 0
26 -35 -9 29 0
4 -12 -39 18 0
-21 40 -36 -35 0
26 4 -15 14 0
37 10 29 21 0
30 -38 28 -4 0
26 -6 -14 -24 0
-22 1 -2 -24 0
-9 -22 -38 -2 0
-3 -7 -26 -36 0
-37 -26 17 -10 0
25 -20 -39 -21 0
-29 -22 -27 19 0
20 -34 -15 -3 0
22 -21 -27 -19 0
32 33 -9 6 0
21 -26 16 -40 0
11 20 -15 -39 0
-28 39 -8 -18 0
-2 24 -16 12 0
-37 13 -11 -12 0
9 -18 -11 -15 0
16 1 25 6 0
-36 -18 -10 -26 0
-3 10 19 -13 0
-35 -14 -1 -12 0
39 20 6 33 0
40 -2 -10 -9 0
8 -31 -38 -36 0
25 32 20 23 0
22 -31 -13 4 0
36 25 -13 -17 0
-11 35 -16 25 0
-15 -26 2 -40 0
5 9 14 -40 0
-40 6 12 -4 0
-6 -34 23 -40 0
16 -29 39 -25 0
-15 18 10 -34 0
34 -22 4 -16 0
-32 -25 -9 1 0
4 -37 32 -22 0
-34 6 3 17 0
-28 25 -5 2 0
-13 -39 -10 18 0
14 28 6 -20 0
2 -21 27 -39 0
15 37 -9 36 0
39 -36 -22 -7 0
32 15 26 -4 0
-2 -8 -17 9 0
-4 -15 7 -11 0
39 -21 27 -30 0
33 28 -25 6 0
-38 -26 -13 20 0
-11 -33 26 -9 0
-22 -16 -14 27 0
-20 36 -14 -17 0
17 -27 1 -12 0
3 16 12 24 0
6 -23 -17 27 0
-12 -10 -22 8 0
-4 -9 -39 -35 0
