c family=4-SAT n=40 instance=6 seed=726001144 models=22
c order 36 31 30 13 5 8 25 11 37 15 4 39 27 17 20 3 6 33 14 12 29 24 26 28 21 32 10 40 18 7 9 23 1 22 34 38 35 16 2 19
c order 9 6 30 13 25 2 32 8 21 10 28 5 18 11 20 22 14 3 17 15 29 1 35 39 38 7 27 16 4 23 34 40 24 37 31 26 12 19 36 33
c order 29 4 7 28 31 39 27 24 12 5 13 21 35 1 19 17 8 36 37 33 23 22 40 14 32 15 30 3 6 34 18 10 26 11 20 9 38 25 16 2
c order 6 34 10 24 20 37 22 21 39 19 1 8 23 14 30 31 18 29 16 33 36 11 32 7 17 26 35 5 9 4 13 28 38 40 27 15 3 2 12 25
c order 27 23 31 11 19 25 18 3 9 1 8 21 13 28 6 33 30 35 36 22 10 38 24 32 39 20 12 37 29 5 14 15 4 34 7 2 40 16 26 17
c order 11 40 34 38 39 36 28 10 20 2 16 21 12 14 37 13 6 26 9 33 15 31 32 27 19 3 17 8 4 23 5 30 29 1 22 25 35 18 7 24
c order 1 35 10 19 21 3 37 26 2 22 12 39 17 4 27 31 9 34 25 14 15 18 36 24 32 6 7 38 23 16 29 40 8 13 5 20 33 28 30 11
c order 34 10 3 22 6 40 30 12 2 29 33 31 25 18 36 19 8 32 38 37 9 11 26 7 39 21 14 27 16 1 28 4 17 15 13 24 20 35 23 5
c order 29 13 39 34 18 27 9 33 21 35 3 5 7 22 40 17 16 14 36 10 6 2 28 8 37 20 31 4 15 12 23 24 32 19 25 30 11 26 38 1
c order 14 29 12 8 20 15 9 2 37 35 38 4 34 36 16 6 11 18 28 25 7 26 22 10 19 40 13 39 23 24 32 21 5 30 27 17 3 1 33 31
p cnf 40 384
-22 -37 -29 -14 0
9 -35 26 16 0
27 -14 12 -19 0
35 -7 27 -4 0
39 33 37 -12 0
-20 25 5 -23 0
32 34 3 -8 0
-9 32 -7 34 0
3 -17 1 -16 0
36 34 -33 30 0
28 -5 8 -14 0
21 -24 23 14 0
-37 39 28 24 0
-15 22 14 6 0
25 10 29 -24 0
-12 -19 -24 26 0
-21 -28 -2 -23 0
-23 20 -36 40 0
21 9 -25 17 0
1 21 -33 -24 0
37 -10 25 17 0
-12 40 7 -2 0
-12 16 7 13 0
-11 -25 -19 -18 0
-6 -29 -18 20 0
33 9 -15 -38 0
-25 -7 36 -37 0
36 33 -38 12 0
-40 -33 -30 31 0
-2 38 -37 6 0
-32 -13 8 9 0
-17 21 26 38 0
-1 3 37 -27 0
-17 -11 12 -15 0
-40 -29 7 -9 0
-37 -34 -21 10 0
-38 5 -14 15 0
12 -17 -36 27 0
-40 -24 23 14 0
-4 27 -19 -11 0
-16 23 1 6 0
12 36 -32 -38 0
-6 27 -13 14 0
22 38 21 -18 0
10 4 37 33 0
-25 -34 -23 -30 0
38 -32 36 24 0
21 31 40 -27 0
32 -24 19 29 0
-27 34 -29 -15 0
31 4 -26 -5 0
-10 -40 33 -35 0
18 11 -35 27 0
2 -29 -33 31 0
-32 8 23 -35 0
33 -10 36 31 0
-32 1 36 29 0
26 -12 -35 -6 0
29 16 30 19 0
-19 -23 -10 12 0
-25 -1 -2 37 0
16 -20 35 -29 0
-28 19 -5 8 0
10 34 13 16 0
-19 -25 28 40 0
23 30 35 -6 0
10 -4 9 37 0
2 19 -28 -34 0
40 8 -39 36 0
-21 -34 -32 25 0
-31 15 3 23 0
-34 -21 31 -24 0
-27 -30 32 -16 0
-28 -21 30 13 0
2 -25 -22 3 0
3 28 10 34 0
3 18 -11 5 0
-21 -1 24 -7 0
39 -26 14 -3 0
9 -32 -18 -7 0
-18 -36 -1 7 0
-40 10 -11 19 0
2 33 21 3 0
19 4 31 40 0
28 -31 37 -21 0
8 28 -36 5 0
-11 1 38 -19 0
22 -3 -31 38 0
20 19 39 36 0
33 23 2 10 0
-13 31 36 20 0
15 17 26 -12 0
-38 -11 -20 34 0
39 6 -2 -36 0
-32 -14 -7 18 0
-15 -35 -17 -4 0
6 -37 14 21 0
-12 38 -32 4 0
10 9 -20 17 0
31 -3 -40 -4 0
25 -24 5 -19 0
10 9 -21 -7 0
-6 22 -1 -9 0
-23 -27 -26 12 0
-36 33 -3 -31 0
-22 36 31 18 0
-11 14 -6 4 0
-1 10 -21 -30 0
-26 -37 31 -20 0
35 25 -24 1 0
12 -24 16 19 0
-10 33 -1 3 0
26 -21 22 -35 0
-26 -25 1 35 0
-1 -23 -13 -4 0
-32 10 4 7 0
27 5 -21 -12 0
35 -6 32 -26 0
-22 -12 2 9 0
24 36 12 -25 0
-10 -16 23 5 0
-29 1 8 18 0
27 8 -13 14 0
9 8 -35 -39 0
-1 -16 8 -19 0
-15 -37 -30 -8 0
-15 -6 -31 -33 0
-29 -17 13 -28 0
-32 -7 11 -33 0
33 12 -30 -3 0
-39 28 -14 -18 0
28 -8 10 1 0
18 -36 -32 -2 0
-27 -35 -12 23 0
-14 34 5 -16 0
-38 -14 -25 -19 0
3 -16 10 -8 0
17 21 18 29 0
-22 6 2 -24 0
-21 -8 11 4 0
-27 39 -31 23 0
5 35 -27 -23 0
18 4 39 -37 0
25 19 24 -23 0
-26 3 21 -29 0
-32 23 -17 -14 0
-19 -14 34 22 0
-35 -10 29 -8 0
40 27 -14 -26 0
11 39 40 26 0
-30 1 14 37 0
-29 37 -26 19 0
9 16 -13 -8 0
11 -17 -21 -24 0
24 13 -15 -37 0
27 1 -25 3 0
-32 18 -19 40 0
13 -35 -28 8 0
-39 4 -11 -3 0
5 38 37 2 0
12 -16 -18 10 0
13 -10 19 14 0
-28 21 18 -36 0
-16 11 -38 -8 0
29 -24 -1 -32 0
34 3 -11 -1 0
-23 39 7 -30 0
-29 9 30 -19 0
-6 30 23 12 0
-12 8 13 -36 0
-32 -9 -11 -7 0
-34 -33 -24 3 0
-37 -16 7 21 0
-10 36 -13 -4 0
-10 -35 -23 -7 0
-13 -31 -15 -38 0
32 23 3 7 0
14 1 -8 -37 0
26 38 -2 5 0
27 26 10 -9 0
-13 37 19 4 0
-25 12 -26 38 0
-12 -10 -38 16 0
-28 -2 19 -5 0
-25 -34 26 -7 0
-15 4 -32 -20 0
32 17 6 8 0
6 5 -19 9 0
23 14 -27 32 0
-38 37 10 35 0
-40 -1 -21 25 0
-10 19 -17 -13 0
-15 -10 -5 3 0
-9 13 25 19 0
13 -33 23 21 0
-40 33 -27 2 0
26 36 -29 -15 0
-4 31 -27 -6 0
9 6 -13 18 0
-3 -5 36 27 0
17 -10 30 11 0
33 -2 22 -4 0
-12 -35 32 16 0
34 -26 1 35 0
10 -14 16 22 0
-27 -8 13 16 0
40 14 -3 -21 0
12 -5 -1 -4 0
4 17 -5 -34 0
-25 1 -10 -37 0
-16 -33 -4 -19 0
-8 2 6 31 0
15 -18 7 -17 0
-5 15 21 -3 0
-36 -17 14 31 0
-9 12 -27 -6 0
-20 28 -27 35 0
6 30 -28 24 0
33 14 -29 -18 0
-19 -36 -15 -8 0
4 15 27 -12 0
-25 -21 -33 8 0
7 9 15 19 0
18 27 8 1 0
8 -36 25 -35 0
-37 -36 25 24 0
37 -4 22 38 0
-16 6 -35 -26 0
-5 -37 32 31 0
36 -32 -15 39 0
-34 -30 -22 40 0
-12 20 18 13 0
4 6 -36 -29 0
16 -5 25 39 0
-1 -32 38 -33 0
39 38 -35 -22 0
-11 -36 -9 -30 0
26 3 7 19 0
1 10 -17 15 0
10 -23 -22 35 0
-31 -37 -14 23 0
23 29 35 -25 0
31 -8 -38 -22 0
12 21 -9 28 0
30 -25 39 24 0
26 38 10 -2 0
21 24 -38 -20 0
-2 -22 13 31 0
-2 -37 4 -7 0
35 -38 27 30 0
-6 -22 -17 10 0
-22 -14 39 35 0
-35 -13 2 -21 0
13 22 -18 34 0
4 3 -13 -20 0
-22 -3 -33 -6 0
-39 15 26 34 0
-22 39 -38 6 0
-16 -36 -15 -29 0
-31 22 39 38 0
-6 27 8 -16 0
-6 16 -19 23 0
23 -27 19 -31 0
20 -39 17 1 0
3 10 -7 14 0
-4 -13 -22 -32 0
19 20 -27 -32 0
9 27 -13 33 0
-21 19 39 -22 0
26 38 -31 -30 0
-37 28 12 30 0
40 -2 29 16 0
11 -37 28 -8 0
17 16 -18 -20 0
-19 -6 -34 -17 0
25 28 26 33 0
4 29 14 22 0
-40 7 8 -5 0
38 -11 -14 32 0
-31 13 -33 -39 0
9 19 28 23 0
14 17 2 -19 0
18 9 -17 14 0
3 9 2 22 0
6 39 -5 26 0
21 -14 31 -8 0
22 19 21 10 0
-40 6 -13 -12 0
1 -30 -12 -35 0
-32 20 40 15 0
-32 22 -39 34 0
28 -20 -5 8 0
18 -29 21 32 0
22 5 -3 -6 0
23 13 -18 39 0
-22 24 39 4 0
31 -8 -38 -37 0
-21 37 14 -26 0
-4 -6 11 8 0
14 25 -26 -3 0
-4 3 -30 -12 0
17 -28 -22 30 0
15 34 16 -20 0
23 -6 -20 32 0
-33 -31 -25 17 0
40 -35 -18 -14 0
31 34 16 -9 0
-11 40 36 -6 0
-5 -25 -31 17 0
16 2 -36 -35 0
23 -10 -34 14 0
-8 -28 -12 38 0
-39 36 30 16 0
36 -17 -35 -30 0
3 40 37 10 0
-33 -29 -30 -21 0
-19 -21 -36 29 0
38 -25 -32 23 0
15 -25 -31 3 0
26 -24 -27 37 0
22 10 8 7 0
-27 34 14 -36 0
-2 19 18 -25 0
37 -34 -20 8 0
6 -11 8 20 0
28 -6 13 26 0
12 -35 20 13 0
-30 4 25 -8 0
-6 13 -14 36 0
-25 -26 -39 -19 0
-33 15 -40 -24 0
-12 -14 -32 -37 0
-36 -18 25 3 0
-31 35 -12 -4 0
-17 -24 -5 -22 0
-6 -5 18 -15 0
-8 -34 9 27 0
2 -14 39 -27 0
1 4 22 37 0
24 -33 -31 6 0
-2 -15 -17 -40 0
6 24 -19 7 0
-35 13 -32 -21 0
-17 24 39 -31 0
-35 5 -16 -27 0
-39 4 -11 -37 0
-22 29 -6 -34 0
-1 5 19 -38 0
15 -16 6 -20 0
-38 -16 32 -39 0
27 -3 1 -23 0
-31 -10 11 -1 0
-34 32 -7 8 0
40 31 -27 5 0
-24 14 -29 7 0
7 28 -11 39 0
24 26 17 -38 0
8 25 -39 -33 0
-29 -14 -6 -24 0
29 8 -17 20 0
34 5 -8 -29 0
31 -35 -1 17 0
-8 21 -34 -31 0
1 -3 7 15 0
-32 23 -5 7 0
-1 -18 -29 21 0
-24 -28 -22 -1 0
-4 8 -13 12 0
-32 27 8 10 0
6 -13 -19 -31 0
22 -19 -34 -21 0
-20 14 16 29 0
36 1 -11 24 0
-32 26 23 -37 0
28 -29 33 30 0
-38 2 37 1 0
-14 -17 -20 -5 0
34 1 10 25 0
13 22 9 24 0
40 19 -24 -8 0
-12 -13 -28 -4 0
-35 -33 -9 -13 0
-8 -33 -20 10 0
15 36 -14 38 0
