c family=4-SAT n=40 instance=0 seed=726001144 models=9
c order 10 3 7 26 4 8 20 22 28 40 29 30 6 11 34 35 16 9 2 15 5 27 14 25 18 12 21 33 19 38 32 23 36 13 1 24 31 39 37 17
c order 13 19 24 11 30 37 18 27 35 4 1 12 16 2 38 25 34 8 33 6 3 26 32 9 10 40 31 28 36 17 14 22 7 39 20 23 15 5 21 29
c order 26 36 13 25 22 9 29 3 19 39 34 31 8 5 7 17 21 16 2 11 40 32 10 15 18 12 33 30 24 6 38 20 37 1 35 28 4 27 23 14
c order 23 39 17 33 4 7 15 16 1 20 9 12 34 13 29 28 22 21 11 19 40 30 18 38 31 37 27 3 24 14 5 32 25 35 2 26 6 8 36 10
c order 27 36 18 9 12 17 38 1 19 2 31 40 23 11 37 6 10 39 14 22 34 13 4 28 29 3 25 16 15 5 7 26 8 20 21 24 33 32 30 35
c order 33 4 16 20 37 29 22 35 18 12 19 8 3 25 5 32 7 21 34 40 27 15 30 1 9 17 24 10 2 28 23 11 6 14 31 26 36 38 13 39
c order 35 17 16 36 21 15 13 38 8 32 14 26 2 5 20 40 33 1 25 31 34 19 12 29 3 9 23 30 11 24 6 10 39 37 7 22 28 4 18 27
c order 35 37 26 5 17 11 24 9 13 3 15 27 19 2 18 30 29 4 38 34 1 14 7 12 31 33 22 8 32 40 36 21 6 16 10 25 28 23 20 39
c order 1 33 22 12 9 8 40 14 30 21 13 10 24 32 23 39 4 37 3 17 11 25 35 20 26 6 16 28 7 18 36 5 34 27 19 31 2 38 15 29
c order 20 40 36 25 1 12 21 34 9 39 33 23 7 22 11 13 28 29 24 27 19 38 35 32 30 10 2 31 26 4 5 3 17 16 8 37 6 18 14 15
p cnf 40 384
9 24 -1 -3 0
31 -15 -3 -6 0
-3 24 9 36 0
7 11 24 -8 0
-18 37 -35 -16 0
40 -9 -11 -17 0
25 9 26 -17 0
1 -14 21 23 0
4 -11 35 7 0
-4 19 -38 10 0
-37 24 -27 29 0
30 -35 -11 -29 0
33 28 -15 -19 0
-34 -26 16 -35 0
32 -12 27 -24 0
28 8 22 13 0
-7 4 -15 25 0
-21 -34 -38 30 0
-17 23 -5 19 0
30 20 -5 -26 0
-31 10 20 -2 0
-33 -28 -37 8 0
-30 -14 25 -32 0
-6 12 -2 20 0
-24 33 36 -31 0
-3 -25 38 6 0
14 -35 -18 -38 0
29 -14 -1 -16 0
24 -33 32 -27 0
-8 28 -27 14 0
-35 20 34 3 0
-40 17 -39 19 0
-23 13 -11 7 0
-5 18 38 -27 0
-37 7 -11 13 0
-29 -33 -23 -21 0
25 34 -14 38 0
36 -30 3 -2 0
35 36 34 11 0
-30 39 -5 -13 0
13 3 -4 -35 0
32 -19 25 -40 0
-28 -38 7 21 0
-30 -36 10 -34 0
-4 -16 -32 37 0
32 -13 18 9 0
17 21 3 -14 0
24 -39 19 3 0
-37 -32 39 -23 0
28 -3 33 -6 0
-37 32 3 27 0
-15 -21 -33 31 0
-18 12 27 22 0
-37 -4 39 -6 0
-14 -22 35 38 0
9 -36 35 14 0
-31 -7 -5 35 0
37 -36 7 -21 0
-1 -9 -2 -5 0
-15 -40 -7 20 0
23 -7 -16 -39 0
29 -26 -9 37 0
15 9 -4 -3 0
23 -28 -9 -36 0
-12 -26 -20 -35 0
1 -17 -7 -3 0
-29 -18 40 26 0
9 -13 -15 6 0
26 13 -1 -22 0
12 36 21 -34 0
32 27 -24 1 0
2 29 -38 -30 0
38 34 22 18 0
-23 -3 -29 -33 0
35 -10 5 -39 0
4 -5 -37 28 0
31 -20 1 4 0
-38 -11 -27 22 0
39 1 38 5 0
-17 25 20 24 0
2 -26 36 -38 0
11 18 4 -33 0
-34 -35 40 18 0
40 26 12 36 0
-15 -12 -22 -8 0
7 13 -19 -34 0
-35 -1 21 -39 0
10 -8 26 19 0
-36 -7 -2 16 0
-14 18 17 -12 0
17 37 19 11 0
-6 -16 40 30 0
-36 -3 -39 -28 0
-37 -1 -35 28 0
-34 -14 -9 -17 0
-21 39 40 -13 0
14 -7 3 -21 0
3 34 36 -7 0
20 9 8 -37 0
-23 29 25 -40 0
-26 28 33 14 0
25 12 21 35 0
-27 35 -14 -2 0
-4 7 35 -1 0
-22 -6 18 28 0
-23 28 -17 -22 0
10 3 29 17 0
-25 2 -3 8 0
-35 -40 -31 -11 0
-20 -11 14 23 0
-31 -39 -33 -32 0
12 13 -24 21 0
-13 12 39 27 0
-26 9 -33 -6 0
29 -8 2 19 0
35 18 -10 11 0
-2 21 38 14 0
4 -20 37 34 0
9 -14 5 -17 0
4 22 -6 15 0
16 10 -29 -5 0
9 1 -24 -8 0
16 -25 23 -21 0
-19 -13 1 31 0
-2 17 13 22 0
20 38 27 9 0
23 -2 -19 -9 0
-31 -32 20 37 0
-34 -5 16 7 0
22 40 -14 -1 0
27 -24 -4 -26 0
17 -18 -13 -15 0
10 22 13 -28 0
27 -24 -22 -14 0
2 25 -3 -16 0
33 -36 -23 31 0
-11 6 -10 -23 0
-37 -27 30 8 0
40 10 -16 27 0
-26 -9 30 7 0
16 -31 -38 21 0
27 -17 30 -31 0
12 35 11 31 0
-28 13 -20 -26 0
-34 -1 -30 -17 0
-36 39 11 -31 0
-17 32 27 -14 0
28 39 -10 -13 0
-36 14 -11 -27 0
34 -24 12 -14 0
20 -17 33 28 0
-21 -25 -35 -10 0
35 -16 20 12 0
28 9 -37 -6 0
-19 -9 -15 -7 0
5 -25 36 -33 0
30 9 35 -17 0
8 12 -22 19 0
-27 9 -39 -38 0
-5 26 35 25 0
-3 -4 -15 5 0
32 -25 -35 -30 0
-12 -9 35 7 0
23 33 18 -39 0
11 31 38 -30 0
-32 14 18 1 0
3 -9 17 -29 0
38 -8 36 -34 0
22 -8 24 -26 0
4 35 20 22 0
14 -4 -35 21 0
26 -24 12 -18 0
-22 -1 -9 27 0
-1 -27 -18 -10 0
21 28 1 10 0
9 40 17 -19 0
-17 -14 -18 15 0
-33 -27 40 -32 0
33 16 6 25 0
-19 -10 9 6 0
-22 7 28 -21 0
29 -22 -39 -5 0
-37 36 -23 -34 0
-30 -2 -35 5 0
32 11 -35 6 0
-4 -23 12 7 0
16 -31 40 38 0
8 6 36 24 0
-13 9 32 -5 0
12 -39 -5 -4 0
-26 -23 -31 -14 0
7 -9 -2 -23 0
-10 -13 -36 4 0
18 30 -28 -17 0
-30 -14 24 -37 0
-20 -36 6 -13 0
34 -40 27 -6 0
-34 -35 -2 16 0
26 -29 9 -25 0
14 -20 -23 3 0
22 39 33 -21 0
25 -5 -7 -26 0
4 5 1 -7 0
-17 -11 26 -4 0
-7 22 -34 31 0
38 18 31 40 0
1 2 30 -15 0
4 -11 -29 12 0
38 -12 -33 -19 0
-10 -31 -11 19 0
-33 -39 -13 32 0
-17 -10 -24 39 0
29 -3 -38 13 0
-34 2 40 37 0
-29 17 -36 -1 0
-30 -17 15 -2 0
-9 2 -16 29 0
31 33 -6 4 0
11 -9 12 8 0
-37 1 32 -40 0
18 12 35 -3 0
34 -2 -23 6 0
-27 -40 1 -5 0
-2 -1 -22 5 0
-2 -37 -22 34 0
32 33 -29 23 0
-7 10 9 36 0
-36 -6 28 38 0
-23 -39 17 -30 0
-27 -34 7 -30 0
22 30 24 -40 0
7 -24 22 -10 0
26 -6 1 -5 0
32 -9 -11 36 0
-28 -38 10 -19 0
-15 6 12 22 0
-5 -7 18 -9 0
28 -11 12 -27 0
-9 -14 24 -3 0
3 -32 -37 -4 0
-26 27 33 -2 0
-36 -2 -14 9 0
-5 6 11 -32 0
-10 35 -14 -36 0
24 -8 -20 -7 0
-20 -31 38 4 0
18 10 36 40 0
5 -28 -40 20 0
6 37 -34 -5 0
-39 28 -4 -30 0
-12 36 24 10 0
-19 -30 -24 -25 0
14 36 28 23 0
-3 -23 18 -5 0
23 30 3 -7 0
-18 -34 16 20 0
-35 22 -33 9 0
-2 38 -23 -13 0
-19 32 -31 -18 0
-7 -22 -27 -13 0
38 -1 14 22 0
-14 26 27 -34 0
-30 12 -35 36 0
-36 33 32 12 0
-30 17 -18 7 0
-39 3 8 -21 0
-4 34 -10 27 0
39 -7 -15 34 0
7 37 -22 -24 0
-27 -39 -20 -16 0
-22 -10 -18 24 0
-38 10 4 -31 0
11 40 -28 -19 0
4 -27 39 10 0
8 35 17 -22 0
19 36 10 -32 0
-13 17 -14 22 0
-23 28 -38 13 0
-37 -6 -39 17 0
-39 5 16 -19 0
-17 3 18 23 0
-11 40 4 -6 0
1 -10 5 24 0
13 -17 22 -4 0
30 -20 31 14 0
-6 1 -4 -23 0
30 -18 -38 -8 0
32 5 39 38 0
-19 18 8 4 0
-30 -17 -32 15 0
22 27 -30 14 0
-6 -20 -10 -33 0
-16 33 -26 -17 0
6 -27 35 15 0
-20 -7 -37 21 0
-20 18 6 -27 0
-5 38 8 17 0
13 20 -4 -23 0
34 -39 -12 -25 0
-6 8 -14 7 0
-3 -25 34 -18 0
23 39 25 -32 0
-4 22 40 27 0
8 21 -1 29 0
-10 30 -6 15 0
2 39 5 -13 0
17 -1 4 3 0
-20 -29 -15 14 0
23 -40 -21 -2 0
-35 10 -23 -32 0
-36 34 -32 -35 0
39 -34 -14 -33 0
10 -40 22 -25 0
10 1 -13 -3 0
-8 -33 5 -13 0
-15 19 -18 -7 0
13 -14 28 30 0
26 -5 -34 -40 0
19 30 -6 8 0
-34 -6 8 -23 0
13 -2 -15 -37 0
-35 2 -36 30 0
-23 36 30 6 0
2 -28 40 12 0
-2 4 -14 -17 0
-33 3 40 7 0
30 28 -21 2 0
-18 -2 15 12 0
-23 -38 11 8 0
30 37 -38 -13 0
-38 33 30 -27 0
12 35 -7 26 0
36 -30 -14 -31 0
-14 -7 -20 11 0
21 -16 39 -37 0
25 35 -38 -28 0
25 30 -23 39 0
-4 16 27 35 0
-30 37 -13 10 0
-16 -40 -14 11 0
9 10 37 31 0
-22 -10 -35 -23 0
16 -25 -32 -22 0
15 -9 -34 -39 0
14 11 -15 30 0
-21 12 11 -2 0
1 29 -21 -37 0
29 -34 31 11 0
-25 -15 -39 -16 0
1 -11 30 29 0
-5 -1 -6 -34 0
-19 36 27 -21 0
27 34 30 -26 0
39 33 24 31 0
-33 38 18 15 0
16 17 13 32 0
-36 -28 -20 4 0
-36 25 -21 -8 0
40 25 -32 -15 0
27 14 4 21 0
26 1 -5 4 0
-5 37 -23 -36 0
22 28 23 10 0
-34 18 3 29 0
-33 24 3 -11 0
-38 11 36 -10 0
35 9 10 -24 0
-16 26 -33 12 0
27 6 -25 12 0
-35 -15 -4 -38 0
-34 26 -25 -18 0
-27 8 24 23 0
38 15 12 28 0
33 35 23 12 0
-36 1 -30 -26 0
-30 20 -3 -11 0
31 -33 -17 6 0
-29 -9 -32 37 0
32 33 25 -22 0
5 -9 36 -10 0
-3 31 -34 8 0
-34 15 -16 -39 0
13 14 5 28 0
-26 10 1 -8 0
