c family=4-SAT n=40 instance=4 seed=726001144 models=6
c order 21 4 2 5 13 36 33 39 40 3 11 18 25 34 19 22 27 10 29 30 6 20 38 17 14 28 16 12 23 8 7 35 37 32 15 9 26 24 1 31
c order 31 20 4 10 1 35 16 2 7 39 12 33 17 19 28 24 8 36 21 14 34 5 38 11 37 40 23 27 3 6 13 26 9 25 29 22 32 30 18 15
c order 11 29 15 31 10 16 28 26 8 21 40 2 38 32 22 27 4 17 13 5 20 25 23 1 19 30 3 35 24 7 39 18 34 33 36 6 9 12 14 37
c order 19 33 15 16 20 34 37 27 39 1 11 31 3 28 4 5 17 13 35 8 36 26 9 7 6 22 21 23 2 10 14 24 12 40 32 29 30 38 18 25
c order 15 9 11 8 34 16 10 25 22 36 38 31 14 39 17 12 19 3 23 1 29 18 35 2 26 5 28 37 20 4 32 24 30 13 21 6 40 33 27 7
c order 7 1 34 29 3 16 19 21 25 23 17 39 36 33 2 28 30 35 11 18 6 13 20 5 10 40 27 37 9 31 22 8 38 4 26 14 24 15 12 32
c order 8 29 3 27 17 28 34 35 5 19 20 13 36 14 31 23 12 24 18 1 11 6 21 26 25 30 16 4 40 37 10 22 15 33 32 9 39 2 7 38
c order 27 18 23 32 5 19 35 40 30 4 3 14 38 11 39 24 1 8 31 10 6 13 15 34 36 20 33 21 28 9 37 26 2 7 29 16 12 22 17 25
c order 16 2 29 4 5 34 19 6 11 10 32 3 14 38 31 12 27 17 20 24 9 39 7 23 36 8 15 30 35 21 13 28 37 18 25 40 1 33 22 26
c order 35 22 32 16 1 31 33 17 28 21 37 25 29 6 12 26 18 14 8 15 27 20 10 11 34 30 13 23 38 2 40 3 36 4 5 9 7 19 24 39
p cnf 40 384
34 39 3 -11 0
15 -39 -40 -12 0
-30 -15 -1 -9 0
-32 -2 -7 30 0
18 -38 -29 -37 0
-32 13 -5 20 0
-28 -26 -16 30 0
21 27 -3 -34 0
-23 3 -1 30 0
18 -21 11 -10 0
-16 -21 -38 34 0
26 -15 34 23 0
37 13 33 -27 0
40 28 -12 -23 0
-17 -7 16 29 0
-14 -40 24 39 0
-31 37 11 -12 0
18 12 -2 -10 0
-10 -27 5 3 0
-36 -34 38 -17 0
16 33 22 8 0
-26 -31 -2 22 0
10 -19 7 -15 0
33 -17 -3 12 0
-7 -13 -16 30 0
-5 23 21 -1 0
-22 24 -11 39 0
12 -1 -20 3 0
11 -27 -35 -33 0
21 23 -8 -20 0
25 31 17 24 0
18 34 -33 7 0
-32 -6 -26 -12 0
-8 -21 -15 -2 0
-11 -12 24 -28 0
-40 12 39 5 0
9 -32 -8 -35 0
17 -36 -18 -16 0
3 -12 -15 23 0
39 33 -12 40 0
-32 19 -34 -10 0
19 -16 -17 -27 0
16 -8 30 -28 0
23 -27 31 40 0
24 27 6 15 0
-19 9 23 -25 0
-33 6 14 34 0
-37 -20 4 -25 0
-17 2 32 12 0
22 17 7 20 0
39 23 -20 -27 0
-12 2 -38 4 0
-38 16 37 5 0
31 -34 8 28 0
-8 23 -16 -14 0
-32 20 -36 8 0
-27 -24 -40 22 0
20 -14 5 -2 0
17 -5 14 -8 0
40 -20 6 30 0
-24 15 17 -27 0
-11 6 19 16 0
11 -20 -18 14 0
-30 9 -22 -11 0
-7 -11 1 23 0
18 -39 -38 -16 0
22 39 38 15 0
-24 2 -20 -34 0
22 -16 -11 24 0
-6 -23 22 -26 0
-31 23 5 9 0
-2 -15 -21 26 0
-12 -14 -25 16 0
14 16 -12 -9 0
-18 21 12 -31 0
-31 25 23 -12 0
9 17 33 -39 0
-40 16 8 22 0
7 -18 -21 26 0
-40 27 -36 37 0
-2 17 31 5 0
-33 27 23 -16 0
-1 -35 10 -5 0
23 -28 -18 21 0
-31 -5 4 1 0
14 7 -22 23 0
-14 6 2 28 0
16 15 34 8 0
6 7 9 -23 0
5 -36 -31 -32 0
-9 -7 -29 13 0
-6 -25 -33 -8 0
-17 -29 6 13 0
-11 -31 -15 17 0
-5 -26 -12 40 0
20 -15 -29 22 0
24 -10 14 17 0
-31 -28 -26 10 0
-2 38 36 11 0
-19 21 40 -24 0
39 17 -25 -5 0
-29 -3 19 -35 0
-34 15 -17 -12 0
-21 -25 -34 6 0
-39 -29 -11 -6 0
-37 -28 -1 -32 0
28 16 -31 -20 0
33 16 -19 -8 0
36 20 30 26 0
3 -19 34 32 0
35 -19 -36 -34 0
8 -25 11 -18 0
22 -24 -2 -29 0
-7 -14 35 -21 0
-2 32 26 -24 0
37 32 34 22 0
17 35 37 -30 0
14 -16 3 -36 0
35 -16 9 23 0
10 21 -27 39 0
8 31 2 -11 0
24 -7 30 -29 0
16 1 -20 -38 0
-30 -3 -23 -2 0
20 -35 -17 -33 0
26 -35 -2 32 0
23 -26 38 11 0
8 24 -4 -2 0
-38 -12 1 -27 0
-36 -9 38 39 0
-3 -11 7 30 0
-23 9 -13 -26 0
-2 40 14 -21 0
-12 18 -29 19 0
-40 -24 37 -14 0
4 38 25 -2 0
36 14 3 31 0
-16 14 4 -12 0
9 34 -4 12 0
-34 1 -32 12 0
-16 36 -35 -8 0
-33 12 35 17 0
-33 37 -35 22 0
39 26 13 -34 0
34 -7 -10 -26 0
7 16 12 -4 0
-33 -28 40 39 0
-22 3 -12 8 0
22 -31 -24 -5 0
-3 -15 6 24 0
22 16 12 6 0
21 30 -9 -36 0
29 11 -20 9 0
34 -7 32 -4 0
35 36 -38 17 0
-8 4 -3 25 0
-21 9 -27 31 0
25 -16 -10 -2 0
20 18 21 -39 0
31 33 25 -26 0
-35 22 -12 -28 0
-3 23 11 -25 0
-24 32 -14 25 0
21 -17 33 12 0
-19 34 26 1 0
-26 -18 11 -16 0
-26 32 35 12 0
40 31 38 -15 0
-1 4 13 -38 0
23 34 37 19 0
-33 39 4 -5 0
-10 -17 -5 30 0
-21 -17 30 23 0
-21 27 -4 30 0
31 39 -37 -24 0
-17 35 40 -9 0
-1 -33 -20 32 0
18 36 -34 38 0
-28 16 40 6 0
13 -7 16 -14 0
15 -36 -33 35 0
-33 4 -24 -29 0
10 -40 2 32 0
14 6 5 30 0
37 -14 -7 -9 0
4 39 3 -16 0
-32 -28 40 20 0
-4 27 12 14 0
14 32 -13 36 0
-33 -9 40 38 0
32 -37 15 -22 0
40 30 -18 -12 0
-25 -35 -24 22 0
17 -27 33 -18 0
-5 -22 -18 -28 0
15 -25 -30 18 0
-23 20 -26 7 0
-19 -30 -24 -22 0
28 30 17 -21 0
17 -6 22 7 0
25 23 1 21 0
-21 -19 40 -29 0
19 6 -9 27 0
7 -18 -36 16 0
-23 16 30 -4 0
-9 29 -10 5 0
-39 -13 -34 24 0
21 22 -16 -10 0
13 -8 30 31 0
-38 -34 -33 -14 0
1 -21 -13 20 0
7 -6 4 -13 0
-33 15 -29 -21 0
-33 7 -14 -37 0
22 10 -9 -31 0
-27 33 -37 -8 0
-32 24 16 -29 0
37 -5 -38 -33 0
13 -22 -25 38 0
-8 -12 26 -3 0
19 18 -4 27 0
40 8 -39 -12 0
-10 -38 -31 -29 0
-4 -12 -27 21 0
-7 31 33 12 0
-15 28 -21 2 0
-28 26 -1 -13 0
-18 -30 11 -16 0
-1 -13 -39 -35 0
9 20 -28 8 0
-8 26 18 -27 0
30 -34 20 -11 0
-38 33 -14 -21 0
19 36 -22 -34 0
-22 27 23 -4 0
38 5 -35 -19 0
-14 -24 -20 -4 0
-30 2 33 -20 0
32 -24 -5 38 0
6 -20 21 -10 0
38 -6 -16 39 0
-32 -11 -2 -12 0
-17 16 -22 28 0
-22 7 -19 -17 0
-38 31 7 39 0
6 26 24 31 0
13 -8 -14 -33 0
15 -33 -13 36 0
-32 -8 -40 -31 0
-32 -36 38 -2 0
-19 26 8 -27 0
-19 -6 4 -5 0
17 28 -19 27 0
38 34 -5 28 0
-15 -27 33 8 0
-6 23 -17 -26 0
3 35 15 -9 0
-32 22 21 13 0
-35 12 -7 32 0
33 8 -10 -3 0
23 -38 12 -19 0
29 23 -27 22 0
-38 -9 -14 -25 0
-17 -12 19 9 0
-6 22 33 2 0
11 -12 -22 -29 0
29 -7 -6 18 0
-27 7 -39 36 0
28 -35 -23 -15 0
-39 16 -25 26 0
-38 -27 -11 -15 0
-40 30 37 -9 0
-6 17 -24 -25 0
18 21 -17 -9 0
-32 18 -10 -40 0
27 9 -10 24 0
-29 -26 -31 23 0
18 8 33 -32 0
16 -1 39 40 0
8 30 -21 34 0
34 33 16 31 0
4 -7 -26 -16 0
-1 5 -29 18 0
29 -18 12 35 0
-18 24 -14 -4 0
20 -16 -38 -10 0
-19 4 -40 38 0
-24 13 16 35 0
-35 -32 22 -4 0
16 21 -5 -35 0
31 4 36 -9 0
-13 3 30 -7 0
33 27 3 7 0
40 21 27 25 0
-35 18 -24 -27 0
-15 -30 -5 -16 0
18 -6 8 29 0
-15 -7 38 18 0
1 -18 36 -14 0
10 -2 -24 -8 0
35 8 -23 -7 0
-33 36 15 -21 0
-17 -28 -23 15 0
-13 -24 2 -31 0
-10 5 -25 -31 0
-15 34 16 27 0
-27 17 -2 9 0
-5 20 25 -30 0
-16 -11 10 -21 0
-39 10 -15 14 0
9 -11 3 -28 0
9 18 17 14 0
1 32 30 35 0
-15 -6 -18 -39 0
7 13 3 -30 0
21 -29 2 -30 0
22 -6 -7 29 0
31 -19 21 18 0
-29 33 35 -14 0
-39 19 -27 31 0
32 10 3 -6 0
24 3 -20 -8 0
29 -38 -4 39 0
19 7 -33 31 0
33 24 28 2 0
40 -11 -22 -24 0
30 -15 -22 23 0
-38 32 5 -34 0
-22 35 33 -23 0
23 -1 32 -40 0
-18 35 -37 -39 0
-28 18 -12 15 0
27 -32 11 19 0
4 -18 26 -7 0
-27 13 -10 -37 0
23 29 -31 -24 0
-30 24 20 34 0
-23 -10 3 6 0
12 38 19 13 0
14 -11 -19 18 0
31 21 -23 -6 0
-4 -32 14 -29 0
36 37 -19 -2 0
-7 9 21 32 0
-19 -38 39 -7 0
40 6 29 -19 0
7 -5 17 25 0
-18 19 21 32 0
-40 24 13 -17 0
32 -7 -37 -29 0
-6 -26 -28 -34 0
16 28 17 -30 0
-8 -21 7 -36 0
11 -7 -36 10 0
22 -18 12 4 0
21 -37 -27 15 0
6 38 -22 17 0
-27 -2 13 -34 0
-26 10 9 -5 0
-13 29 26 -6 0
-29 -12 17 -6 0
-25 5 20 21 0
30 -7 28 11 0
39 -27 -21 -23 0
23 10 -21 27 0
-37 -39 10 -1 0
20 30 -16 4 0
13 32 25 -6 0
-37 -3 -38 22 0
-22 10 11 -32 0
19 -8 2 -32 0
9 -36 -38 39 0
14 -5 -20 37 0
13 -14 -3 31 0
21 7 4 20 0
-27 -23 12 1 0
25 -9 -21 7 0
38 12 -9 40 0
5 -16 2 21 0
-26 -15 -24 -33 0
2 -30 -39 26 0
-25 -14 -18 24 0
-23 2 -13 12 0
-2 -9 -1 -40 0
