c family=4-SAT n=40 instance=2 seed=726001144 models=4
c order 25 10 2 36 28 29 38 4 16 18 19 9 35 20 34 37 27 30 12 14 3 23 8 40 11 1 24 5 31 21 22 7 6 13 26 39 17 15 32 33
c order 27 9 37 14 7 12 5 39 31 15 30 4 6 23 20 1 18 34 11 38 24 21 8 13 32 19 36 40 25 10 17 29 35 16 22 33 26 2 3 28
c order 10 7 18 12 26 20 11 24 13 35 33 9 3 27 8 17 25 19 34 6 22 29 37 14 38 2 31 5 21 1 16 15 36 32 28 40 30 4 23 39
c order 3 20 27 31 39 11 5 7 19 37 21 32 8 28 34 15 9 23 26 29 36 13 1 17 4 16 30 24 35 38 25 10 6 12 40 22 2 14 33 18
c order 21 3 22 8 26 30 10 20 29 25 39 40 34 36 28 35 2 1 33 24 38 16 4 17 12 11 18 23 5 37 6 32 15 31 19 13 7 27 14 9
c order 17 20 13 11 28 14 39 5 9 22 7 34 26 27 37 1 4 36 30 33 35 23 6 32 18 10 16 29 19 38 8 24 21 12 25 40 3 31 15 2
c order 20 39 18 26 28 35 17 25 7 19 2 3 1 33 15 12 30 29 36 4 13 34 5 14 10 32 9 38 40 11 6 27 8 16 37 23 31 24 21 22
c order 36 12 20 29 21 27 40 33 7 18 11 30 22 28 2 5 17 37 13 35 25 23 39 1 8 14 24 15 31 10 34 3 4 16 9 6 26 38 32 19
c order 2 33 37 11 8 24 4 25 29 40 38 39 23 31 19 13 32 9 30 26 12 20 3 17 5 21 18 7 34 16 14 1 10 28 22 35 6 27 36 15
c order 24 14 13 27 7 8 2 30 18 35 37 9 34 29 3 28 21 23 1 17 40 16 15 11 39 6 38 12 32 33 4 31 10 25 19 22 5 26 20 36
p cnf 40 384
13 -21 -27 -14 0
-40 -29 27 17 0
-12 25 38 -15 0
-37 -19 29 27 0
28 3 -35 -1 0
-37 -36 -1 -33 0
-31 2 14 27 0
23 -27 -29 -32 0
-13 -9 11 -36 0
-18 4 9 30 0
4 10 -36 8 0
23 10 17 -5 0
-5 -17 36 13 0
21 20 -13 -6 0
31 37 -14 32 0
-23 34 -12 40 0
-8 17 -32 -4 0
-11 13 21 31 0
40 20 -30 9 0
4 -24 -17 -37 0
-1 -9 37 -23 0
-30 38 29 1 0
2 35 -9 -21 0
-37 -38 -4 28 0
-40 24 38 20 0
33 40 6 22 0
6 -29 -32 -25 0
-34 22 -32 10 0
6 -29 20 -15 0
18 -12 -40 -24 0
16 33 13 17 0
38 8 -18 -20 0
39 23 -8 31 0
-37 -27 10 -12 0
8 -11 28 -32 0
-12 36 11 -15 0
-22 -10 7 -33 0
-6 20 9 5 0
-4 -10 -7 -23 0
6 -2 4 -11 0
-39 10 27 -12 0
-2 -34 -31 18 0
-30 -4 17 31 0
17 -28 -35 -16 0
-38 -18 1 40 0
-16 -21 24 27 0
-28 -29 -32 18 0
-18 22 16 -9 0
-7 3 -14 -32 0
29 -1 -10 26 0
-29 -20 19 -30 0
-31 -37 -28 10 0
4 -40 -23 8 0
21 -9 -23 4 0
-31 39 -23 19 0
3 -20 -22 38 0
-8 15 -21 -19 0
-3 17 -33 10 0
11 -16 -33 -25 0
4 -23 37 -12 0
36 -2 -34 33 0
13 -23 27 34 0
-20 30 16 24 0
18 2 -6 23 0
-30 34 -20 -7 0
-30 -3 -12 -27 0
-36 -15 4 -12 0
-10 20 28 -36 0
-10 -23 -13 38 0
-11 22 -6 -34 0
-30 -17 -32 20 0
-4 -38 -39 -33 0
-6 -39 33 32 0
-11 -7 9 10 0
-39 -21 33 24 0
-25 -23 -7 -38 0
20 19 37 28 0
-2 11 -14 12 0
19 -15 -25 30 0
-7 39 18 33 0
-4 15 -8 -32 0
34 31 7 -29 0
-24 -26 -37 -8 0
39 21 6 -5 0
6 -2 -13 28 0
30 38 -15 3 0
31 34 -10 -38 0
25 38 6 26 0
11 29 7 -33 0
13 -17 -3 2 0
-24 30 28 -37 0
-29 -30 -19 -40 0
31 34 29 -11 0
-40 -34 -9 -18 0
-2 -6 36 -24 0
-10 -16 38 29 0
-35 36 39 -32 0
-18 26 20 35 0
24 -16 -29 -27 0
-14 -25 -7 -5 0
20 38 -9 8 0
36 -24 -39 -21 0
24 -34 37 -35 0
20 -24 1 18 0
33 -13 -40 -6 0
-7 10 -35 16 0
3 -15 19 -40 0
32 5 -2 -35 0
-15 -31 -6 -37 0
30 38 -40 -25 0
26 39 1 13 0
15 -24 -14 11 0
-7 2 -23 40 0
2 30 39 32 0
-11 -37 -17 -2 0
26 -37 36 7 0
18 34 -4 20 0
-26 -11 34 32 0
-39 -21 2 32 0
-40 6 -34 21 0
37 -16 8 -4 0
18 -5 9 -6 0
-9 40 18 -13 0
2 35 -25 8 0
-35 18 -26 22 0
-20 -31 11 18 0
31 37 21 -40 0
-22 23 -21 -3 0
12 22 1 -37 0
4 -25 -13 39 0
-21 -37 -17 -39 0
13 -3 17 -35 0
23 31 26 -2 0
-17 -5 -36 -13 0
27 21 3 -29 0
-30 37 -38 -15 0
-7 -25 -34 2 0
17 -31 34 18 0
-6 -34 10 -24 0
31 -10 -18 16 0
15 -13 -32 7 0
-31 18 -11 -22 0
8 -17 29 7 0
-14 31 -21 22 0
28 -8 -36 9 0
-39 -13 -24 1 0
-16 32 -31 -37 0
14 -28 -7 6 0
-4 12 14 24 0
-31 35 20 -34 0
3 20 -13 -27 0
-25 13 -40 5 0
37 -36 18 11 0
-7 13 18 -16 0
22 -6 10 -20 0
5 40 -8 -32 0
25 -33 -9 8 0
23 -37 6 30 0
1 -15 -2 -36 0
8 32 33 30 0
31 1 32 -27 0
-31 26 -1 -2 0
-17 -36 -8 5 0
-26 -38 -39 6 0
37 -24 20 -15 0
37 29 -14 -1 0
35 29 8 -39 0
1 -11 24 -38 0
-1 -5 -12 18 0
1 10 12 -15 0
-4 5 6 -26 0
6 -23 -11 17 0
21 15 29 -30 0
26 21 -29 16 0
-14 -33 -3 25 0
-20 -23 -16 25 0
-10 38 -18 -12 0
25 33 -36 15 0
14 30 34 -26 0
13 23 -32 -8 0
-26 32 22 -30 0
-8 22 5 14 0
-27 -32 -14 24 0
35 -2 23 37 0
-40 25 -4 21 0
-1 22 25 -8 0
7 24 -37 -40 0
-19 -16 -22 3 0
-15 -39 37 20 0
-19 8 -11 -21 0
29 36 -2 21 0
-40 -1 8 37 0
-7 32 1 35 0
-20 -2 11 38 0
-40 -37 -39 17 0
33 -26 3 -19 0
-17 15 4 21 0
24 17 -6 19 0
-5 23 -8 -32 0
-40 -6 -16 29 0
-2 34 -23 -35 0
27 32 11 -12 0
-20 37 27 -1 0
-28 -32 -29 -27 0
-34 -39 27 7 0
31 5 -15 8 0
1 31 8 20 0
32 16 30 37 0
-6 -35 -24 -22 0
-24 21 14 -12 0
35 29 30 39 0
27 11 -14 -22 0
36 26 -27 -9 0
-3 -1 2 28 0
-38 34 -6 16 0
34 -18 32 36 0
18 -33 -27 26 0
17 -24 5 -26 0
-26 25 -4 -16 0
14 -37 33 -21 0
40 -38 -2 29 0
-36 29 20 33 0
-32 -18 36 -6 0
-7 18 28 -37 0
-10 -13 22 -19 0
31 -7 -18 17 0
-22 4 -21 -31 0
-30 29 7 4 0
-19 20 35 -32 0
10 36 -18 -17 0
-33 12 7 -36 0
20 -12 -25 -11 0
-13 16 -21 -3 0
-37 5 -2 24 0
8 26 -22 28 0
-9 -29 -15 -30 0
-39 -37 19 -10 0
21 -39 28 3 0
-28 35 19 18 0
4 -9 39 20 0
25 19 -31 -38 0
-22 4 21 -19 0
-17 18 -23 -15 0
36 -19 29 8 0
16 -28 5 27 0
-40 -31 -24 -23 0
39 -17 -14 1 0
-3 -24 -30 25 0
11 3 -17 10 0
-39 40 -33 2 0
-27 -30 -7 -36 0
28 -6 -8 -3 0
-1 -36 38 -35 0
13 22 2 -21 0
11 -10 19 -27 0
-23 -3 -26 7 0
-20 -26 17 -40 0
-38 14 -32 30 0
-37 39 3 34 0
14 39 -21 32 0
34 15 1 -38 0
35 -15 -27 -39 0
23 7 -34 -6 0
23 -35 -20 -28 0
-11 -12 10 -32 0
-27 40 -8 2 0
-30 5 18 32 0
15 -17 33 -37 0
11 -6 24 21 0
-30 24 -26 -38 0
-23 -39 26 21 0
-37 -31 -18 -6 0
-6 16 -24 -18 0
-13 40 -31 -3 0
23 32 3 1 0
39 20 37 -14 0
20 28 -33 -8 0
-20 -26 -40 -11 0
-1 29 39 40 0
-38 21 -29 14 0
-7 -40 -31 -9 0
25 19 37 17 0
-13 -31 30 7 0
-22 21 -13 27 0
-12 -36 15 -13 0
16 -12 29 -1 0
-21 1 -17 3 0
5 29 13 32 0
-25 -22 -4 30 0
-13 -8 -33 -5 0
7 27 -39 -36 0
-33 -5 35 21 0
40 -21 -7 9 0
-28 -22 24 34 0
-6 34 20 -16 0
18 -17 2 19 0
31 -4 -19 17 0
20 29 34 -11 0
17 -8 -12 27 0
14 31 32 33 0
24 -38 26 -5 0
-26 -16 17 11 0
16 1 -35 -13 0
-34 -27 1 4 0
-13 -12 -4 26 0
-19 -38 -14 36 0
5 -3 -25 -30 0
-25 -16 -12 20 0
-23 -38 -19 25 0
4 3 11 -37 0
-40 24 -18 -21 0
-24 -12 -17 -6 0
-1 -10 -26 21 0
22 -14 -28 13 0
-13 4 17 -37 0
-37 32 -16 14 0
4 38 -37 15 0
-6 -34 3 12 0
20 21 27 1 0
-31 -16 2 18 0
-40 6 16 9 0
27 6 15 -23 0
11 35 -37 -6 0
-19 -33 -27 -40 0
-35 -3 -4 22 0
-16 -27 -2 33 0
-8 -2 37 23 0
30 13 21 5 0
22 21 6 -13 0
40 19 -14 -12 0
9 36 -5 -34 0
-8 -32 -22 -21 0
-5 24 -20 12 0
-2 -29 -6 -13 0
11 2 26 25 0
14 24 5 -16 0
-36 22 34 14 0
-19 -40 15 10 0
-40 22 -30 -10 0
36 -12 -6 34 0
29 -32 -1 11 0
-18 -13 -1 15 0
-19 -26 -21 -23 0
12 6 21 22 0
-38 29 -17 -28 0
20 25 -28 1 0
-31 38 -2 -15 0
35 -32 23 12 0
38 39 15 -11 0
16 -1 -13 -5 0
30 -18 26 40 0
-39 31 -33 -37 0
28 24 27 -38 0
-35 32 -8 -30 0
12 -22 -4 31 0
3 38 -40 21 0
-23 -30 25 7 0
-2 -23 -30 5 0
20 -2 -25 -6 0
-35 -9 -13 -4 0
-22 40 33 -29 0
-19 -2 10 -32 0
-15 39 32 26 0
-8 31 21 10 0
-26 16 -28 40 0
-3 19 39 36 0
-17 30 -26 -18 0
1 -15 33 -40 0
5 32 -24 -12 0
1 26 -19 11 0
-26 -27 40 -10 0
35 -27 -28 -4 0
31 -27 -25 13 0
4 -37 26 18 0
12 -37 2 -6 0
14 35 37 -34 0
-22 -6 21 -35 0
23 6 -4 -36 0
40 21 -10 14 0
35 1 37 -39 0
-32 -15 35 9 0
-10 26 19 40 0
-18 -5 -39 -34 0
32 -35 -20 11 0
