c family=4-SAT n=40 instance=3 seed=726001144 models=20
c order 17 30 31 32 23 29 38 33 2 18 28 21 4 1 27 3 34 8 40 14 11 24 6 13 25 19 22 20 37 5 16 36 35 7 9 39 12 10 26 15
c order 25 20 8 19 34 33 4 30 18 10 11 12 23 1 9 21 17 40 39 22 3 13 37 2 36 16 5 26 28 7 31 29 14 15 24 27 35 6 38 32
c order 37 36 13 7 12 6 35 31 14 40 10 33 17 15 29 23 24 4 25 1 28 34 2 32 39 11 16 27 9 38 26 19 5 8 21 18 20 30 3 22
c order 39 28 30 36 16 21 8 14 33 5 7 3 29 38 19 27 13 15 10 18 17 4 24 37 25 1 35 11 22 23 12 40 34 26 2 20 32 6 9 31
c order 36 34 33 4 1 38 32 6 31 17 15 35 18 9 24 10 27 14 16 8 37 3 20 13 21 19 23 25 12 28 11 22 40 7 5 2 39 26 29 30
c order 7 5 33 32 21 11 34 38 39 8 36 20 4 6 19 14 16 40 30 10 17 18 13 35 3 2 15 22 24 31 23 37 25 12 26 9 28 1 29 27
c order 25 29 13 36 6 40 32 15 10 14 12 26 3 11 21 5 33 1 39 16 23 7 28 9 8 22 19 18 37 31 4 17 35 38 24 27 30 2 34 20
c order 19 11 29 24 36 1 12 2 23 26 22 15 28 3 8 27 37 5 39 17 31 20 4 16 7 30 35 34 13 32 6 14 9 18 25 40 21 33 38 10
c order 6 21 8 11 23 15 38 20 5 28 24 17 33 36 37 10 3 12 9 18 26 16 29 13 22 14 34 7 30 1 39 25 32 40 27 2 31 4 19 35
c order 23 25 13 9 19 39 4 30 24 20 22 1 2 11 36 16 32 31 38 10 29 12 35 8 33 21 5 18 3 17 28 15 26 7 37 27 40 6 14 34
p cnf 40 384
-7 -36 -39 34 0
34 -39 -11 -5 0
17 19 16 -21 0
34 18 -19 -40 0
3 21 7 2 0
-30 35 38 -32 0
-20 -37 32 12 0
-35 16 3 17 0
24 40 9 -17 0
26 -12 -38 14 0
-34 -1 -10 13 0
28 -13 14 -36 0
-25 -9 23 -14 0
-32 -22 18 -23 0
-6 3 5 30 0
10 35 -16 14 0
-39 6 11 8 0
33 -31 -35 -23 0
-11 -5 -12 -26 0
31 -7 32 -38 0
32 -26 -23 6 0
-8 35 30 -7 0
-28 4 -1 11 0
36 5 -19 -37 0
-38 -31 6 -28 0
-11 10 19 8 0
-27 -30 8 21 0
-2 -8 25 20 0
-28 16 -22 6 0
36 25 38 -10 0
23 40 -8 -21 0
17 -31 25 -27 0
32 21 -39 -6 0
-3 30 6 31 0
15 40 10 -12 0
21 -36 -23 -25 0
-2 7 -3 -20 0
21 37 27 10 0
4 -19 16 21 0
-11 -31 -8 28 0
-32 -33 -36 -35 0
-17 20 30 -21 0
-36 -11 24 -28 0
10 9 -30 4 0
-9 -25 33 11 0
-22 19 -8 -13 0
-16 -2 -23 -32 0
13 -15 -22 26 0
-20 -28 -18 -31 0
32 11 4 18 0
-22 -1 8 -36 0
38 -15 24 -32 0
-28 3 8 21 0
9 10 -7 19 0
-2 34 22 -40 0
-25 -13 35 -11 0
-12 -14 25 -7 0
26 28 34 -25 0
-8 -11 40 20 0
18 21 -32 -11 0
37 -29 -23 -34 0
21 22 25 -28 0
-40 -39 18 29 0
-22 -40 13 -36 0
-39 -8 37 7 0
30 -2 -27 -19 0
-11 38 25 17 0
-3 -31 -22 -18 0
20 -25 9 39 0
19 3 2 6 0
-39 -35 -40 -22 0
16 -35 3 -5 0
-33 -3 23 -26 0
-38 16 -19 -33 0
2 16 36 9 0
9 21 -38 8 0
5 -23 -27 -38 0
-30 22 -3 36 0
-17 11 -22 35 0
36 13 -23 -17 0
-1 30 -15 -20 0
-20 22 14 -17 0
-22 -9 -7 37 0
9 -36 -2 -4 0
24 12 36 -1 0
-39 8 10 9 0
38 34 -4 30 0
27 -10 13 -22 0
27 -24 28 18 0
-15 -5 23 -7 0
5 11 -36 -33 0
-7 10 -6 -18 0
36 11 -16 13 0
2 11 -9 40 0
-17 -30 32 25 0
37 -27 -2 39 0
-12 -38 21 -23 0
19 24 -34 13 0
18 -10 -21 -25 0
-40 37 -7 -27 0
-32 20 34 -33 0
-6 -3 -8 -39 0
22 4 17 34 0
-31 3 -19 1 0
15 -40 -29 -33 0
5 -29 -14 31 0
35 -21 8 13 0
23 -18 27 28 0
29 -24 20 -30 0
-22 -23 -28 24 0
-14 -23 34 25 0
4 -32 16 21 0
-22 -20 -9 26 0
28 19 -9 -35 0
-18 36 30 -23 0
-26 36 -16 -14 0
-2 20 -25 36 0
31 37 -20 16 0
39 25 -17 26 0
19 40 -1 14 0
-19 -13 -4 7 0
-27 4 -35 20 0
17 22 -29 -38 0
4 24 -1 -13 0
-5 -37 30 -25 0
29 -22 -26 -16 0
-22 3 16 -11 0
-40 -22 17 -7 0
11 -12 21 35 0
-30 9 28 -22 0
-38 -33 -8 18 0
38 20 -11 14 0
-28 -3 -14 -16 0
5 -1 3 38 0
-36 -22 26 -31 0
11 -24 27 -29 0
-40 5 -38 -26 0
-24 -39 -3 31 0
14 -36 28 -7 0
19 -13 -22 -1 0
-26 32 38 10 0
-17 13 -29 -2 0
20 35 2 -24 0
7 -23 8 -9 0
31 -21 27 37 0
28 11 -29 31 0
3 34 -6 11 0
15 -30 -20 -22 0
17 -2 33 22 0
28 7 17 34 0
-39 -30 14 -20 0
28 -13 -26 20 0
24 -22 -19 -11 0
24 -21 8 -12 0
4 27 -24 -35 0
-8 -22 -12 35 0
4 20 10 27 0
-12 16 39 19 0
32 9 -14 -29 0
13 -28 -8 34 0
-36 24 39 20 0
24 5 -33 7 0
23 -1 29 34 0
-23 -37 -19 26 0
-11 1 -31 19 0
-7 26 -18 40 0
6 27 -30 25 0
4 11 -19 29 0
-32 -19 6 -7 0
33 -15 -24 17 0
-28 15 -16 -2 0
-16 -22 31 12 0
21 -27 -8 -31 0
23 31 1 -39 0
-7 6 -19 -10 0
11 -1 16 25 0
7 27 9 -5 0
5 -20 14 38 0
11 -24 -32 18 0
18 -8 -1 17 0
23 -12 33 24 0
-35 9 5 -32 0
19 -14 -5 -22 0
11 27 3 38 0
-9 19 24 15 0
17 -9 31 -11 0
-35 15 -1 16 0
1 23 28 5 0
28 -6 14 30 0
-1 9 39 17 0
39 -1 9 38 0
7 34 -28 9 0
-25 3 -27 -13 0
7 19 -32 -18 0
17 22 -14 -23 0
23 -39 13 30 0
2 -19 -8 -34 0
37 27 -33 20 0
36 -33 -32 -22 0
-27 -36 -38 -1 0
33 22 -38 -25 0
-1 4 34 35 0
16 -23 -18 -14 0
12 24 16 32 0
23 -39 -5 27 0
17 -21 -20 2 0
-28 38 35 3 0
-21 -11 -25 -34 0
13 30 -8 12 0
-34 -21 -30 29 0
-28 -12 -38 -8 0
-26 -16 21 35 0
-17 27 25 -32 0
36 -28 24 25 0
-12 -35 -30 -17 0
17 -30 -10 25 0
-33 36 18 4 0
-18 -34 -30 22 0
-6 13 36 -31 0
8 -1 34 -26 0
34 12 -28 3 0
29 -21 -27 -20 0
-29 38 -28 39 0
-22 14 -18 27 0
-24 34 40 -5 0
32 -20 2 6 0
3 -13 30 -17 0
16 -19 -15 -14 0
-18 30 -2 -10 0
-16 -1 -22 -15 0
-23 -5 34 3 0
-23 -3 -32 36 0
-7 19 35 -10 0
28 -18 30 -23 0
-10 -14 28 33 0
34 18 16 -2 0
-40 39 -2 -13 0
7 17 -22 34 0
28 -26 -37 -4 0
-22 -33 -17 -8 0
20 19 29 35 0
-37 -8 1 23 0
26 -30 7 -29 0
-37 11 -9 1 0
-17 21 19 -30 0
2 25 -30 32 0
-22 8 32 -20 0
-1 -37 -38 -6 0
-4 18 22 -17 0
-9 3 17 -4 0
29 -39 5 14 0
40 -12 10 5 0
-36 -32 -23 -33 0
8 -12 7 -18 0
-25 22 -30 -4 0
-24 -34 -4 11 0
12 21 -8 16 0
3 -22 -35 19 0
-23 38 -28 -2 0
2 -21 -6 9 0
-18 -20 33 -10 0
33 27 10 9 0
-33 -40 -19 -13 0
5 17 -38 16 0
-17 27 -29 7 0
14 -32 -23 -17 0
15 8 34 39 0
-3 -4 40 -23 0
29 -11 -8 5 0
19 -6 -11 12 0
-31 -39 7 3 0
-34 -33 -31 1 0
8 35 1 11 0
-40 -15 -5 -9 0
2 -40 -12 18 0
-19 30 4 18 0
-37 -35 3 -31 0
22 -28 -6 -29 0
-5 29 -31 35 0
-36 11 -17 -7 0
3 -19 -8 -30 0
-33 17 22 18 0
14 -21 -13 28 0
-2 -9 -12 39 0
-38 34 10 26 0
-19 10 24 40 0
26 34 -39 10 0
1 -24 18 -3 0
-40 -18 -36 1 0
-35 14 -39 21 0
-38 10 26 -7 0
-23 -26 -22 -14 0
-15 -35 16 33 0
-25 34 12 -9 0
-10 1 5 -38 0
14 -32 -11 1 0
4 -20 33 29 0
20 4 -21 28 0
-32 3 28 -29 0
38 -5 16 -12 0
-4 22 -37 -38 0
-34 22 33 3 0
10 1 40 -14 0
21 -13 -28 2 0
38 27 12 -6 0
23 -10 36 -37 0
-17 -40 -39 13 0
-38 11 18 10 0
-39 25 -3 -33 0
-9 34 30 12 0
-25 23 11 -26 0
15 -7 28 -26 0
-27 -8 -15 -11 0
24 12 5 -4 0
17 -13 16 -23 0
35 27 12 3 0
22 21 3 -27 0
-5 -29 -14 12 0
25 11 -17 40 0
-33 -31 32 37 0
34 19 2 -5 0
-2 -36 -32 -35 0
-23 25 -20 -7 0
-28 33 -5 -18 0
29 -20 37 3 0
-2 -1 -18 15 0
-16 -3 -7 -15 0
-28 -26 36 19 0
15 5 10 -12 0
-8 -10 -14 -38 0
3 32 -35 -24 0
-5 -9 -2 -4 0
4 -6 30 -17 0
34 -19 5 -21 0
8 29 -1 -34 0
-29 31 -37 36 0
-15 -19 20 -29 0
-39 -35 -23 21 0
-34 -17 -10 -14 0
-39 11 3 -33 0
8 -25 32 20 0
19 -7 8 34 0
-4 2 23 -3 0
-9 -26 -12 -20 0
-24 6 4 -13 0
8 22 26 15 0
-1 -2 -28 39 0
5 -23 -6 11 0
-13 -29 8 -27 0
37 29 -21 -28 0
-16 2 -10 -20 0
-2 26 37 17 0
-30 -21 29 -23 0
34 -8 -29 -33 0
16 -27 2 -20 0
-39 33 -17 -21 0
-4 2 -21 39 0
32 -3 -39 11 0
29 38 2 -40 0
40 14 -38 39 0
-29 -24 -39 7 0
-10 -2 -33 21 0
-7 29 31 19 0
13 37 26 9 0
2 -4 8 -1 0
29 24 -9 7 0
25 6 -34 -19 0
-5 -19 -1 -23 0
16 -13 -40 -39 0
34 4 -37 15 0
2 -40 -30 -38 0
25 -36 16 32 0
-27 -9 28 40 0
-37 -29 -8 -35 0
-20 -23 -36 8 0
17 29 -38 -27 0
-1 -9 29 7 0
34 -15 -29 -13 0
-17 -4 7 5 0
23 -33 12 -6 0
-28 -38 -4 19 0
34 32 -16 -10 0
-25 21 -35 -36 0
35 -17 9 31 0
