c family=4-SAT n=40 instance=9 seed=726001144 models=1
c order 28 14 9 40 24 16 19 10 1 20 36 22 33 15 31 5 3 32 26 29 2 27 7 38 21 17 37 39 13 25 30 6 8 11 18 35 34 23 12 4
c order 29 17 32 28 35 12 11 7 24 36 4 30 15 39 16 27 34 37 23 20 31 6 26 19 18 40 14 13 22 1 10 2 25 21 33 3 8 38 9 5
c order 11 28 12 1 19 6 9 40 39 8 31 10 20 27 32 37 18 25 2 29 22 14 36 5 17 23 24 33 35 4 3 30 34 7 38 15 26 21 16 13
c order 14 19 36 28 25 22 4 8 11 31 5 15 32 26 12 33 29 30 13 23 18 10 20 40 1 17 39 24 35 16 34 6 3 37 7 27 9 21 2 38
c order 27 3 18 16 14 32 37 38 5 4 22 12 2 10 31 11 15 33 8 29 9 7 1 34 25 21 24 35 23 20 26 28 17 36 40 6 39 19 30 13
c order 34 31 24 9 28 18 19 26 7 12 3 8 2 14 16 37 1 20 22 33 4 32 38 6 13 21 35 36 23 30 10 25 5 11 17 15 39 27 40 29
c order 3 39 31 37 9 14 18 26 36 12 40 25 24 35 30 38 21 20 19 17 13 4 8 28 11 29 32 33 22 7 5 10 1 34 15 23 27 2 16 6
c order 32 22 34 20 37 18 24 19 38 33 6 27 29 39 12 3 11 36 21 1 40 30 26 35 4 10 23 13 31 16 17 14 9 8 28 7 5 2 25 15
c order 35 32 18 36 2 24 8 23 17 4 34 14 10 3 6 21 39 5 13 37 1 40 15 33 30 11 26 7 38 16 9 12 31 25 20 29 22 27 19 28
c order 4 36 25 7 14 38 10 23 35 15 29 12 26 40 16 13 17 37 39 24 2 5 31 6 21 33 9 19 8 3 27 22 34 30 1 28 20 18 11 32
p cnf 40 384
25 -8 35 23 0
-35 21 -40 -16 0
-32 -26 8 -31 0
-19 -23 -11 17 0
-37 36 -29 -7 0
-18 -38 36 17 0
-37 -2 -22 -3 0
3 -8 7 -25 0
-2 27 -9 30 0
-8 9 5 29 0
-17 16 -3 -22 0
-7 -4 40 -12 0
31 9 3 -21 0
-12 35 -28 -4 0
28 35 30 34 0
1 -22 6 -12 0
36 7 10 -6 0
-24 14 -1 8 0
-17 28 1 37 0
6 8 28 -21 0
8 -12 18 -15 0
-38 20 -39 4 0
3 1 6 17 0
-29 -26 -11 -21 0
15 32 -11 -25 0
-16 -13 -23 -21 0
26 -30 33 -11 0
-38 22 -40 -36 0
-34 18 25 -11 0
24 10 37 -14 0
-31 -40 -25 -21 0
-37 -38 -34 20 0
13 38 -30 23 0
22 -10 -24 -4 0
17 10 -32 -35 0
25 17 -13 -29 0
-24 -36 22 -18 0
29 16 4 12 0
-31 34 -5 -10 0
-19 4 23 25 0
28 22 -29 38 0
15 -35 -7 -19 0
-6 17 31 14 0
-5 38 23 -22 0
-8 22 18 28 0
-19 14 32 33 0
-27 5 26 -16 0
35 24 -7 18 0
6 -18 17 34 0
39 -6 -21 -5 0
-11 -18 -22 33 0
31 17 -12 -40 0
22 -26 24 9 0
15 -11 36 -24 0
-14 -26 -17 19 0
37 25 -16 -31 0
7 -27 5 18 0
11 -35 -40 19 0
-12 -25 5 14 0
-12 20 26 7 0
2 30 -29 40 0
24 34 -4 -38 0
-3 19 -17 -34 0
10 31 -39 -29 0
-27 34 36 23 0
25 15 13 -2 0
-39 37 17 26 0
-21 -14 34 -22 0
9 14 24 23 0
-16 25 -27 -12 0
18 -7 14 -24 0
36 15 -9 -1 0
-29 7 35 -12 0
-14 30 13 -10 0
-33 25 37 -28 0
-37 11 39 14 0
-24 -8 15 -29 0
25 -16 27 26 0
40 22 -7 32 0
17 11 38 9 0
-11 18 -30 23 0
6 33 18 -32 0
16 19 -3 12 0
32 -18 -3 37 0
-18 35 20 -37 0
-39 14 -19 -1 0
-5 32 22 26 0
23 -35 37 36 0
-35 25 -31 -33 0
-17 -27 6 5 0
-19 18 25 40 0
9 40 -36 33 0
8 10 -13 15 0
-21 -20 18 10 0
17 -22 -1 -7 0
19 -2 27 -25 0
-32 -23 13 9 0
-10 -18 -35 -16 0
-12 -7 -40 37 0
-6 29 4 27 0
-31 23 8 12 0
-39 22 -4 -5 0
35 7 19 -34 0
39 31 -1 21 0
15 5 29 -8 0
-1 -3 -6 35 0
20 28 -5 -9 0
-1 -12 -24 26 0
6 -18 26 35 0
-9 7 -10 6 0
-9 4 23 -15 0
38 22 -15 -21 0
16 1 12 20 0
28 -8 -40 -14 0
-40 10 -12 6 0
2 -32 -9 -8 0
7 16 -33 5 0
-19 17 -3 -20 0
19 22 24 21 0
-17 -24 19 32 0
5 -39 -29 -20 0
18 -30 -34 -38 0
-12 8 -27 37 0
4 -17 -39 -27 0
9 16 13 4 0
-15 -17 -1 14 0
19 -8 -37 16 0
22 4 -31 29 0
30 7 -19 -36 0
-12 -15 -9 -19 0
-21 -32 -6 -4 0
8 -21 5 -27 0
-14 -17 -20 12 0
-29 16 8 32 0
-23 8 26 -31 0
-27 10 24 -2 0
-28 13 -4 29 0
-20 30 24 9 0
9 18 19 -35 0
-38 -1 15 -4 0
28 -4 -30 -26 0
-21 27 -19 -40 0
11 29 -24 -26 0
-13 -16 12 7 0
36 40 3 -26 0
21 -15 23 39 0
36 6 38 -17 0
13 1 -6 34 0
2 -38 -5 -27 0
17 28 31 -25 0
10 -17 14 -9 0
-33 -9 -32 -22 0
4 9 -6 -1 0
-35 33 19 34 0
-39 1 22 -33 0
-22 19 -33 23 0
20 -32 13 -21 0
28 -3 -19 -23 0
-28 -16 -5 39 0
7 32 -40 -21 0
29 17 15 38 0
38 -20 5 15 0
18 -15 32 -4 0
21 -23 28 24 0
-36 21 13 -26 0
34 16 31 27 0
-21 14 1 -12 0
34 30 29 18 0
-17 -36 37 1 0
-10 14 15 -36 0
-16 15 10 8 0
-18 34 20 -39 0
7 22 4 -38 0
34 -5 37 -25 0
18 -9 -25 -19 0
-7 8 -24 -14 0
-2 40 23 -21 0
3 19 -35 18 0
-26 3 -9 32 0
38 5 -2 16 0
5 -10 -2 14 0
-12 -30 -6 -20 0
13 28 14 -25 0
-18 27 9 -39 0
26 -20 38 -28 0
-25 -13 32 -29 0
28 -15 -12 40 0
-6 8 18 -15 0
-1 -26 9 -35 0
-3 32 39 38 0
14 -35 16 -15 0
31 -3 -8 7 0
10 -39 13 7 0
-29 -23 -2 31 0
10 -26 -1 -15 0
24 -13 -32 -27 0
-36 15 -22 5 0
-37 2 -15 32 0
-27 -30 14 11 0
-6 8 36 -13 0
38 7 -11 33 0
40 -19 -31 15 0
32 16 -25 -24 0
-38 12 13 11 0
33 19 29 -31 0
-2 -22 -21 30 0
-8 -4 -13 14 0
14 -9 31 -36 0
-30 40 -37 10 0
-36 -33 -20 32 0
-16 33 -9 8 0
6 14 -40 27 0
-15 -28 -40 -24 0
21 2 -10 -31 0
1 36 -20 24 0
15 22 -39 8 0
1 -37 27 -38 0
-31 -32 21 22 0
21 -7 38 36 0
-13 8 21 -15 0
9 -10 31 -28 0
38 3 8 30 0
-26 -27 11 34 0
-4 -8 15 18 0
-8 -31 34 18 0
32 9 -13 19 0
-12 14 27 25 0
37 -3 -36 -30 0
-3 -23 26 18 0
-26 21 -19 15 0
25 26 3 -1 0
31 -37 -16 -11 0
-13 -12 14 25 0
34 23 12 -11 0
-2 17 -16 15 0
19 -5 9 31 0
-12 28 -38 33 0
38 -31 -2 -4 0
-3 25 -11 24 0
-20 8 -33 22 0
-19 -31 -18 -11 0
-2 -13 28 -21 0
-39 -28 -27 9 0
35 25 33 15 0
21 -37 34 -30 0
23 3 -40 -27 0
1 13 33 30 0
-39 31 -40 10 0
-22 -5 11 -12 0
30 -39 31 -37 0
-38 29 3 -8 0
33 -8 39 -24 0
-15 1 -21 23 0
-33 14 31 21 0
-5 -28 -12 3 0
16 13 26 6 0
-37 -25 24 -18 0
13 -9 -3 -8 0
37 24 19 -7 0
7 39 12 -2 0
15 40 37 27 0
-19 17 5 1 0
-40 -13 7 -26 0
28 -16 -2 -5 0
7 5 -9 -11 0
-23 38 -1 -3 0
-14 37 -34 -13 0
4 20 10 2 0
13 -19 -17 8 0
26 5 -27 38 0
7 -11 -9 25 0
-28 1 9 18 0
14 26 10 -4 0
-24 -29 -19 23 0
16 39 31 -27 0
-12 -13 28 -10 0
-27 10 -1 -23 0
25 32 -16 33 0
10 38 17 -35 0
11 40 21 -17 0
38 9 20 29 0
-40 22 20 -28 0
-36 34 -11 -10 0
-26 -22 -16 40 0
11 33 -36 39 0
6 32 39 33 0
-18 -15 38 -8 0
13 -40 28 27 0
21 -13 -38 -9 0
21 8 9 10 0
13 -28 -30 4 0
8 -39 35 -18 0
8 38 -7 39 0
17 5 9 1 0
-40 9 37 -32 0
19 -21 -26 -40 0
23 20 -38 16 0
-36 9 -24 -37 0
-4 -6 -14 38 0
37 2 -7 -17 0
34 22 36 -9 0
-27 17 39 -16 0
-20 4 8 25 0
35 22 -21 -18 0
30 9 34 -40 0
-4 -33 -28 -20 0
-1 -17 35 22 0
10 -3 -15 -16 0
4 40 -1 14 0
30 21 37 -39 0
1 -15 13 -10 0
-19 21 15 -14 0
38 22 -11 -18 0
37 -18 -19 36 0
-24 26 38 -12 0
18 22 7 -11 0
-2 4 39 35 0
11 8 39 -2 0
6 17 -8 -38 0
-1 -28 24 -17 0
-4 40 27 -5 0
26 22 -30 28 0
-9 36 -11 2 0
3 32 -5 -2 0
-6 11 -39 -12 0
-29 -18 8 -27 0
30 29 4 34 0
20 -34 35 18 0
27 -5 -29 -13 0
16 21 20 -38 0
-12 5 15 7 0
-22 26 9 20 0
29 22 10 -8 0
4 -12 -24 -9 0
29 -17 16 11 0
33 -34 7 -3 0
39 -5 -17 -24 0
15 12 -17 9 0
-38 30 20 40 0
38 26 23 -19 0
20 -19 31 -26 0
-26 7 23 3 0
2 -7 5 22 0
-36 -3 40 -35 0
30 25 -21 23 0
30 29 -33 37 0
-7 -34 26 22 0
-4 -1 -29 31 0
-26 38 -11 17 0
-13 11 -2 -33 0
28 -30 13 -24 0
25 -40 -39 -4 0
-31 29 8 35 0
35 -34 9 24 0
-8 14 -19 -13 0
-35 -36 -9 11 0
14 34 1 -26 0
22 2 -36 -12 0
6 -25 1 17 0
-19 15 -32 -35 0
-8 -36 -17 34 0
21 12 13 -20 0
-16 1 31 -38 0
15 -11 -35 -18 0
-20 -40 31 -18 0
-40 -24 -2 -7 0
26 -11 -14 36 0
-31 6 -24 -28 0
-34 -18 -24 32 0
-16 18 -2 -35 0
37 -3 39 38 0
10 21 -9 -8 0
-9 28 -7 -20 0
12 -24 4 -35 0
-14 17 -18 -19 0
-22 -27 -5 10 0
-31 -40 2 -35 0
-15 11 14 -31 0
-13 23 27 -4 0
-35 22 14 10 0
3 -13 38 -9 0
-9 -39 -21 -15 0
1 -19 -23 12 0
16 17 -8 -11 0
