c family=4-SAT n=45 instance=6 seed=726001144 models=4
c order 21 28 2 10 38 24 39 17 11 1 33 9 35 44 30 42 13 15 3 32 5 20 31 23 25 40 18 12 16 4 27 7 45 14 41 37 34 22 43 8 36 29 6 19 26
c order 15 44 30 20 40 9 8 37 24 7 1 27 2 32 25 42 12 41 13 3 16 17 28 39 29 38 18 26 33 45 19 43 4 35 36 11 10 31 22 23 6 21 34 5 14
c order 24 37 25 10 16 33 30 11 19 1 4 21 22 8 7 15 27 42 34 41 45 43 17 6 40 44 31 35 38 5 12 39 23 2 29 9 3 13 14 18 20 32 28 26 36
c order 40 43 20 11 44 41 21 10 29 25 16 9 7 35 42 18 37 36 13 34 31 17 26 8 33 3 14 5 39 15 27 28 32 30 12 2 22 38 45 1 24 23 6 4 19
c order 1 15 33 17 16 9 22 19 36 5 31 2 24 21 29 27 37 42 43 44 12 38 3 26 32 45 39 4 40 18 6 34 10 25 13 23 41 30 11 35 14 8 7 28 20
c order 30 17 5 3 31 39 27 41 7 14 19 33 40 15 38 10 24 42 8 23 44 22 29 12 16 13 32 21 26 11 18 28 25 2 1 36 4 45 43 6 37 20 34 9 35
c order 17 13 37 6 9 27 12 19 23 25 7 44 32 8 21 26 41 18 2 22 20 4 43 30 5 29 38 35 39 45 36 10 28 33 3 42 16 31 34 24 11 1 40 14 15
c order 36 34 18 9 17 13 38 16 43 15 40 35 28 41 8 37 27 22 5 20 3 44 33 19 7 10 29 26 31 42 2 12 24 21 39 1 30 11 4 32 25 14 45 23 6
c order 20 45 41 24 13 15 37 25 34 11 43 30 39 44 26 32 22 27 4 2 18 12 14 35 19 8 31 28 42 17 7 5 33 38 40 16 1 36 29 21 23 6 3 9 10
c order 4 28 1 8 36 42 40 32 41 39 45 9 17 12 22 20 24 3 21 27 43 11 6 33 18 23 7 14 10 15 37 44 5 13 31 25 2 16 19 35 29 38 26 34 30
p cnf 45 432
3 -23 -9 20 0
-32 4 -2 -15 0
20 -45 36 35 0
45 43 44 17 0
29 42 -43 16 0
-14 21 -2 24 0
-37 -13 -2 -36 0
13 -43 16 42 0
-1 -14 -29 45 0
-43 -45 44 -34 0
-6 -24 -35 37 0
24 45 38 -4 0
-14 16 -43 1 0
44 -29 37 24 0
-18 -26 -32 29 0
-4 24 -21 22 0
-8 -3 -23 41 0
-9 38 26 1 0
37 15 -12 30 0
-26 12 18 19 0
-13 11 -16 6 0
39 -8 6 36 0
27 34 43 -31 0
33 25 35 3 0
30 -22 -37 43 0
-25 26 19 45 0
32 -13 15 30 0
-35 20 13 14 0
17 -40 -42 44 0
-14 -24 40 -26 0
34 -14 12 -40 0
-17 -43 20 -1 0
29 -19 -28 -37 0
38 41 -45 -31 0
-33 -37 -35 34 0
4 32 45 12 0
-37 -42 38 -27 0
25 37 -18 -2 0
2 -17 -16 34 0
13 -23 38 -3 0
17 33 -29 9 0
6 20 -31 -35 0
36 27 -45 28 0
-12 4 21 39 0
13 -25 35 -14 0
8 -2 -4 -12 0
-40 -7 20 24 0
-9 -24 34 -40 0
29 -14 35 18 0
-14 -21 -24 -1 0
-28 45 -23 -32 0
-21 -38 -10 32 0
-28 -5 44 -41 0
32 -41 25 43 0
-32 -17 15 -9 0
20 -17 11 -32 0
25 -2 -40 37 0
40 27 10 -2 0
16 -45 39 29 0
-14 -28 26 -42 0
44 12 -1 -16 0
-7 12 -37 -39 0
27 38 36 -14 0
-15 -6 43 7 0
-13 -33 14 -37 0
12 -10 43 36 0
1 -38 19 -21 0
-26 5 -4 25 0
-26 33 -42 -12 0
29 -3 13 -11 0
-45 -6 -37 28 0
44 29 -26 21 0
-45 -3 35 -28 0
-19 -29 11 42 0
22 10 43 -11 0
-39 -13 25 42 0
-2 8 44 28 0
13 -1 -24 33 0
1 23 -15 38 0
27 -33 9 17 0
41 -9 31 -27 0
-22 -36 -14 1 0
28 43 -8 -37 0
-6 -33 -21 42 0
43 42 -21 -30 0
13 -27 19 21 0
28 -8 11 45 0
5 -38 -28 -3 0
-43 25 40 -4 0
40 3 9 39 0
21 -34 9 33 0
-24 -8 -39 18 0
-40 -12 -14 -30 0
-40 44 17 35 0
18 -23 20 4 0
22 18 -33 15 0
14 -29 41 -16 0
-26 -25 -37 7 0
9 38 18 -5 0
-39 28 -14 10 0
27 -7 -39 11 0
6 -31 -20 -3 0
-45 -1 -15 -35 0
-17 1 -4 -12 0
-25 -37 -28 10 0
11 -21 -4 34 0
-31 15 5 28 0
-4 -3 35 32 0
-41 -31 20 -36 0
-29 36 -5 7 0
-25 -19 -5 -37 0
30 42 -31 -12 0
24 28 -37 -23 0
15 -37 -22 6 0
-33 -8 -25 -16 0
21 -3 30 29 0
10 -35 -36 -13 0
25 -12 35 44 0
-21 -5 12 20 0
30 2 16 33 0
26 -8 42 -39 0
30 16 -45 -31 0
-10 -39 17 45 0
23 -12 -20 -8 0
17 -40 44 21 0
7 36 -12 -35 0
38 -6 -12 16 0
26 -7 -6 -12 0
-42 22 -41 -16 0
-8 36 31 4 0
-12 -4 33 -9 0
41 -22 5 -37 0
-21 32 4 24 0
13 4 -24 29 0
-16 -5 -8 -31 0
21 -32 -30 20 0
23 10 -16 -45 0
31 -42 2 -14 0
32 27 38 43 0
13 -8 -33 20 0
-6 13 -14 -24 0
37 -12 15 -2 0
-39 7 -19 27 0
21 8 -5 43 0
-11 18 -44 -26 0
-2 -22 32 -14 0
-12 2 38 -22 0
33 -3 12 -21 0
35 -30 5 -29 0
31 24 -7 13 0
-42 -24 9 -29 0
-23 25 -32 -10 0
-18 22 28 -4 0
17 -42 -29 -31 0
5 -35 -34 39 0
40 -2 -36 19 0
-32 -16 27 -5 0
17 44 34 -40 0
-23 -35 -33 36 0
-26 36 8 -1 0
-20 -31 -40 22 0
-31 38 -37 -1 0
20 -31 -6 14 0
1 41 -17 34 0
41 -27 15 -33 0
10 36 29 -19 0
23 21 10 26 0
-12 26 17 -16 0
-27 8 9 13 0
-32 10 -28 25 0
-8 35 -1 21 0
-19 -42 5 -13 0
-40 17 18 14 0
-43 12 -4 17 0
-25 35 28 27 0
3 31 10 12 0
-11 -27 -18 34 0
13 -10 -29 12 0
-40 -6 30 -18 0
-45 7 -32 -19 0
-5 -36 -24 -18 0
5 -41 -20 -42 0
15 19 -3 -5 0
-17 23 9 31 0
31 23 2 -20 0
-42 -15 37 -25 0
-13 -17 -41 44 0
42 18 -45 28 0
41 38 4 -28 0
-43 -9 -17 3 0
-6 4 -43 -33 0
-7 -8 -18 27 0
-4 -3 37 -41 0
7 -26 25 12 0
19 34 -16 1 0
-4 41 40 6 0
36 29 26 -20 0
24 -26 14 -30 0
20 -42 17 37 0
39 20 -7 14 0
-45 -33 14 -41 0
9 -16 -39 7 0
-15 -35 25 19 0
29 8 10 16 0
7 -2 18 -34 0
6 -43 -30 39 0
3 31 17 -27 0
33 17 4 43 0
-4 32 19 -7 0
-30 45 28 -5 0
-8 7 42 39 0
10 32 -22 -35 0
-1 26 10 29 0
-12 41 16 39 0
10 -32 9 -41 0
6 -33 21 24 0
-9 29 39 -31 0
32 -7 -3 -24 0
-15 -43 1 -6 0
6 -26 16 39 0
-3 19 -39 5 0
-14 45 -3 -18 0
3 30 -1 7 0
1 21 28 26 0
-29 -10 35 -13 0
6 -1 21 32 0
-25 12 35 -11 0
18 31 -15 17 0
-30 29 10 22 0
-22 -33 -6 35 0
-1 34 -6 -18 0
-19 -23 1 -25 0
8 -33 11 1 0
6 43 32 -29 0
-21 43 1 25 0
-16 -27 19 -2 0
-17 38 -21 42 0
-4 19 5 -8 0
-36 28 -15 24 0
-6 43 32 1 0
-44 17 -27 -5 0
-6 15 17 -20 0
-3 8 37 -10 0
-22 4 -15 41 0
7 -37 8 32 0
10 44 -5 23 0
18 20 45 -21 0
35 43 -20 4 0
28 -23 34 -36 0
10 -27 -15 -28 0
4 2 -12 -44 0
-37 -12 -21 -32 0
35 36 -25 -16 0
26 33 -16 -44 0
42 -14 44 -3 0
-12 11 41 34 0
-26 -34 -31 -38 0
-21 14 -20 15 0
5 -7 -25 -36 0
-30 -17 6 -2 0
-3 -45 -12 18 0
-14 37 17 35 0
-14 28 -16 -20 0
7 -12 25 16 0
18 26 37 3 0
-16 11 -13 -27 0
28 -17 24 -5 0
26 -35 16 39 0
30 19 -1 -9 0
-8 35 19 -3 0
9 -31 1 -13 0
38 -20 -45 11 0
-13 25 -39 -2 0
-5 -37 20 36 0
-10 -14 37 -3 0
31 -23 2 -16 0
-44 -40 -5 41 0
27 -4 -10 13 0
8 26 -19 23 0
-23 -7 32 -41 0
10 34 -35 8 0
24 -22 28 -40 0
45 -4 9 -18 0
-32 -29 -18 24 0
28 -38 -36 34 0
-31 -45 -42 28 0
-40 -7 20 -26 0
28 -33 -21 11 0
-31 4 -23 -18 0
7 33 22 30 0
-12 18 45 7 0
11 -35 -10 30 0
-27 -31 -9 2 0
-38 43 -1 -11 0
24 -6 7 -14 0
15 -7 -14 -23 0
-12 5 -27 -28 0
18 43 32 -5 0
1 39 -24 -6 0
18 -7 -26 24 0
37 -27 -14 21 0
-32 -24 29 -18 0
9 23 28 -25 0
-25 -21 45 33 0
-38 -13 19 -23 0
-7 45 -42 14 0
27 12 -29 22 0
31 -32 -2 -37 0
30 43 -25 27 0
29 8 -17 -25 0
16 9 -22 -6 0
28 -15 -6 -2 0
17 9 33 -42 0
41 -7 -30 18 0
-1 16 -20 -41 0
18 25 -23 40 0
-11 -37 24 39 0
-32 -17 -37 -26 0
-19 40 -45 -38 0
-44 4 -32 -37 0
-45 -17 44 13 0
-14 -21 -8 -6 0
30 -39 -6 -23 0
-1 40 33 4 0
-30 -23 -1 28 0
1 -41 42 11 0
28 7 -23 -3 0
29 -10 -5 11 0
-27 36 -23 12 0
39 10 14 31 0
32 25 -11 21 0
-31 -16 -9 19 0
45 -11 -35 15 0
-36 42 32 30 0
18 -1 -33 -12 0
14 -41 -45 35 0
-20 -25 -44 9 0
22 -8 -10 44 0
-24 -37 -28 -45 0
37 34 -11 2 0
-22 -44 31 45 0
-40 42 -35 -22 0
-42 -29 -32 -26 0
30 28 1 18 0
-18 -2 37 -35 0
-34 35 -22 11 0
-3 39 25 -4 0
13 15 42 -3 0
-32 11 -2 -9 0
-4 -32 -24 8 0
3 -16 -13 5 0
-40 -17 4 35 0
-7 38 -19 -3 0
-40 32 37 -39 0
3 -8 34 27 0
26 -6 3 18 0
-7 12 2 9 0
8 -38 -12 -42 0
-38 -6 32 -7 0
38 37 6 34 0
-2 -26 -33 10 0
6 -39 -18 9 0
29 -1 -37 -2 0
6 -15 -31 43 0
-40 -3 17 30 0
38 -41 -1 -35 0
-24 -18 -45 16 0
16 11 21 9 0
22 -32 21 43 0
-24 26 -35 -45 0
-3 36 -1 18 0
-44 10 2 -28 0
-13 -41 23 15 0
-16 12 -18 8 0
43 -8 -21 -20 0
1 40 -5 -29 0
-41 31 -44 22 0
-11 -28 40 8 0
18 -26 2 32 0
-20 -10 -17 -14 0
32 -17 11 -37 0
33 -25 2 24 0
20 -5 11 -6 0
3 18 38 -40 0
-4 -18 -34 -6 0
42 -9 -32 -34 0
-34 -13 18 3 0
-2 -17 7 43 0
-10 -37 34 -2 0
37 16 19 -26 0
33 -17 42 -27 0
44 5 13 25 0
-30 42 -28 -36 0
19 -41 21 -24 0
18 -42 27 35 0
-11 45 -25 21 0
7 13 29 -30 0
40 -30 -36 -24 0
-30 -27 8 -43 0
-45 -28 -35 -9 0
-30 17 -39 -38 0
18 -15 -26 23 0
-38 2 10 -45 0
27 7 36 21 0
-45 34 -42 -10 0
36 19 23 1 0
33 -30 36 18 0
-27 26 -29 40 0
23 -36 -5 -10 0
-1 35 -38 -6 0
-35 -20 11 19 0
-7 28 21 42 0
1 -4 7 43 0
10 32 21 -31 0
-20 -35 32 -16 0
6 42 21 33 0
1 -28 -4 13 0
-32 35 -21 27 0
35 12 19 33 0
43 -38 25 -42 0
9 30 17 18 0
30 18 -10 5 0
24 14 -30 -10 0
45 43 32 28 0
-2 -41 -6 44 0
-7 30 37 -32 0
-25 38 -36 -12 0
24 -23 -22 -27 0
12 -40 -5 33 0
19 36 -6 -26 0
-13 -11 8 -45 0
-8 22 24 45 0
