c family=4-SAT n=45 instance=9 seed=726001144 models=4
c order 18 19 36 2 43 10 37 30 25 35 33 12 3 22 9 31 41 42 27 15 32 17 40 4 11 8 7 45 23 34 28 6 29 16 20 26 14 39 24 44 1 5 38 13 21
c order 24 35 15 12 13 19 8 43 33 18 5 28 36 16 45 10 25 32 20 2 31 26 22 37 7 1 3 30 42 17 34 4 21 44 27 23 9 29 14 41 6 40 39 38 11
c order 1 33 23 41 37 16 28 18 27 10 24 29 14 11 22 13 42 20 8 5 15 19 31 17 32 9 40 35 45 25 26 36 6 2 4 7 21 3 12 44 39 43 30 38 34
c order 43 21 41 13 45 11 30 26 35 42 36 9 40 18 31 38 5 10 25 34 44 32 3 27 15 19 1 8 22 33 29 12 16 7 14 6 4 37 28 17 39 2 20 24 23
c order 40 23 10 1 11 12 37 25 30 14 32 3 36 34 35 42 26 41 22 19 31 45 6 8 15 2 43 17 7 27 5 28 18 21 4 16 33 39 44 24 29 13 38 9 20
c order 37 6 22 1 7 45 15 17 27 33 35 2 9 4 38 32 40 23 42 31 12 13 44 11 30 29 16 28 36 8 24 10 41 19 20 14 34 21 39 5 26 18 43 25 3
c order 29 27 5 1 26 33 39 40 45 36 24 17 20 15 6 11 7 16 8 4 44 21 28 10 23 30 18 2 41 19 42 22 38 31 3 43 25 34 14 35 13 37 9 12 32
c order 9 10 34 39 23 41 27 11 43 24 33 32 40 7 25 45 35 29 37 8 12 1 44 16 4 2 3 20 6 5 14 18 17 19 26 36 31 22 30 42 28 13 15 21 38
c order 35 43 24 42 23 11 44 37 36 18 38 21 15 5 13 6 25 26 29 39 33 34 9 16 31 2 22 12 28 7 3 8 32 41 27 10 45 19 40 1 4 20 17 30 14
c order 44 32 27 38 16 35 13 7 22 17 3 39 29 41 23 21 15 4 11 14 8 36 9 26 45 42 34 10 24 31 6 2 25 12 30 1 40 20 37 18 43 5 33 19 28
p cnf 45 432
14 -34 -5 -3 0
14 -12 -22 33 0
35 27 39 -25 0
39 31 9 -38 0
-43 -28 15 12 0
40 -21 -7 45 0
-9 14 28 6 0
20 -22 -14 21 0
-8 25 -39 23 0
29 -23 -12 4 0
40 20 -33 13 0
-42 15 -45 11 0
-5 17 -22 -33 0
37 -29 -18 -27 0
-34 19 23 8 0
13 -27 -1 26 0
23 -20 2 24 0
-11 -39 -13 -8 0
-30 32 38 -6 0
21 -43 -24 -22 0
37 -14 43 -20 0
-40 17 19 24 0
-19 -45 12 -30 0
10 19 28 8 0
-33 8 15 -6 0
-21 5 34 -14 0
-45 -10 37 32 0
-11 9 -32 -23 0
8 37 -24 25 0
26 33 -1 -4 0
-30 -19 -2 -21 0
-11 35 22 41 0
-22 27 41 35 0
41 13 14 -7 0
-25 -1 -23 -33 0
23 43 -2 29 0
-42 -12 -28 -33 0
-22 -3 25 5 0
-1 -23 8 30 0
13 16 -30 -34 0
-36 -16 -37 7 0
-42 -5 22 19 0
-32 -42 36 3 0
44 31 6 40 0
-12 10 -27 43 0
-31 23 -11 33 0
-44 -35 -26 8 0
-31 -14 -9 29 0
-2 -8 23 44 0
27 -14 -3 31 0
16 -18 -25 4 0
3 -9 38 -8 0
-3 35 12 39 0
-29 -10 4 41 0
43 42 3 -18 0
6 7 -13 -4 0
-42 -13 38 -31 0
-43 -17 -30 -24 0
15 -41 -30 19 0
-16 7 27 -18 0
-8 6 32 43 0
44 39 27 12 0
-39 -33 -16 20 0
-9 7 -37 -5 0
12 15 -23 25 0
-6 -40 -30 -29 0
-16 -33 -27 -15 0
-14 1 -32 25 0
-24 20 23 12 0
-9 26 34 -29 0
21 12 -4 -16 0
-44 38 31 17 0
-29 18 -43 -8 0
-39 26 -19 -9 0
-33 -45 13 18 0
-9 -11 40 37 0
18 33 26 -28 0
-13 6 11 9 0
-1 -14 -16 -41 0
32 -14 -22 -33 0
-23 7 33 35 0
-7 39 -30 -35 0
23 -31 -12 13 0
-43 17 -10 24 0
-3 7 -42 -36 0
29 42 -8 -20 0
-25 31 42 40 0
10 -43 21 14 0
10 32 -18 -41 0
-40 16 -28 24 0
-29 -20 6 -34 0
7 -38 25 40 0
33 -29 -8 -38 0
-2 6 -26 24 0
-13 -2 17 -41 0
-27 35 -25 17 0
-11 -27 12 40 0
-11 16 36 25 0
-18 21 19 32 0
22 -15 -21 16 0
9 -11 -28 -17 0
-7 33 24 -23 0
-45 -36 -40 29 0
-4 18 -34 45 0
-6 34 -43 -4 0
6 -8 -18 -37 0
9 44 -6 -29 0
36 18 -3 7 0
38 14 2 27 0
28 -15 -38 -32 0
27 40 -24 7 0
21 -27 41 -25 0
6 34 -41 -24 0
36 -11 45 4 0
-22 -36 -40 25 0
22 -44 -43 -10 0
1 -28 -19 -8 0
22 -9 21 10 0
20 15 33 -28 0
30 -12 38 17 0
25 10 11 -9 0
7 25 -22 -33 0
30 28 -21 22 0
-37 36 -9 22 0
26 -28 -37 23 0
7 -15 -3 -44 0
-9 -12 -4 17 0
-2 28 -1 -15 0
2 20 -14 -27 0
23 -26 -7 30 0
-13 -38 -10 17 0
-26 -9 25 8 0
18 41 -24 -8 0
37 -32 27 42 0
-21 -45 -32 35 0
-40 16 28 -34 0
-30 -39 -24 -13 0
-8 25 22 1 0
-7 -43 38 11 0
12 -14 30 -7 0
-20 -13 23 -5 0
-21 42 35 12 0
27 -3 42 -31 0
30 13 -17 -20 0
37 -27 42 18 0
-2 40 30 -36 0
-23 39 -11 -13 0
39 -28 13 3 0
17 -11 -10 35 0
-25 -27 7 -31 0
-42 -10 44 36 0
33 2 -1 43 0
42 41 39 -3 0
25 8 -11 -27 0
-5 -10 -21 -39 0
-32 13 -30 21 0
-38 33 18 -15 0
-36 25 -18 -23 0
-25 -8 -14 -19 0
23 26 -40 -27 0
-23 -28 45 -20 0
32 42 1 -13 0
-35 44 -6 -24 0
38 -34 -19 10 0
-34 8 9 23 0
42 14 25 -41 0
-33 34 18 -21 0
-30 10 -9 18 0
-41 33 38 -7 0
22 32 37 -29 0
-19 -6 7 20 0
-9 -18 -21 23 0
12 -30 -6 42 0
-39 13 -41 -21 0
23 -15 -39 6 0
-15 41 4 1 0
45 -30 -36 -13 0
3 7 21 -27 0
4 -40 13 -16 0
-29 28 -2 -38 0
-21 40 -43 44 0
7 24 20 33 0
-4 -2 22 -37 0
-3 16 -15 12 0
-16 45 -37 32 0
30 -16 20 23 0
-37 36 -29 31 0
-45 29 -7 44 0
-17 10 -22 29 0
-35 32 41 -5 0
-21 -13 -28 15 0
-23 40 34 -38 0
5 -39 -35 33 0
-32 -38 -19 26 0
27 -43 4 41 0
27 18 -15 1 0
35 -17 -10 26 0
-1 -25 -4 17 0
38 28 -8 -36 0
34 -30 5 45 0
20 30 -31 29 0
9 -17 -43 35 0
-16 45 -4 38 0
29 42 -2 43 0
17 16 10 -5 0
-32 4 9 -34 0
24 -15 34 -11 0
-30 -18 15 -41 0
15 -24 -28 -39 0
34 -33 19 41 0
33 -32 -5 21 0
10 11 37 8 0
41 -3 28 37 0
-5 37 -40 11 0
38 22 10 42 0
-12 43 37 25 0
20 38 27 -36 0
23 33 4 -35 0
26 -14 12 36 0
21 -30 2 -33 0
-8 10 -18 -38 0
39 -13 -23 31 0
6 40 -39 26 0
-13 -4 12 15 0
-16 -18 42 25 0
14 45 9 -40 0
-38 -6 -21 16 0
6 -44 16 25 0
-38 -31 12 33 0
1 -9 38 15 0
5 23 26 -45 0
-15 43 -33 -42 0
-2 18 3 -32 0
14 -28 13 41 0
-8 36 -27 12 0
42 28 26 41 0
-41 -32 42 36 0
45 -25 39 7 0
37 30 4 -25 0
-38 31 -26 -10 0
-33 27 45 -13 0
-16 -7 11 -17 0
-3 -21 -2 40 0
11 -29 25 -33 0
-41 36 -1 24 0
-9 -28 -12 18 0
-10 41 -16 38 0
45 -19 -9 6 0
-32 -24 10 -33 0
-33 10 45 -28 0
40 3 -34 -45 0
-40 -3 45 33 0
13 40 -20 -26 0
34 -18 39 3 0
-17 -45 43 23 0
-19 15 -2 45 0
-24 2 30 37 0
28 2 -32 -23 0
19 -12 39 38 0
32 -17 36 21 0
-38 40 3 41 0
2 18 -35 6 0
-17 -1 2 34 0
42 44 33 24 0
-39 -20 -5 7 0
18 -28 19 -24 0
-24 20 8 -16 0
-26 32 -14 3 0
-10 18 37 -24 0
16 1 13 28 0
-34 19 -43 45 0
-9 -5 21 -44 0
-18 44 -13 5 0
15 -37 -38 6 0
27 16 -32 -30 0
14 9 -42 32 0
-3 -34 -11 -12 0
12 -26 39 31 0
-36 13 23 -31 0
-16 -35 -32 -15 0
6 1 -23 39 0
32 -35 -43 -31 0
-12 -20 45 -5 0
22 29 7 28 0
43 39 45 12 0
-36 -45 -24 -15 0
-6 -4 16 -25 0
22 10 26 -30 0
30 38 6 10 0
-43 -20 1 -22 0
-17 36 23 -31 0
27 -18 33 -37 0
-14 15 17 -4 0
20 -5 45 6 0
-26 -29 -44 -10 0
-19 -31 -43 -3 0
-26 29 17 8 0
-38 -27 9 22 0
24 1 -19 21 0
-25 -9 12 -22 0
44 -24 6 26 0
2 7 -38 -35 0
2 -11 -33 -44 0
2 -18 5 -21 0
25 -32 2 17 0
-22 8 37 18 0
41 -20 35 -31 0
9 -29 -35 -20 0
15 25 -42 20 0
14 -25 -15 -45 0
3 -29 20 35 0
-17 -41 -36 -4 0
32 44 -11 40 0
45 -13 -23 27 0
27 32 41 35 0
-36 -39 22 -38 0
43 28 39 -17 0
24 18 -44 -7 0
-41 -21 2 15 0
39 -28 -29 13 0
-27 -26 34 -33 0
43 26 -29 25 0
14 -18 17 -33 0
44 -32 -26 31 0
-15 -24 2 -4 0
19 38 8 -22 0
15 43 40 -45 0
-41 -11 32 17 0
39 -13 -36 24 0
18 -5 -14 13 0
-22 -27 -14 34 0
-32 35 -12 -42 0
22 -17 34 25 0
-32 -16 -28 -1 0
-40 9 -44 -39 0
26 -40 10 4 0
-31 17 -30 8 0
-2 -20 40 44 0
-26 -8 43 -21 0
22 -9 11 14 0
11 45 25 -19 0
-35 -7 -39 32 0
-2 -21 -12 -31 0
2 -18 43 36 0
31 -26 -10 -34 0
10 30 38 -13 0
44 40 45 -36 0
33 20 -38 -2 0
-12 42 -40 -39 0
17 43 19 -25 0
40 -39 -12 -36 0
-12 -27 7 -16 0
33 -20 -14 16 0
19 -44 -45 27 0
-16 -11 -27 40 0
-27 23 -10 13 0
-13 -30 1 11 0
-36 31 19 12 0
40 -37 7 9 0
-9 6 -34 14 0
-3 -13 9 -5 0
42 -40 1 4 0
22 37 -41 -30 0
-34 15 -38 -32 0
-27 7 18 22 0
15 -34 37 -19 0
11 -31 25 38 0
30 3 -22 -24 0
27 -23 28 8 0
30 29 -40 45 0
-19 -26 -15 -28 0
-32 -1 -39 -29 0
-11 -42 -16 41 0
35 -23 -8 -5 0
-31 34 28 -4 0
-25 -36 -32 -20 0
34 -31 6 -4 0
32 42 -16 -29 0
-11 28 -38 -40 0
33 9 35 -24 0
-40 44 21 -45 0
-5 40 22 -44 0
17 -30 27 -25 0
-28 -39 12 -3 0
-45 -30 -15 20 0
42 39 18 -21 0
-13 -3 -35 14 0
11 -16 36 -3 0
9 27 6 28 0
-30 -38 -2 45 0
13 -19 -29 1 0
23 40 24 11 0
8 -37 -36 2 0
-1 -43 -44 -17 0
26 25 23 -13 0
45 -39 8 -16 0
22 -41 30 19 0
-31 41 6 9 0
-19 -1 17 6 0
-2 5 6 -26 0
15 4 23 19 0
-44 -45 14 -41 0
-37 -16 -21 -45 0
40 -24 13 -12 0
18 38 4 26 0
37 -30 18 14 0
25 15 -18 29 0
-44 10 14 26 0
10 11 -23 36 0
4 45 16 -17 0
-44 -22 -32 37 0
10 -24 -36 -25 0
-29 37 14 34 0
-28 -40 -24 -33 0
17 3 42 -34 0
-13 -24 33 -43 0
-24 25 37 -27 0
7 -34 43 36 0
18 25 11 41 0
23 -36 -3 42 0
-12 28 21 -25 0
-35 26 25 -16 0
25 -39 -31 -5 0
42 27 -19 25 0
3 31 -14 -20 0
1 11 -27 42 0
-37 -38 6 25 0
-15 32 -10 29 0
-38 34 39 -15 0
16 27 -5 37 0
14 6 36 25 0
-41 10 -37 -39 0
