c family=4-SAT n=45 instance=5 seed=726001144 models=2
c order 40 44 5 24 2 1 30 43 37 9 6 23 25 29 10 21 13 26 3 4 31 36 27 17 16 39 22 20 28 45 15 33 42 35 18 12 38 34 32 8 14 19 11 41 7
c order 15 39 43 13 3 22 4 27 6 10 38 8 18 23 17 9 12 41 14 32 26 42 35 19 11 20 33 25 28 34 16 24 45 36 5 7 21 2 37 44 31 29 30 1 40
c order 19 18 36 6 12 15 29 31 39 27 26 13 32 7 35 25 41 34 24 9 28 11 37 3 30 21 38 14 1 45 42 8 17 22 33 43 44 10 40 23 5 16 2 4 20
c order 35 29 28 1 26 45 22 12 17 2 31 16 33 39 8 32 44 23 6 34 43 41 11 7 9 19 25 13 15 38 27 24 36 14 20 21 40 5 4 18 37 10 42 30 3
c order 9 22 6 3 39 32 1 10 41 34 26 7 35 29 13 38 8 19 4 11 15 42 16 14 20 31 25 40 30 44 37 17 12 36 23 18 27 2 45 21 28 5 43 33 24
c order 38 28 17 24 2 37 27 10 16 36 19 35 39 22 18 4 23 12 9 21 11 25 42 30 7 1 40 43 8 20 26 13 32 3 44 34 33 15 6 45 14 41 29 31 5
c order 24 29 17 5 10 25 8 15 1 14 44 35 39 37 13 34 6 21 16 41 28 26 38 43 11 45 23 32 31 4 33 18 2 9 40 30 36 27 12 42 22 7 3 20 19
c order 13 39 9 24 5 27 35 25 12 31 43 40 33 20 36 1 6 41 30 8 26 42 23 7 32 22 29 18 10 45 2 38 15 4 21 17 28 11 19 16 34 14 44 3 37
c order 43 38 42 30 32 45 20 5 14 6 13 15 29 16 44 25 12 19 17 40 34 23 22 8 26 2 11 21 31 37 35 28 39 4 1 18 7 36 33 24 41 27 10 9 3
c order 10 18 9 36 43 17 4 40 30 34 2 42 24 14 3 25 28 22 44 7 5 27 12 41 37 16 32 13 1 26 45 15 23 11 19 38 31 8 29 20 35 33 6 21 39
p cnf 45 432
22 26 -10 36 0
-18 -7 -43 -34 0
-35 28 -8 -3 0
-44 -33 -23 -41 0
43 24 6 18 0
-7 -6 40 -15 0
37 16 -43 18 0
-4 -30 -2 45 0
23 42 -1 -16 0
-1 -42 29 9 0
14 -9 11 -26 0
-37 -4 36 24 0
19 30 -17 43 0
-35 -26 -43 -25 0
33 -21 -44 15 0
2 -42 14 7 0
-19 1 36 2 0
42 -43 16 -38 0
13 -28 12 -11 0
-9 -22 39 -8 0
42 3 45 -43 0
14 26 30 8 0
31 2 32 34 0
-10 -17 45 -1 0
-45 -39 -26 2 0
38 22 1 36 0
3 -36 34 8 0
3 -28 24 -16 0
-25 -27 41 18 0
-32 -39 1 -21 0
-13 -25 -23 -44 0
-42 14 24 5 0
-38 -33 24 -35 0
34 -7 17 15 0
34 14 -4 36 0
35 4 -26 -25 0
29 -18 -11 44 0
-21 -6 37 18 0
-5 -26 45 -12 0
18 28 2 42 0
-11 24 -18 -6 0
-20 30 9 -25 0
40 -13 36 29 0
21 -31 -8 -30 0
43 8 22 -1 0
-44 -12 -25 -8 0
45 38 25 -27 0
-44 -10 -13 -28 0
-3 -22 -19 27 0
-41 34 -26 -17 0
36 19 -28 -34 0
24 -40 17 39 0
-19 -34 24 -26 0
13 -6 11 35 0
-31 43 -29 7 0
34 -30 32 22 0
3 -13 15 -6 0
38 15 -10 -32 0
8 5 -12 -34 0
35 32 20 3 0
-36 26 40 16 0
31 4 39 18 0
-6 24 -7 -39 0
-33 10 32 -13 0
-45 35 -24 31 0
15 -5 -24 20 0
-16 10 -13 24 0
-32 14 13 -16 0
-29 44 21 45 0
16 -40 13 -32 0
-5 -30 32 -4 0
-44 19 24 -2 0
9 -12 -42 -41 0
40 43 30 23 0
-26 -44 -12 -30 0
43 29 1 -16 0
-38 11 -2 14 0
-45 -22 -8 -7 0
4 18 -8 3 0
-30 -12 -21 4 0
41 -23 40 -20 0
-31 -1 44 -26 0
-16 -37 20 9 0
-29 43 42 -38 0
-20 -2 45 -31 0
35 43 36 9 0
-33 42 -41 -38 0
35 37 29 -24 0
25 31 -43 -22 0
-26 -2 -13 12 0
-31 34 21 -3 0
-15 18 27 45 0
41 20 44 27 0
-37 16 25 8 0
14 10 -2 -23 0
1 -39 -19 22 0
-33 36 -4 -15 0
42 14 -39 -2 0
32 39 -25 -6 0
7 11 -12 -38 0
17 -24 43 10 0
-38 15 -20 -21 0
12 8 -31 -33 0
-10 42 26 -36 0
-44 45 -33 35 0
-32 -19 -35 21 0
-16 -22 26 43 0
11 -19 44 21 0
-24 14 -7 35 0
14 -31 -39 -13 0
38 3 35 -34 0
18 -12 -28 -35 0
-38 -34 -42 -45 0
27 41 -42 7 0
-19 -32 -10 -6 0
1 -28 15 33 0
-3 42 -30 -38 0
-30 -5 16 28 0
38 -41 17 45 0
-19 24 -29 21 0
31 -28 -42 -8 0
36 -25 37 10 0
-17 29 -45 -1 0
-16 -18 35 44 0
-16 -37 9 7 0
22 -13 -6 -18 0
7 -21 3 35 0
-42 -11 39 6 0
-12 5 -31 -32 0
-41 -28 -11 6 0
-44 12 26 -10 0
-11 38 35 -4 0
-16 6 14 -8 0
-45 37 -18 34 0
-32 -12 -36 44 0
-16 -19 39 -11 0
23 -34 7 19 0
-11 45 -25 16 0
29 -11 -19 -33 0
42 24 -19 -2 0
4 20 -32 40 0
-10 -1 -34 -29 0
25 -13 14 8 0
-40 -22 -14 15 0
-1 37 -21 -25 0
10 28 9 -34 0
40 -18 -24 -42 0
9 -5 25 45 0
-33 -3 11 31 0
-30 -4 -24 -3 0
-42 -18 10 -35 0
-8 -39 18 19 0
-14 18 44 9 0
8 -32 17 -31 0
35 39 -28 -19 0
20 45 6 27 0
35 7 17 -22 0
-16 12 -28 4 0
-13 11 -34 22 0
10 2 -39 -9 0
-36 -30 -11 -9 0
-1 32 10 -34 0
41 42 -43 7 0
-20 -31 -15 -27 0
-27 21 45 -15 0
-30 -11 17 -20 0
-8 35 44 -17 0
-7 -25 5 -30 0
-8 25 36 18 0
20 -41 -25 -8 0
37 -45 -14 1 0
-15 26 -38 -13 0
38 -22 -32 -17 0
-34 26 -9 -4 0
30 23 32 -4 0
36 -42 39 -17 0
-42 -41 -17 -5 0
19 -33 -45 -9 0
15 -4 29 -17 0
-13 20 -34 -44 0
36 -17 -5 -33 0
-6 9 -20 18 0
16 39 13 44 0
-31 25 16 -2 0
38 -19 -28 14 0
-30 -25 11 -45 0
-11 -37 25 -26 0
9 -29 3 -31 0
-1 3 -5 -19 0
-38 -35 -23 33 0
-39 -8 11 13 0
-15 6 5 -12 0
-41 -43 -16 12 0
26 44 7 -45 0
-17 -24 26 -6 0
-40 -16 42 -29 0
36 26 -40 -39 0
37 -19 10 16 0
32 -5 27 40 0
32 17 13 1 0
-11 21 -36 -22 0
25 -39 41 40 0
-10 -4 35 45 0
-39 -34 -14 32 0
-45 6 7 -39 0
-31 17 39 -3 0
3 -21 29 7 0
44 16 22 -32 0
42 -9 41 5 0
8 45 -21 30 0
-30 -21 -29 -27 0
13 -5 21 1 0
-31 -33 10 32 0
-20 44 -25 42 0
20 -34 13 9 0
-9 -40 -6 -30 0
35 -17 -38 -33 0
21 -45 -29 5 0
41 -3 -20 -38 0
-36 -18 -23 16 0
-3 6 29 -31 0
-44 13 14 -16 0
43 44 40 15 0
18 13 2 27 0
-38 -2 44 3 0
37 -8 -42 13 0
-13 -28 -23 -42 0
42 -2 -43 -23 0
-1 31 -6 37 0
-16 -44 -43 -31 0
-13 40 -6 -23 0
27 23 40 -30 0
4 -31 7 45 0
-43 2 1 -4 0
11 -40 16 1 0
-19 -4 -32 7 0
-27 -11 -35 10 0
21 -42 10 20 0
32 -22 -9 10 0
-8 -28 5 -13 0
-23 -25 -9 38 0
-18 23 -30 -1 0
32 2 -21 -38 0
-4 17 -29 -39 0
21 14 3 15 0
-19 -26 -38 -12 0
-2 -5 8 -38 0
37 11 1 -13 0
-12 -34 1 33 0
-19 26 24 21 0
-13 4 -1 44 0
5 30 -41 23 0
32 -41 -5 -21 0
-20 -45 19 -41 0
16 -14 -33 -2 0
37 36 33 43 0
-21 43 -33 39 0
15 29 30 -34 0
-19 20 27 -32 0
16 26 -45 7 0
12 -28 10 -42 0
-39 -10 -35 -5 0
-30 -9 33 36 0
-25 -39 -33 31 0
3 -21 -1 19 0
30 27 -20 -25 0
37 28 2 -26 0
-12 -14 -40 2 0
-31 42 6 -10 0
17 8 10 24 0
-1 -8 -38 -18 0
-26 35 4 8 0
27 -16 -45 -21 0
-37 18 4 15 0
45 -37 -34 39 0
17 -1 -8 -45 0
6 39 10 -44 0
14 -26 -29 40 0
16 -28 -44 22 0
-14 -31 40 4 0
-43 -24 20 -33 0
-7 14 34 38 0
-39 29 -21 10 0
15 -31 21 -19 0
-14 -6 26 17 0
-3 23 -42 44 0
34 -10 -40 41 0
-22 23 -9 -19 0
-15 -22 -38 41 0
12 15 4 -11 0
27 41 -25 -38 0
-8 -28 11 -16 0
-4 -13 21 -30 0
-43 37 -11 -32 0
-23 -21 39 -7 0
-16 42 34 12 0
29 -22 14 -8 0
34 20 11 8 0
7 -21 -3 -36 0
36 19 -22 -24 0
4 43 -32 40 0
-34 2 38 -1 0
-21 -25 -41 10 0
41 -4 10 24 0
3 -22 38 10 0
-23 34 -43 -24 0
23 17 40 34 0
-18 -16 -7 39 0
-24 -17 7 8 0
11 1 22 -33 0
17 44 -12 31 0
19 40 32 -26 0
6 -27 -39 36 0
45 -14 -10 6 0
38 -32 -28 31 0
42 5 -36 -43 0
-20 -15 44 42 0
-6 -17 -4 26 0
26 33 22 10 0
21 -38 13 16 0
34 22 -3 6 0
-5 -3 -38 -25 0
-41 22 -45 -5 0
16 -15 -2 -33 0
43 -15 -21 29 0
-31 -25 -14 43 0
-4 30 -37 -34 0
15 5 -31 -27 0
45 20 -35 -10 0
-4 25 -7 16 0
7 21 9 15 0
-5 -12 8 -35 0
-23 -45 -33 -5 0
9 -7 26 -35 0
5 -40 29 -37 0
42 -25 -29 23 0
-27 10 -11 3 0
4 33 16 -37 0
-17 -6 44 30 0
-42 10 25 -4 0
34 -9 -1 31 0
42 8 -12 27 0
34 22 15 28 0
39 -12 14 25 0
40 -25 12 -27 0
-39 -37 24 -10 0
12 -23 44 -24 0
19 33 -17 -12 0
-9 -30 19 24 0
24 12 39 37 0
-25 30 4 11 0
31 -17 5 38 0
-10 12 -41 30 0
-30 41 34 17 0
-29 44 -8 -34 0
-7 44 -30 -26 0
1 31 -13 -45 0
42 -11 9 -32 0
17 -1 -39 28 0
28 8 -44 31 0
4 -40 44 32 0
36 -7 -26 -6 0
36 41 10 25 0
-37 -7 40 31 0
36 17 30 -39 0
41 -19 30 -8 0
-8 -40 13 -43 0
-10 22 20 1 0
-4 -30 -19 -42 0
19 30 -23 -6 0
34 -31 -20 -24 0
30 43 32 -37 0
-9 14 28 -32 0
9 15 -5 -34 0
12 -6 -7 -30 0
9 -31 -34 -1 0
40 -8 -4 -35 0
32 -36 -13 3 0
-45 27 -31 42 0
12 8 35 9 0
34 -26 -5 -14 0
31 -36 -23 9 0
28 -38 -43 1 0
-19 37 -1 24 0
-24 -10 25 -44 0
-28 -34 -24 45 0
22 6 34 36 0
45 -25 -23 30 0
34 -28 36 7 0
-13 19 31 -16 0
-22 -26 11 -38 0
-27 28 22 36 0
-3 5 32 18 0
-30 -19 -1 -25 0
-6 -28 9 19 0
4 -17 -26 -9 0
-11 -26 -44 -7 0
-25 27 -4 33 0
4 2 -7 39 0
2 -35 27 9 0
8 6 39 -3 0
-6 38 40 3 0
-18 -19 27 6 0
25 -14 -16 40 0
5 23 -29 -19 0
-16 -45 -13 -19 0
-11 -40 -10 -16 0
7 -30 -22 43 0
12 -42 22 -31 0
-1 37 -44 -6 0
17 34 11 -29 0
33 43 -7 -41 0
29 -6 28 40 0
-40 -34 -16 8 0
-10 32 9 44 0
-4 36 -24 31 0
-39 14 -31 -12 0
38 -45 23 41 0
10 2 9 -28 0
38 15 -7 -31 0
36 9 -19 29 0
16 -24 -39 6 0
17 16 -36 39 0
-33 -10 9 41 0
30 -21 13 -11 0
31 -12 -22 21 0
14 34 -27 41 0
-10 -1 -27 18 0
44 30 5 33 0
1 36 -42 -20 0
44 -6 -34 -5 0
-14 37 45 -40 0
