c family=4-SAT n=45 instance=8 seed=726001144 models=53
c order 10 3 35 31 12 1 13 28 5 42 32 26 33 18 23 15 19 25 36 17 14 37 8 29 43 45 24 27 4 11 22 21 44 34 30 38 6 2 9 7 40 20 16 39 41
c order 24 1 26 32 28 6 10 20 42 38 37 16 12 15 45 18 8 44 25 36 33 7 34 3 43 39 22 29 30 9 14 2 21 19 40 31 4 17 41 11 27 13 35 5 23
c order 4 31 25 10 44 35 26 42 7 24 11 41 36 20 16 14 34 27 32 45 43 9 2 6 39 5 28 37 23 12 3 29 33 30 21 1 18 15 17 19 38 40 8 22 13
c order 6 15 3 22 4 13 9 29 25 28 18 30 39 44 16 2 26 35 42 17 41 34 14 11 23 20 36 32 33 43 31 27 38 37 21 12 10 40 7 1 5 8 45 19 24
c order 26 2 40 20 29 37 15 10 5 34 13 45 18 9 4 11 43 31 14 35 12 38 28 39 1 36 27 32 23 21 41 19 30 17 7 24 42 25 6 33 16 8 44 3 22
c order 17 42 31 12 8 38 2 40 28 25 5 14 7 37 35 15 45 43 16 19 20 6 11 24 27 1 34 29 30 23 33 18 10 41 9 36 26 22 44 39 13 21 3 4 32
c order 38 33 26 1 20 17 39 13 19 3 30 24 18 9 2 27 22 36 29 21 40 34 42 4 14 43 15 25 5 32 23 6 11 10 45 28 31 44 12 7 41 35 16 8 37
c order 11 31 1 39 5 44 24 21 36 43 4 29 27 26 9 28 42 18 16 13 19 22 17 3 14 8 12 37 45 2 33 7 20 6 34 38 30 15 40 32 41 25 10 35 23
c order 35 11 29 1 38 23 6 25 28 8 39 7 16 43 12 17 5 30 22 20 40 19 4 10 34 37 33 44 18 13 15 36 27 45 21 41 42 2 14 9 3 31 32 24 26
c order 13 33 7 37 1 16 10 26 3 31 38 39 32 44 18 29 21 36 30 45 9 11 22 40 17 14 5 41 27 15 42 2 4 23 6 34 19 8 35 25 12 43 20 24 28
p cnf 45 432
30 -32 -27 -3 0
33 -25 -40 -9 0
-10 -40 8 -31 0
10 8 30 32 0
33 5 24 3 0
-22 -26 -9 1 0
11 -44 28 -36 0
27 35 -13 7 0
-26 29 -41 19 0
17 3 -20 13 0
-30 -37 2 -22 0
-40 7 -25 1 0
3 15 37 42 0
30 -13 7 -24 0
-5 6 10 15 0
-37 4 -3 -8 0
-36 40 20 1 0
-37 -13 -44 -21 0
-2 7 21 3 0
22 1 -7 -10 0
-2 -3 -43 -34 0
-12 41 -27 -31 0
44 -21 10 -42 0
42 4 -18 -25 0
12 -27 -6 -38 0
-36 -28 32 8 0
26 -7 -43 -21 0
-10 -7 17 23 0
38 -1 15 -31 0
-39 45 35 -4 0
-27 40 42 43 0
36 -33 2 -17 0
43 -18 -19 -10 0
-34 -31 -17 -33 0
3 7 37 23 0
-7 12 -27 -40 0
-5 -10 32 36 0
35 37 -43 39 0
-12 6 23 -41 0
-20 -8 14 -29 0
-13 12 38 -45 0
-40 -33 4 28 0
44 -11 45 -37 0
-33 40 -41 5 0
25 27 -32 1 0
32 -23 45 -35 0
8 -33 34 -41 0
-45 -42 19 36 0
13 -19 -3 1 0
-15 -31 16 28 0
-28 -25 -15 7 0
-6 26 -27 -33 0
27 -8 30 -31 0
-12 -17 28 22 0
-44 -3 43 -2 0
12 -22 4 -23 0
45 -41 2 33 0
21 -11 -5 30 0
12 -27 42 34 0
18 -19 -11 -44 0
-41 25 7 42 0
-18 28 29 -2 0
-36 -18 -7 -22 0
-43 41 31 -29 0
-7 13 31 -21 0
-20 -15 35 10 0
-33 3 35 25 0
-1 4 25 38 0
-8 -24 38 -28 0
11 29 41 21 0
-31 18 -29 7 0
26 -13 -14 -21 0
15 41 -33 26 0
-21 -13 45 44 0
35 10 8 -40 0
-43 -40 -15 -5 0
-19 -7 36 -17 0
37 14 35 12 0
-20 13 -8 -14 0
-27 8 -42 33 0
16 -7 -3 33 0
-43 22 37 39 0
32 40 33 21 0
2 35 13 -41 0
29 -17 37 13 0
21 -39 33 -45 0
40 4 -41 -7 0
-40 -33 -29 -19 0
36 -7 27 -26 0
14 1 2 -29 0
36 41 28 -9 0
-14 36 10 29 0
-39 -9 -7 29 0
-7 24 -26 -19 0
17 26 -9 13 0
9 26 32 39 0
-3 -18 -16 -43 0
-5 -30 -21 18 0
-35 15 24 41 0
38 25 37 -34 0
-2 19 30 24 0
-41 39 -16 36 0
41 -40 -13 12 0
-5 -14 -27 1 0
44 -43 -26 1 0
1 -20 5 -19 0
4 23 25 -11 0
37 28 -26 21 0
-11 -7 -4 41 0
-4 6 43 -21 0
-40 -30 -29 -9 0
-18 -28 -30 -42 0
44 15 3 -5 0
34 -37 12 42 0
32 -28 4 1 0
-29 -10 37 -13 0
17 -29 -14 -44 0
-19 33 -23 43 0
-10 -36 33 -9 0
6 -2 -28 -7 0
-42 40 38 -20 0
28 -32 -17 -7 0
-7 -27 -6 24 0
-15 33 38 -17 0
9 20 -16 -34 0
-41 -9 -38 7 0
-10 -18 -45 42 0
-30 -22 24 -45 0
-16 40 25 -43 0
23 34 -41 10 0
-38 8 11 20 0
-37 36 14 -5 0
7 -17 32 14 0
30 44 3 38 0
6 -45 -4 -43 0
45 -23 30 -13 0
28 -32 41 40 0
-27 26 34 2 0
43 32 42 -45 0
-28 -19 30 -33 0
14 -41 37 10 0
-28 -17 -19 -18 0
-40 -30 8 29 0
-6 2 17 1 0
38 -25 -24 -42 0
33 11 -30 4 0
-10 -40 -6 7 0
13 -34 33 -37 0
6 37 45 -19 0
20 -26 17 -27 0
22 18 -10 -14 0
43 36 25 3 0
-25 18 38 21 0
22 -27 23 -39 0
-5 -17 -25 -36 0
28 -4 -16 -37 0
27 31 29 1 0
44 20 37 -9 0
-8 7 34 -26 0
-25 -12 -2 -29 0
37 -40 -8 -45 0
9 1 38 44 0
16 -32 14 8 0
30 -18 27 14 0
-18 31 9 -12 0
44 -42 13 40 0
24 40 41 -22 0
-13 42 4 41 0
-17 -24 11 5 0
32 7 26 40 0
16 10 -41 -22 0
-6 11 21 -30 0
-13 41 2 44 0
-13 14 -15 -39 0
34 36 -32 -6 0
34 23 -15 35 0
-35 -5 -28 -33 0
-44 18 42 15 0
21 26 28 -16 0
-31 -43 7 -5 0
-12 -36 23 26 0
4 33 -25 8 0
-11 3 43 35 0
9 -36 12 13 0
-24 30 -28 37 0
40 -27 35 -9 0
28 -14 -27 -3 0
-39 25 29 -8 0
11 23 -24 -4 0
14 -5 43 29 0
-44 -37 32 -4 0
-32 -18 -11 39 0
-16 -38 -5 -11 0
-8 1 2 26 0
12 34 22 9 0
-31 -40 -20 28 0
11 -17 42 3 0
38 -35 37 -11 0
-9 -24 -38 8 0
14 -32 -39 7 0
22 -7 -12 40 0
4 37 -20 -11 0
7 -37 9 13 0
41 40 -3 37 0
-7 38 27 -43 0
-44 -1 -19 -16 0
-33 -28 -5 -44 0
-2 22 -23 -44 0
20 13 -15 -34 0
-23 9 16 36 0
-20 16 -1 23 0
-34 12 -38 -5 0
-32 -42 -36 -19 0
-25 29 -14 35 0
-44 35 8 -25 0
-33 1 -37 12 0
4 41 22 -31 0
-25 13 -33 2 0
8 -16 6 1 0
-6 -33 15 -42 0
22 -35 -37 20 0
-34 -23 -11 -25 0
41 34 -30 -9 0
18 6 4 3 0
23 21 -45 33 0
-15 -42 -5 -7 0
13 24 -1 37 0
22 21 -6 37 0
-43 2 34 -1 0
33 -15 -8 -16 0
39 -40 9 -20 0
-41 -37 8 -26 0
-27 29 -38 -20 0
-11 -29 -18 31 0
18 -12 -30 -11 0
24 -28 -27 15 0
43 -33 37 -11 0
-4 45 -23 -2 0
-13 -15 -2 34 0
-25 -22 -42 -6 0
-28 15 -21 25 0
-4 -28 -8 -32 0
-15 -1 -41 25 0
-20 36 38 44 0
-22 18 -26 -23 0
16 -43 -39 -12 0
-35 30 44 -5 0
-44 34 -40 -42 0
25 7 -12 30 0
-27 3 42 15 0
21 -14 -7 -27 0
4 -45 6 25 0
41 24 21 -10 0
5 12 -2 -43 0
45 -42 15 5 0
-31 20 -24 -23 0
12 13 31 16 0
29 41 -16 -34 0
-6 -10 21 7 0
44 -25 -45 7 0
-11 42 6 8 0
-34 25 45 -44 0
-18 -21 39 37 0
-11 42 -15 10 0
-10 -21 22 29 0
-23 4 -12 -34 0
-33 -9 -27 -12 0
-41 37 -14 19 0
33 -23 15 -36 0
-22 -23 28 -17 0
41 35 36 -14 0
36 15 -39 4 0
-44 11 -31 32 0
32 -7 37 -35 0
-42 -36 -6 17 0
-5 34 -8 6 0
44 1 5 18 0
10 -39 -14 17 0
26 -17 20 -22 0
16 20 -22 37 0
-45 43 -1 -32 0
19 31 -25 29 0
-20 21 -27 -16 0
43 37 36 -40 0
-8 -33 -2 -18 0
28 -39 -21 2 0
33 -21 30 10 0
-19 31 -12 39 0
3 20 -29 -4 0
10 -27 -44 -45 0
31 2 44 -32 0
14 5 18 10 0
3 13 41 21 0
26 -1 -29 -25 0
-31 -26 -40 32 0
-40 33 -25 -24 0
-11 -38 32 -22 0
-22 7 -6 -13 0
-44 25 28 -39 0
22 -32 23 -45 0
43 15 -16 5 0
4 -23 -43 -2 0
23 -5 34 -17 0
-6 5 -11 20 0
-3 -22 -9 4 0
27 18 5 -22 0
-34 29 5 18 0
-45 8 -9 10 0
-33 1 -11 20 0
33 26 -31 30 0
29 43 28 -23 0
-2 -29 32 -45 0
-15 -7 -6 14 0
10 -15 -4 -43 0
45 23 -4 -40 0
23 43 31 12 0
-5 17 14 37 0
-20 -3 24 -8 0
-39 -29 -43 -30 0
12 -43 -23 -22 0
-26 -43 21 -35 0
-43 6 34 -8 0
-17 33 24 -12 0
-4 -27 3 7 0
23 -3 -11 -7 0
-32 -22 8 -21 0
-18 -20 -17 -44 0
-15 -27 37 -23 0
-20 5 42 -2 0
30 -39 44 -41 0
-11 41 -7 -5 0
-21 40 -8 -39 0
17 11 18 -4 0
-2 26 -17 -6 0
-23 -35 38 -19 0
-19 -42 44 -38 0
5 7 10 -36 0
9 -14 26 27 0
-19 34 -44 41 0
-35 24 -17 -29 0
22 7 -26 -35 0
-41 -27 16 -1 0
-35 41 26 30 0
-3 -44 -2 12 0
6 44 -42 5 0
-17 -35 5 -23 0
42 -10 21 -24 0
18 -40 -11 -35 0
-35 29 -36 45 0
1 -24 14 -12 0
-1 12 9 -3 0
26 -21 11 -28 0
-24 10 -27 -38 0
-30 -28 31 -13 0
-23 27 10 15 0
-32 10 35 -9 0
-28 -3 -11 -34 0
28 24 43 -16 0
-15 42 36 34 0
9 44 -28 -24 0
-16 6 -37 1 0
-13 45 9 16 0
-10 18 -27 14 0
26 28 38 -14 0
-12 -41 16 -45 0
10 -9 -21 -25 0
-32 19 22 -40 0
27 25 12 -42 0
-16 24 23 -20 0
14 39 -15 22 0
13 -41 -33 20 0
11 -13 -33 41 0
23 12 -29 39 0
1 -6 5 15 0
-21 38 31 -6 0
-31 -12 -32 -8 0
-33 -8 -10 -13 0
-25 10 20 40 0
-19 4 -42 -27 0
13 -25 22 -32 0
-22 3 -32 -21 0
32 34 -19 -16 0
-45 25 -40 -34 0
-36 22 -7 19 0
31 -16 -45 -6 0
1 7 -5 28 0
20 26 41 8 0
-38 -15 18 -19 0
31 -38 -6 2 0
-22 39 12 -44 0
-36 20 -3 -33 0
-40 -42 1 13 0
22 -30 3 -38 0
-12 30 -3 22 0
32 -4 24 -5 0
38 30 -14 -23 0
27 8 -32 -5 0
7 -2 -42 20 0
-14 38 -33 42 0
-41 -18 34 7 0
-3 -43 44 -13 0
-29 -2 -19 -44 0
-16 -1 9 40 0
36 24 21 -10 0
13 -17 18 1 0
26 -32 -1 12 0
25 -23 33 2 0
-18 -12 -21 29 0
-2 20 -6 -13 0
1 39 35 -14 0
-39 2 19 43 0
-29 -22 -2 15 0
24 -11 41 27 0
38 -30 -14 40 0
32 -36 -12 35 0
-17 -41 28 -8 0
6 -27 -8 -3 0
23 9 -8 -39 0
-7 -35 10 24 0
-11 -33 -37 13 0
-39 -9 -15 -17 0
1 -42 38 41 0
26 2 -19 9 0
33 18 37 31 0
10 -25 -28 -29 0
-15 -20 -18 14 0
-4 17 -25 1 0
-17 18 33 19 0
13 23 -5 -15 0
-15 20 -29 -33 0
14 41 23 -11 0
41 -35 -30 -45 0
