c family=4-SAT n=45 instance=0 seed=726001144 models=170
c order 29 25 41 6 17 22 32 42 37 20 7 18 31 14 26 21 12 4 40 33 16 3 19 15 27 38 24 28 30 11 1 35 45 23 9 5 8 2 13 44 39 34 10 43 36
c order 23 30 3 22 10 28 35 8 42 11 31 37 38 19 33 6 4 15 21 16 45 7 5 17 36 34 24 29 18 41 1 40 20 26 9 2 44 12 43 25 32 39 14 13 27
c order 18 25 20 12 30 19 14 9 31 6 29 28 13 42 40 43 45 11 39 4 35 38 37 41 24 15 1 32 5 16 3 21 27 23 8 34 2 36 7 44 22 10 17 33 26
c order 24 15 44 36 34 18 8 33 42 21 19 6 20 28 26 23 1 40 39 7 16 45 11 43 12 41 38 27 35 3 5 31 4 17 32 25 30 2 14 29 37 22 10 9 13
c order 19 20 43 39 12 41 31 17 30 4 33 14 42 28 37 3 40 25 5 9 10 2 16 18 29 13 6 26 45 15 22 44 32 11 36 38 7 8 21 27 1 34 35 23 24
c order 27 37 15 28 24 42 36 1 41 34 43 18 19 31 3 33 6 8 2 32 16 10 17 40 23 11 39 5 38 44 7 9 14 30 45 29 35 25 12 13 22 20 21 26 4
c order 6 39 35 18 41 22 44 8 15 31 25 29 9 5 4 23 14 30 33 13 21 17 20 24 19 40 11 37 12 2 45 34 32 28 1 16 7 26 38 27 10 42 43 36 3
c order 22 20 15 44 13 12 4 3 24 19 35 31 39 37 14 43 36 11 41 21 27 10 9 7 26 45 6 28 2 16 29 40 38 23 42 33 25 32 17 8 30 18 1 34 5
c order 30 42 16 19 13 20 6 34 14 12 15 11 37 36 43 9 17 39 23 2 18 27 1 5 35 45 44 24 32 10 7 22 25 3 31 4 38 8 26 33 29 28 40 41 21
c order 37 16 7 31 12 9 17 38 29 5 44 2 1 43 20 19 36 30 27 39 3 26 8 21 45 22 11 28 32 4 15 35 13 24 6 10 18 34 33 25 41 40 42 14 23
p cnf 45 432
-3 30 -17 24 0
-41 29 -27 -18 0
18 5 9 -15 0
43 13 42 32 0
-23 16 -24 -22 0
2 -20 -39 -44 0
41 -32 7 -26 0
40 23 -29 34 0
1 31 -7 -8 0
-15 35 -28 34 0
27 -26 -44 -17 0
-2 -22 8 -20 0
28 11 21 17 0
11 -37 -25 14 0
14 43 20 -10 0
26 -14 12 40 0
2 15 -20 -33 0
-6 23 -20 -43 0
-30 -20 11 -25 0
26 -38 -15 -8 0
-43 41 38 -6 0
5 43 -29 -40 0
31 -38 5 16 0
-6 -38 40 11 0
5 21 3 -41 0
-10 25 -2 42 0
-26 17 41 -10 0
11 -39 -41 27 0
-36 17 -16 -40 0
-20 -42 -23 -18 0
-29 -6 -13 -19 0
7 -13 -35 11 0
32 28 -29 31 0
13 24 20 41 0
24 22 -33 -28 0
6 -11 -26 -21 0
5 -11 44 9 0
31 -28 -32 2 0
41 -42 -45 -32 0
-41 -31 -16 9 0
-30 10 28 12 0
-5 35 11 19 0
14 -18 -16 -15 0
-23 -45 -11 41 0
-22 -35 -19 34 0
44 33 -39 -19 0
-20 44 -21 40 0
29 36 15 -16 0
27 8 -9 4 0
-15 -37 43 -1 0
-33 38 3 12 0
7 16 -19 10 0
-29 40 36 -41 0
37 -31 -18 -14 0
13 18 36 3 0
35 -15 -41 -44 0
14 -11 35 -25 0
28 -22 -12 25 0
-32 -28 24 -33 0
7 36 -27 -11 0
23 22 -19 -43 0
-2 16 -3 22 0
8 24 -11 25 0
11 3 -35 -1 0
6 -38 -37 -8 0
-19 13 20 42 0
39 -28 35 -29 0
-12 -26 41 36 0
40 26 -36 34 0
-12 9 22 30 0
27 12 -34 -26 0
32 -8 -23 -33 0
-22 -14 5 25 0
26 27 -32 -13 0
-31 39 -32 36 0
6 11 39 -15 0
-35 12 -29 -19 0
-35 -7 -9 -21 0
28 -5 20 -44 0
6 -16 22 -31 0
-43 -26 -6 4 0
-43 1 21 -3 0
-26 -40 -42 -11 0
21 -42 -8 -39 0
-37 -3 22 -43 0
-16 -25 -40 -8 0
11 -24 43 34 0
11 35 -10 13 0
1 30 -10 -37 0
-19 37 -11 -35 0
27 37 -9 -22 0
-26 38 -6 -27 0
-29 -17 36 -12 0
32 13 -42 -1 0
2 -11 25 -19 0
-8 -7 44 -45 0
-33 10 26 -40 0
-43 9 28 1 0
-20 31 34 23 0
-43 -18 -23 25 0
2 -41 -39 -32 0
21 15 -2 -25 0
-3 35 -9 45 0
14 -24 34 28 0
-40 -21 16 44 0
43 -28 18 -21 0
2 17 -22 18 0
32 -6 -27 26 0
33 26 8 -39 0
13 17 -41 -19 0
20 7 -45 -8 0
44 -8 35 -12 0
40 13 37 35 0
26 -38 13 -24 0
14 23 13 -34 0
-26 -17 -32 25 0
37 -12 16 -21 0
-25 39 38 20 0
32 16 12 43 0
-25 -41 -44 -14 0
-26 3 44 12 0
-43 -31 -17 -32 0
-10 24 32 18 0
-31 18 -16 13 0
41 39 -13 -37 0
28 -5 9 6 0
4 12 -33 -1 0
16 -20 38 -44 0
35 -44 30 28 0
43 2 -21 1 0
39 -12 13 26 0
11 44 9 -42 0
-38 -29 31 12 0
-40 4 -24 35 0
-15 -9 -41 -27 0
-30 -34 42 33 0
3 -10 12 -40 0
-34 23 -14 18 0
38 15 45 -32 0
-44 12 33 -17 0
-33 -22 11 -40 0
-15 26 -3 -16 0
-16 -32 14 35 0
41 -45 3 34 0
-15 3 32 -44 0
39 -12 -20 29 0
-24 33 -5 13 0
4 -24 -8 -10 0
-34 -13 -42 -29 0
32 -29 4 44 0
42 21 -23 24 0
22 39 -33 15 0
44 18 -25 -29 0
-6 3 -43 15 0
4 -44 34 45 0
-9 42 21 -27 0
28 -22 32 9 0
-38 -30 39 -31 0
1 38 21 32 0
-37 2 -21 -27 0
41 17 25 22 0
-3 33 16 15 0
-1 26 21 -20 0
-20 3 41 -35 0
32 -40 33 -38 0
34 -2 45 -27 0
34 -20 43 13 0
18 5 44 -23 0
45 16 -39 -15 0
25 -39 -4 -22 0
-7 24 34 9 0
-28 -45 18 -42 0
-43 -45 -10 36 0
14 10 6 13 0
42 39 -21 44 0
1 -5 13 -24 0
-22 11 -29 43 0
-16 10 -22 27 0
18 30 -35 -26 0
37 21 -16 1 0
-17 -18 24 -20 0
-44 -36 42 24 0
42 -36 -11 14 0
-44 9 -10 -42 0
18 -25 14 -43 0
-33 -12 -15 26 0
-38 8 7 -35 0
30 -22 -18 37 0
43 -34 -16 25 0
-22 24 29 -35 0
-4 -5 -35 30 0
-33 23 -18 -35 0
4 -27 31 30 0
24 16 -12 -14 0
-15 7 -29 -14 0
17 7 10 -8 0
-39 16 -12 2 0
38 -5 -39 43 0
-23 41 9 -8 0
-24 -15 -40 20 0
20 2 -11 16 0
12 -20 -32 -44 0
3 -11 -18 -27 0
45 27 -31 -44 0
-39 -15 3 7 0
43 -32 -31 12 0
-8 -43 -23 17 0
10 41 -38 -32 0
25 6 -7 -43 0
24 4 -17 13 0
42 -9 -16 -23 0
38 -36 34 9 0
-42 -19 -34 10 0
-19 11 -35 7 0
-3 -11 -16 29 0
-10 -45 -1 38 0
-37 11 40 -15 0
40 -1 37 -23 0
10 26 -15 28 0
-11 33 7 -27 0
-20 -33 -4 22 0
-42 26 14 -18 0
14 -10 2 -32 0
-16 -6 -21 -15 0
-3 -16 -8 20 0
-20 -33 -29 12 0
-26 -20 10 34 0
-42 -1 38 27 0
37 18 -22 -19 0
-14 19 -44 8 0
-44 -43 5 26 0
-25 16 1 9 0
32 -9 23 -34 0
32 12 -13 -18 0
26 21 28 11 0
3 29 30 41 0
14 21 -29 -11 0
-33 -7 34 -42 0
2 -32 6 42 0
-35 43 31 38 0
-35 -38 -28 -5 0
4 -11 26 -3 0
-18 41 -44 -32 0
-9 -2 22 23 0
-1 -45 3 39 0
-33 29 2 -16 0
17 11 4 -2 0
40 -36 -43 -18 0
3 20 -26 -37 0
-18 -7 29 -2 0
31 -20 7 -15 0
-41 -4 -23 -26 0
15 -9 41 -10 0
30 -9 21 43 0
42 -5 22 -20 0
13 -41 11 -27 0
44 24 -11 -31 0
13 22 36 -17 0
11 16 12 30 0
27 -11 45 -32 0
30 4 38 3 0
-40 28 1 -10 0
20 -12 -43 -11 0
12 5 -28 33 0
-17 37 3 -14 0
42 -15 11 -2 0
16 20 -6 2 0
17 22 -29 -27 0
33 -34 18 -36 0
17 -15 26 -14 0
-13 -42 -37 19 0
-4 -13 -28 22 0
-19 -11 -22 44 0
24 38 5 -10 0
32 22 19 43 0
-20 -29 -15 24 0
-28 8 -31 21 0
-36 -30 31 19 0
-33 -13 -2 11 0
22 -35 -37 -31 0
-19 1 14 43 0
25 -24 -36 33 0
24 13 38 -5 0
20 19 1 -11 0
34 32 -45 -2 0
15 25 10 14 0
-15 -25 22 11 0
-17 1 13 -4 0
-5 -6 15 -33 0
13 -23 -14 21 0
9 -30 40 -15 0
-6 33 30 -45 0
-28 37 2 -10 0
-7 -6 -26 -19 0
13 -1 22 -14 0
23 6 34 10 0
25 -44 3 29 0
21 -28 -35 26 0
-2 16 -1 14 0
32 17 26 24 0
40 -22 18 -29 0
36 -3 -21 -28 0
-5 36 2 27 0
-16 26 30 23 0
-20 1 -10 -42 0
-23 11 28 37 0
34 18 19 30 0
35 21 -7 -44 0
-33 8 -28 17 0
-5 25 -15 -23 0
-6 -5 -12 21 0
-12 1 43 -27 0
-8 9 27 -6 0
-15 -37 -32 -31 0
-26 -10 30 -33 0
-26 28 -22 -45 0
11 26 -36 21 0
37 40 18 -16 0
-27 4 30 -15 0
16 -28 5 -39 0
-35 -19 -32 18 0
-6 8 -21 -38 0
33 32 40 2 0
2 -31 -19 -14 0
-17 -6 -4 -43 0
25 9 13 -28 0
-12 23 36 -32 0
8 16 -3 -14 0
-31 12 -24 23 0
-32 34 -40 22 0
1 -23 -25 -43 0
14 27 34 -8 0
-31 -12 33 -14 0
-37 29 32 -31 0
24 -35 18 3 0
8 15 11 21 0
36 -45 27 -34 0
-27 -10 -9 41 0
6 45 -42 39 0
22 -35 -3 -10 0
14 1 30 32 0
-14 19 13 -29 0
5 -26 -11 36 0
-37 30 -39 6 0
-35 28 2 30 0
-8 -18 30 10 0
-4 -28 15 12 0
36 1 -2 -31 0
28 -9 -15 -41 0
-41 -36 5 24 0
24 -22 -1 -39 0
13 3 -39 -28 0
-26 -18 31 -40 0
-37 34 10 43 0
30 -6 -8 26 0
-11 -43 27 -38 0
-17 -9 29 26 0
42 37 8 6 0
38 -31 -45 29 0
36 11 -44 -4 0
-15 6 -11 -27 0
-5 -45 14 -17 0
34 -10 -6 5 0
-19 36 -43 -34 0
15 16 -39 -40 0
-21 -43 39 -44 0
-28 -34 35 -26 0
34 23 -37 -30 0
-9 11 45 14 0
16 -45 -1 -11 0
-21 -40 -27 -13 0
14 43 3 28 0
-41 7 -36 2 0
34 36 -28 -39 0
24 -33 -45 19 0
18 11 15 33 0
-10 -24 25 -9 0
-8 43 22 -21 0
-37 -8 4 22 0
-39 -10 22 2 0
21 38 -28 -45 0
-7 10 3 25 0
45 -38 -25 33 0
16 20 -19 41 0
29 -43 38 -39 0
-13 -21 12 -29 0
-12 -18 7 39 0
-37 10 17 -14 0
25 -7 -3 14 0
-16 2 -1 -26 0
44 -30 -13 -27 0
20 -29 7 -32 0
29 5 -41 -21 0
31 34 -9 -40 0
36 -23 30 -20 0
-38 -36 18 -22 0
10 12 -11 26 0
-20 3 11 23 0
8 16 -29 -9 0
-43 -3 40 36 0
-25 1 13 41 0
12 -29 -32 -34 0
34 31 -17 -18 0
-3 -2 -33 8 0
23 19 29 7 0
-44 43 7 -35 0
7 -44 39 32 0
42 12 39 -10 0
34 -33 21 -38 0
11 -45 13 19 0
40 -30 -3 -17 0
43 -33 38 -35 0
6 29 28 -41 0
-7 -13 1 -18 0
-23 -26 -8 27 0
9 -23 -18 37 0
-37 44 34 43 0
21 7 -34 -6 0
23 1 3 -44 0
25 -39 29 -24 0
19 2 -24 -17 0
-35 2 -34 4 0
-13 -21 8 23 0
-24 -9 -23 -41 0
21 39 -29 -22 0
-21 -6 -33 31 0
17 -43 36 32 0
14 9 25 -23 0
-16 15 -24 -18 0
-19 -24 2 -20 0
12 -44 -18 -14 0
43 -7 -30 17 0
