c family=4-SAT n=45 instance=7 seed=726001144 models=2
c order 35 6 36 18 4 34 10 3 2 14 32 15 42 28 12 43 13 17 22 31 40 5 24 27 45 21 23 44 41 1 16 25 33 11 19 8 26 7 9 38 29 20 30 37 39
c order 11 6 43 20 39 22 37 33 26 16 40 23 30 35 2 18 13 34 24 7 31 42 36 9 3 5 29 32 21 8 28 17 10 27 4 12 41 45 14 38 1 19 25 44 15
c order 40 3 25 7 45 12 14 29 37 28 44 21 18 41 24 34 11 8 31 13 38 15 42 32 23 36 10 1 22 27 26 9 19 33 20 6 30 17 4 5 39 43 16 2 35
c order 8 29 43 41 24 35 2 3 26 45 38 22 40 15 42 12 19 23 16 5 39 13 31 18 6 1 30 37 20 27 17 4 34 28 9 44 25 21 7 11 14 36 33 32 10
c order 31 29 22 21 12 43 28 13 35 38 14 10 17 24 45 30 11 32 40 34 7 16 26 5 44 8 1 27 36 3 18 42 23 2 33 37 39 41 4 6 15 9 19 25 20
c order 18 11 3 2 29 22 43 44 32 37 8 40 23 12 10 14 31 4 33 6 30 27 25 13 17 19 45 21 20 16 34 7 39 1 15 24 35 5 28 41 38 9 36 42 26
c order 8 30 6 44 17 19 3 15 36 9 16 11 39 5 10 42 28 35 20 21 32 2 1 37 7 45 25 26 41 4 22 38 31 24 29 43 14 34 23 33 40 13 27 12 18
c order 23 14 18 38 40 3 21 42 10 31 4 9 6 7 26 32 15 11 28 13 41 5 2 27 16 39 35 8 22 45 17 1 33 19 12 36 43 30 29 24 25 44 34 37 20
c order 26 33 8 21 27 35 11 41 4 10 40 16 36 37 7 2 13 12 34 22 9 44 20 18 30 24 28 5 38 17 39 19 31 42 6 43 29 32 15 25 23 1 14 3 45
c order 44 14 35 3 10 36 37 20 38 25 21 15 6 7 26 4 29 2 42 40 1 11 34 13 8 33 27 45 28 43 19 17 18 24 32 12 41 5 30 9 22 31 23 39 16
p cnf 45 432
15 -32 -11 38 0
4 -40 43 10 0
-45 38 -1 -13 0
-40 -17 36 43 0
33 11 43 10 0
-30 -20 -8 -26 0
13 33 18 -21 0
26 39 -22 35 0
27 -18 20 3 0
11 21 -24 -5 0
42 30 21 -27 0
33 -27 -13 -44 0
29 -36 -31 4 0
-10 8 -38 -35 0
36 24 22 -4 0
-26 30 33 -20 0
14 16 19 25 0
-15 24 9 38 0
45 14 -28 -6 0
33 19 1 26 0
19 -16 33 6 0
-4 18 2 -13 0
-20 2 40 -38 0
35 -27 -43 25 0
-38 -8 -1 9 0
-28 42 33 -37 0
-35 14 25 -36 0
-1 -22 38 -41 0
-24 -40 31 -45 0
-22 5 14 -42 0
31 41 38 -22 0
-29 -11 -34 1 0
-3 -18 15 32 0
-18 2 29 -38 0
7 3 -22 -38 0
22 26 15 -8 0
-31 -22 9 -39 0
-14 44 16 39 0
2 -25 -19 15 0
13 30 35 -5 0
-4 29 -36 -7 0
-36 -40 1 -3 0
-12 -23 3 -26 0
-28 -21 -40 -31 0
-43 -12 -27 25 0
3 -7 -10 28 0
-23 -11 42 21 0
-41 -12 27 13 0
37 -22 23 13 0
-42 -11 -32 -44 0
-21 3 41 27 0
12 29 -31 -42 0
7 24 43 29 0
-4 -41 32 -17 0
-21 -7 -19 -38 0
38 -24 25 -35 0
25 4 -35 -5 0
-25 1 -9 -37 0
-9 19 -20 13 0
-2 -35 20 6 0
-12 45 40 -33 0
-33 -41 6 -37 0
1 26 -37 45 0
24 -26 -27 36 0
-15 -25 18 -20 0
-17 19 -29 5 0
20 2 -19 -26 0
19 -17 41 21 0
-4 -1 37 -14 0
-32 21 -39 40 0
13 22 8 -9 0
36 4 27 14 0
35 -43 -18 37 0
-33 37 16 43 0
43 -26 2 -39 0
20 -45 29 -17 0
4 -24 2 -26 0
36 37 -39 19 0
37 9 -30 -25 0
14 7 15 -20 0
22 39 -42 23 0
-34 -32 25 -40 0
29 35 -28 -12 0
39 42 38 30 0
24 18 -45 -40 0
-39 33 -15 -36 0
41 6 -19 -27 0
-5 -39 14 34 0
-7 31 43 6 0
31 -40 6 -12 0
-7 -16 4 24 0
35 -12 -43 13 0
-4 41 39 2 0
36 -45 -31 -8 0
-26 41 44 45 0
-16 39 -40 -3 0
-5 -20 34 -4 0
26 -9 28 15 0
-19 13 25 21 0
25 -18 21 -45 0
-31 28 24 29 0
-11 -28 -9 27 0
-10 39 25 -6 0
13 34 -39 32 0
-7 3 14 30 0
-4 17 30 3 0
-25 -35 -44 32 0
-27 16 -41 -29 0
-1 -7 33 -13 0
-29 -41 35 8 0
-42 2 -29 24 0
32 -14 2 -37 0
22 -9 37 7 0
7 27 -37 -31 0
2 -11 14 23 0
42 -25 34 -24 0
20 17 42 -15 0
30 39 -14 1 0
21 -8 -23 28 0
35 -24 43 25 0
-42 11 -44 13 0
1 12 -45 43 0
-32 33 25 26 0
38 15 3 42 0
1 -39 -11 -36 0
-28 -14 -15 -21 0
37 14 32 -20 0
23 3 -33 -14 0
-35 15 17 -41 0
19 -16 14 -12 0
-33 44 -28 -32 0
-39 -43 17 22 0
10 12 16 13 0
-7 34 16 3 0
32 -14 -7 11 0
-40 -24 -30 35 0
31 13 -19 8 0
18 -30 -4 -41 0
-42 -21 -10 7 0
26 -29 17 42 0
32 44 9 -24 0
22 13 -25 4 0
42 -44 27 1 0
-28 2 -41 18 0
21 34 17 35 0
25 -39 -36 -33 0
44 26 -8 -40 0
32 -41 43 26 0
2 -42 -15 6 0
-41 24 -5 28 0
27 -23 -40 30 0
21 -40 -26 -30 0
10 -21 -13 29 0
13 -41 -31 3 0
41 -17 42 27 0
41 -29 -4 -42 0
-7 13 -4 43 0
-39 -15 1 43 0
41 -38 -11 25 0
-26 -12 -5 -17 0
18 22 -14 -30 0
14 11 -45 -4 0
-31 21 -40 3 0
-5 8 -43 -33 0
14 44 -29 4 0
37 -31 -5 -25 0
42 3 4 -29 0
37 11 3 38 0
-20 21 38 -15 0
-25 -9 -4 -11 0
-1 3 -27 -10 0
-23 35 1 -36 0
12 -24 30 26 0
41 13 -5 -16 0
3 -31 -11 -28 0
-7 31 2 -38 0
-14 -26 19 -29 0
11 -39 4 -40 0
-42 26 -32 38 0
-33 -13 -26 -36 0
24 9 -4 -1 0
21 -29 -12 -45 0
9 6 11 45 0
-28 -43 20 -17 0
3 17 12 -15 0
-24 22 -41 21 0
-41 15 -38 20 0
-4 -44 -32 -22 0
19 -22 1 -8 0
-2 36 31 -15 0
18 4 44 -9 0
37 -27 23 14 0
-12 2 -44 16 0
40 -30 18 -15 0
-13 -28 -9 37 0
-1 35 12 -38 0
-24 -11 -27 -14 0
-39 7 -45 2 0
1 -41 -42 29 0
-35 27 42 15 0
22 26 23 -2 0
37 -45 -35 20 0
-15 -23 -18 -27 0
-4 5 -37 25 0
-11 -26 2 27 0
15 12 -38 -26 0
-13 -40 27 35 0
23 -31 -37 -20 0
-34 -6 35 1 0
-25 5 41 -45 0
-10 1 16 45 0
-32 -2 -45 40 0
-24 -31 -18 -37 0
-43 -19 4 13 0
29 7 -6 -4 0
29 -19 -25 37 0
2 19 -17 41 0
25 45 -1 32 0
28 -20 16 -22 0
-19 -8 27 35 0
-28 -36 -39 41 0
-6 15 -12 -35 0
-8 -23 14 -33 0
-6 -35 26 29 0
40 42 45 1 0
4 44 10 -20 0
-6 -41 -38 11 0
29 28 -4 41 0
42 -17 8 -25 0
41 11 33 16 0
-22 26 -16 9 0
-32 42 -35 -3 0
-28 16 -13 27 0
9 3 28 -20 0
-29 -1 32 12 0
-8 -21 -22 -30 0
12 45 -14 1 0
-16 11 -15 44 0
-44 -8 -28 -24 0
-42 36 -7 17 0
43 -29 33 -24 0
-7 19 11 44 0
-21 18 -23 16 0
-32 -16 22 -31 0
-32 -24 -6 27 0
7 -3 -19 39 0
-16 -11 1 -21 0
36 38 11 -15 0
39 3 -23 -25 0
20 -18 32 -14 0
-30 -35 18 -44 0
-10 33 44 7 0
-41 43 -1 -32 0
39 -6 11 -18 0
-24 32 -25 29 0
-40 -6 25 18 0
-37 5 38 13 0
-34 33 -6 20 0
-9 40 11 -23 0
45 -41 23 36 0
-38 -41 27 28 0
44 33 13 17 0
-39 21 -8 -17 0
5 -42 -17 -30 0
-21 -18 22 38 0
18 13 -24 -22 0
38 23 -40 31 0
33 19 28 31 0
-22 -4 21 38 0
41 -27 19 -16 0
42 -28 -27 -19 0
-30 -13 12 -9 0
-9 2 -16 22 0
-6 25 21 31 0
-29 23 -1 26 0
30 -17 6 -42 0
-5 22 16 23 0
3 44 -18 -2 0
20 31 -36 10 0
34 -37 -28 -36 0
-5 31 -20 -25 0
4 -30 36 -10 0
-39 -20 -37 -11 0
-19 17 20 -33 0
43 11 37 41 0
-16 -25 24 -17 0
17 -34 -16 -2 0
44 19 -16 -29 0
-26 -8 -44 38 0
-39 43 11 37 0
-12 42 2 -25 0
-13 -37 -41 -33 0
8 12 31 -38 0
5 42 32 44 0
35 43 -34 -14 0
-19 -8 43 28 0
24 -16 -21 18 0
16 36 42 -12 0
-7 20 30 -23 0
-31 32 -44 5 0
40 -8 17 21 0
-30 -37 38 -44 0
-20 36 12 -7 0
-10 -32 -41 -18 0
-35 39 12 -16 0
-8 26 37 34 0
-19 -24 -25 27 0
32 41 -25 20 0
37 17 -33 2 0
-24 4 11 -6 0
2 33 -18 22 0
-12 -17 30 -37 0
27 -25 11 26 0
7 -16 -15 31 0
24 -18 -19 -42 0
-34 -43 -25 42 0
-12 9 -33 -23 0
-34 3 -29 -21 0
-23 -39 -27 11 0
-10 26 38 16 0
-27 33 45 4 0
-44 37 -34 7 0
22 5 11 20 0
1 -21 26 -25 0
-30 -8 -20 -17 0
15 -2 4 -38 0
37 -18 -13 35 0
-32 -15 38 40 0
-3 -22 -11 16 0
-21 39 -24 20 0
-23 -29 -26 8 0
-9 -35 -3 31 0
35 8 44 -18 0
-4 34 -38 -18 0
-23 -36 -3 -9 0
31 -22 16 -15 0
-16 25 -44 45 0
-12 -44 29 -9 0
-4 -6 44 -14 0
9 8 -4 3 0
18 -12 -11 26 0
9 -33 3 37 0
9 30 -16 40 0
15 -31 -6 42 0
-44 21 -5 10 0
-41 -13 40 -25 0
-18 -24 -15 -43 0
43 -15 25 -37 0
-8 2 16 -20 0
-43 -44 -34 -22 0
-3 41 34 31 0
-42 26 -4 15 0
25 -33 28 14 0
25 45 -2 -27 0
-28 41 21 -16 0
-19 -14 -30 -11 0
38 2 20 1 0
23 -12 -35 41 0
-45 -41 -33 -32 0
9 8 4 20 0
-21 9 -7 -28 0
-10 -21 29 14 0
-45 -37 -30 11 0
-9 42 30 19 0
42 38 -41 28 0
-9 21 28 -38 0
24 -7 18 -29 0
11 29 -37 -9 0
-16 -20 -26 5 0
-23 -25 -19 -7 0
30 27 10 14 0
31 -23 7 2 0
38 -28 -12 21 0
-5 -31 8 -14 0
-3 34 -40 37 0
25 20 29 42 0
13 -31 42 -44 0
-2 29 26 -45 0
35 -33 -22 -36 0
19 -36 21 -14 0
38 14 -25 -27 0
-36 -2 -28 -21 0
18 -38 11 -1 0
-9 -26 34 -21 0
7 22 4 -37 0
-25 29 39 -30 0
26 3 -10 -21 0
-35 -40 38 2 0
33 39 32 43 0
16 6 -34 -17 0
-20 29 34 6 0
14 -12 -8 20 0
31 -32 -10 -7 0
44 32 -9 -30 0
9 -21 -43 -1 0
-17 20 -36 -25 0
25 37 6 -1 0
10 40 24 -39 0
-30 -19 -23 38 0
-43 21 41 12 0
12 -31 15 34 0
45 -42 14 13 0
24 18 35 -2 0
-19 45 42 -37 0
8 38 45 22 0
5 25 -2 20 0
-22 -45 21 -2 0
5 -4 -6 21 0
-14 5 -43 -13 0
-7 -30 -2 17 0
-23 26 11 -22 0
-9 39 -27 42 0
30 -45 35 -11 0
1 -33 -17 -24 0
-1 10 17 14 0
39 -40 -6 11 0
26 -15 44 -41 0
19 42 -7 33 0
30 -15 -1 -20 0
-44 -36 -23 -7 0
-22 -9 10 -2 0
-2 -36 -42 22 0
22 32 18 -2 0
-38 -7 -31 -15 0
-29 -17 18 23 0
-33 12 -44 -42 0
4 -25 12 -17 0
-38 -15 -45 4 0
-11 -10 12 -24 0
-40 25 -24 12 0
14 7 -5 -42 0
15 12 -36 -25 0
