c family=4-SAT n=45 instance=4 seed=726001144 models=42
c order 22 8 11 39 30 15 24 37 35 18 7 21 28 45 23 9 17 44 2 32 20 33 19 6 26 43 40 3 1 27 29 12 16 36 13 14 42 38 10 34 25 41 4 31 5
c order 17 13 6 30 23 20 18 38 33 14 40 35 24 37 19 32 41 44 34 11 39 42 45 27 43 36 12 26 21 7 10 15 4 1 31 16 25 9 28 29 22 8 2 5 3
c order 42 44 33 16 13 2 4 10 7 11 30 22 38 28 40 21 37 3 43 19 34 17 35 29 27 23 5 12 41 9 20 45 18 14 6 39 32 1 8 26 15 25 31 24 36
c order 17 36 18 33 16 45 23 40 6 28 2 35 3 24 37 12 20 34 19 43 42 4 30 7 14 39 22 41 25 21 29 26 15 1 9 31 10 13 38 8 32 27 5 11 44
c order 6 44 3 8 34 36 15 26 39 30 18 41 16 35 13 7 27 2 10 20 32 45 17 23 37 4 19 9 14 28 29 33 31 43 24 5 12 42 11 38 1 40 22 25 21
c order 12 29 15 3 11 37 24 4 13 17 7 8 39 38 25 16 23 30 32 44 5 42 28 27 22 9 41 19 10 26 35 1 18 14 45 36 20 6 31 21 40 34 2 33 43
c order 8 39 5 41 30 23 15 40 29 11 22 32 14 27 38 43 37 18 25 21 17 2 4 3 28 13 24 12 35 16 31 1 36 6 42 19 45 9 33 20 7 34 10 44 26
c order 4 33 14 18 40 7 12 5 43 10 25 32 44 21 22 45 13 26 19 15 11 29 36 39 35 16 1 38 34 31 2 17 9 8 27 3 24 20 23 30 6 42 37 41 28
c order 23 34 7 5 44 19 43 14 28 32 38 33 8 12 25 2 22 45 42 13 20 29 21 30 16 27 37 39 10 31 26 4 9 41 36 1 11 24 15 35 17 3 40 18 6
c order 28 30 24 12 2 38 23 20 25 16 7 43 1 19 10 3 14 9 40 31 11 37 44 6 15 4 17 42 22 39 29 34 8 33 27 35 32 45 21 13 5 26 41 36 18
p cnf 45 432
6 -14 30 22 0
45 -26 15 23 0
-19 -8 -7 38 0
38 20 -40 28 0
-15 -20 18 10 0
-10 3 4 5 0
-37 2 -20 -22 0
6 -40 -21 -34 0
-36 33 -15 2 0
5 -7 40 14 0
24 -3 -8 33 0
-27 22 10 34 0
5 -30 12 -40 0
40 3 -20 30 0
28 -17 27 34 0
-15 36 -33 -38 0
-19 15 -21 -29 0
32 13 -25 4 0
23 -36 -27 -14 0
-10 -1 -31 34 0
43 28 25 -44 0
-36 2 -39 41 0
36 18 -31 35 0
-12 -20 -33 28 0
30 -14 26 -25 0
13 -7 -3 -17 0
13 -41 -27 33 0
20 38 -12 45 0
29 34 -13 -12 0
25 29 -17 -14 0
-21 -44 43 -31 0
-24 -40 -37 31 0
13 -28 11 29 0
1 5 2 21 0
30 -16 -18 3 0
-30 -24 -6 29 0
30 -31 1 9 0
4 -6 -8 -9 0
-37 10 -31 -14 0
-27 -39 -33 -37 0
24 38 1 25 0
14 -20 -38 -12 0
25 -45 -7 -35 0
28 -37 23 -22 0
37 5 -13 -18 0
-44 28 -16 -30 0
-8 26 33 -4 0
-35 13 -25 43 0
-11 -32 27 30 0
-14 -6 -27 -5 0
42 -21 -24 -17 0
-29 -42 22 10 0
-35 45 -23 31 0
35 -37 41 -30 0
2 -32 -3 -30 0
32 41 31 12 0
-31 23 -32 3 0
-2 -31 32 -36 0
-25 2 29 15 0
35 -20 -5 30 0
-32 18 20 37 0
-28 36 -30 -32 0
9 -42 -37 -14 0
35 -15 -44 -37 0
-23 25 -20 37 0
39 -45 -37 43 0
21 -27 12 -29 0
33 -12 23 3 0
26 14 1 23 0
42 27 -24 18 0
23 -3 -5 -25 0
-27 28 -37 22 0
-38 15 -25 -8 0
-11 -39 -10 14 0
-14 24 12 15 0
-35 -7 14 -24 0
26 -44 -30 42 0
45 1 17 -39 0
3 -12 28 -37 0
14 42 27 -2 0
-9 7 28 -23 0
31 -18 -15 45 0
-7 6 -45 9 0
-23 30 38 31 0
-15 11 -31 -45 0
5 17 -43 35 0
-34 36 -26 -45 0
-35 41 8 -9 0
-45 40 20 -41 0
-19 -25 -17 16 0
5 32 30 -26 0
33 -45 -34 -10 0
43 16 -36 31 0
40 41 -15 -45 0
-11 37 16 -2 0
-35 11 3 25 0
-2 -21 -35 15 0
-6 30 -24 -8 0
20 43 -15 12 0
26 -9 5 8 0
34 26 45 -37 0
-5 6 -4 -3 0
-30 -38 44 -16 0
-18 -5 -16 21 0
-40 14 -43 -38 0
21 29 31 32 0
-35 -41 34 -43 0
16 13 39 43 0
-31 -36 -38 -19 0
2 8 -13 16 0
35 45 23 -34 0
1 -39 -8 -33 0
14 3 -35 -24 0
-19 -18 -29 7 0
24 -29 -37 41 0
18 -3 -13 31 0
26 -34 -38 20 0
-41 -35 -23 4 0
29 -34 -3 -13 0
43 37 -41 23 0
-11 -3 43 -21 0
28 -17 -38 -44 0
17 6 -36 43 0
13 -29 44 45 0
42 44 -34 18 0
21 33 -7 -14 0
43 -30 6 -14 0
37 -20 -28 -35 0
43 19 -21 -16 0
35 -42 -6 -32 0
25 -27 -26 -36 0
-29 -43 -27 16 0
18 -11 7 6 0
-29 6 12 -44 0
28 17 -35 -20 0
-29 -33 -30 8 0
-28 35 -36 24 0
-9 -34 -26 32 0
-40 -43 35 29 0
-24 -29 27 34 0
39 17 9 36 0
24 12 -16 6 0
5 -38 -41 36 0
-33 -29 8 -38 0
36 29 -4 17 0
30 25 23 42 0
40 -25 10 -45 0
42 39 41 -30 0
-12 -23 -27 40 0
-42 -16 23 -30 0
25 -38 -40 2 0
2 29 -35 -25 0
43 -37 -19 -33 0
37 44 29 30 0
-18 -38 -25 4 0
-27 43 45 -1 0
23 44 -30 -2 0
10 21 -33 15 0
15 -26 -27 44 0
14 43 40 25 0
-36 22 -40 1 0
-7 12 -38 -35 0
28 -10 1 -36 0
-26 -28 5 -4 0
-12 -16 29 -7 0
-13 -12 28 33 0
14 7 10 17 0
-19 -26 24 10 0
-28 -40 17 37 0
33 21 -19 -8 0
-25 37 -11 -18 0
1 39 36 -38 0
8 -18 -29 9 0
8 -5 -18 11 0
36 30 -6 -3 0
-26 -6 5 29 0
10 -22 2 -30 0
33 32 -29 37 0
2 -25 -16 28 0
5 -10 -24 14 0
-1 -29 17 -9 0
-22 -18 44 3 0
16 -36 8 30 0
-11 -3 -4 -26 0
28 22 10 -8 0
38 -34 4 2 0
24 41 -19 13 0
35 -39 -17 8 0
22 -21 4 33 0
-38 -4 -5 9 0
30 39 -14 -31 0
10 21 -34 36 0
35 -21 44 32 0
38 -13 -7 4 0
-22 -20 45 18 0
16 -26 -5 -29 0
-8 -33 30 -11 0
34 -31 10 5 0
-9 13 11 -14 0
-34 -20 36 33 0
12 -43 10 -7 0
41 7 -31 -14 0
39 30 -12 -10 0
-20 -35 22 39 0
-33 5 31 29 0
25 32 8 17 0
38 -4 7 26 0
7 -9 45 -23 0
-7 42 -19 37 0
-22 -27 7 29 0
36 -24 -21 41 0
24 -23 -16 -9 0
37 16 6 32 0
17 -21 9 -44 0
-9 3 43 -37 0
-5 4 -1 39 0
33 2 13 14 0
6 44 28 -18 0
-9 36 -39 -23 0
-12 5 11 40 0
-24 28 21 38 0
24 27 6 2 0
-14 12 10 -43 0
28 26 -5 -8 0
12 14 10 -33 0
-18 -42 -25 -36 0
19 21 7 26 0
29 -39 -20 -30 0
7 43 19 -28 0
-21 -2 16 -15 0
-6 5 38 29 0
18 17 13 6 0
41 -28 38 -16 0
14 -32 -26 -37 0
32 2 13 -29 0
-8 15 25 -39 0
28 13 -11 -9 0
-31 -44 22 -29 0
26 28 42 -7 0
7 -28 -22 -29 0
31 38 -35 -20 0
38 -32 -35 -11 0
17 45 6 -39 0
42 -34 29 -27 0
33 8 -17 -39 0
-7 25 16 22 0
-24 18 43 -5 0
39 2 32 -26 0
28 39 -41 17 0
-17 4 6 33 0
-14 -10 5 -16 0
25 16 6 -40 0
22 -9 30 2 0
31 24 -11 -37 0
-6 22 29 -3 0
29 -38 -42 -22 0
34 36 44 -30 0
10 12 16 -7 0
-14 -36 11 45 0
-37 -5 -38 39 0
-16 -14 -36 18 0
6 45 8 17 0
13 -43 18 -30 0
-29 40 16 -5 0
20 -27 -35 13 0
-8 -2 24 29 0
11 3 23 -13 0
-27 16 -13 22 0
-19 11 12 26 0
36 21 25 4 0
22 37 -6 -18 0
-7 -15 -32 17 0
-45 -13 33 -8 0
45 -44 43 17 0
18 3 -11 -4 0
35 -26 36 -23 0
-5 -44 14 -36 0
24 6 -18 -37 0
-17 -16 -36 27 0
8 -10 -12 -34 0
-22 -32 42 40 0
-19 35 -9 15 0
-28 -18 8 35 0
-28 40 -4 3 0
5 43 -41 7 0
-12 -1 -27 32 0
-45 37 -15 16 0
-36 -26 -9 -22 0
4 -16 -14 11 0
-24 -15 18 16 0
-19 26 9 -45 0
-5 14 23 45 0
-26 38 -19 -36 0
30 -35 -8 13 0
19 32 -44 -22 0
-26 -28 -11 -25 0
6 35 -22 -43 0
18 -12 3 -6 0
-26 -7 -5 25 0
-27 -30 -10 -4 0
-18 16 -22 25 0
-36 -40 -20 -19 0
33 24 39 44 0
-18 -43 -41 -4 0
-41 38 11 -22 0
15 -19 43 44 0
-32 34 -16 -18 0
31 16 -38 5 0
-35 45 -39 14 0
44 -15 -29 36 0
10 34 -8 -18 0
2 -39 6 -18 0
29 -39 27 43 0
-25 -4 -16 30 0
10 13 20 -38 0
-37 -12 13 -1 0
39 -33 14 -7 0
-19 -28 -20 16 0
-3 -35 24 30 0
-40 15 36 19 0
-29 45 7 -11 0
36 23 -5 13 0
-22 -27 35 33 0
-28 -29 -3 30 0
39 25 -37 41 0
-5 -1 23 44 0
-36 -38 42 7 0
-9 32 -30 18 0
20 35 -14 26 0
20 -13 26 -15 0
-6 38 -7 -17 0
-5 25 -29 -3 0
-2 -24 -23 7 0
25 -5 8 -7 0
31 -17 -42 -8 0
13 9 10 17 0
21 12 22 -14 0
35 -17 2 30 0
32 23 -31 -16 0
33 6 17 -13 0
-42 26 -36 -8 0
-27 32 15 -25 0
-23 -6 -20 16 0
-45 33 -5 -26 0
34 12 -42 -22 0
25 33 1 -30 0
21 -35 -37 -3 0
41 -6 -30 -26 0
33 -5 35 32 0
-1 17 -33 -14 0
-23 38 45 -15 0
-35 -42 20 -14 0
-15 -44 -24 -45 0
24 33 -34 10 0
24 42 33 -23 0
-29 23 10 -14 0
17 -38 -34 8 0
37 -29 -18 -27 0
10 -37 7 36 0
26 -36 10 -18 0
-33 -39 43 -21 0
6 -2 24 -43 0
-38 31 -43 -2 0
2 17 -18 -30 0
-4 40 45 -3 0
30 -13 27 -7 0
20 -39 17 44 0
28 41 -11 7 0
9 3 4 -37 0
-21 -37 10 -32 0
-35 -42 23 -40 0
-16 -11 -13 24 0
-30 4 33 2 0
-42 -29 2 5 0
30 20 26 40 0
11 -8 -20 7 0
-28 7 -18 41 0
6 -3 29 37 0
-11 28 -38 30 0
23 -14 -45 43 0
42 -21 -11 -6 0
13 -6 -33 41 0
-6 45 -27 -26 0
11 9 29 2 0
-26 14 -12 31 0
-24 -42 -41 31 0
-30 -33 24 -43 0
-9 -18 30 15 0
3 26 -44 -27 0
15 -37 14 31 0
34 -8 -29 14 0
9 -25 -12 -34 0
-12 -2 5 -21 0
-45 17 33 27 0
11 -9 -20 -6 0
-18 -19 4 -20 0
10 18 -41 -8 0
11 12 -28 -45 0
-10 -41 44 29 0
-31 -23 -5 -2 0
-24 4 22 10 0
32 -24 21 27 0
-17 -1 7 -40 0
-3 39 -34 18 0
30 -13 -23 -12 0
29 -39 -5 -17 0
24 -34 -26 -11 0
-42 -41 -22 -37 0
-3 -17 -20 16 0
-24 -8 42 14 0
3 22 44 30 0
-21 38 45 -24 0
-37 -24 39 -35 0
-13 11 1 19 0
29 -45 -1 -26 0
-24 -31 -27 -21 0
19 -12 -28 -33 0
-18 10 -28 -15 0
-3 -2 -24 -16 0
23 6 30 38 0
28 -35 24 34 0
42 -13 -1 39 0
10 15 37 29 0
44 40 -15 -41 0
-1 34 38 -31 0
-17 20 -7 -45 0
-35 -22 14 2 0
19 -33 -10 -34 0
13 -4 -26 7 0
-27 20 -9 16 0
42 -18 -11 32 0
18 -25 -38 -21 0
