c family=4-SAT n=45 instance=3 seed=726001144 models=47
c order 19 21 15 42 3 8 43 14 2 25 27 10 17 7 34 36 37 5 31 38 9 29 4 16 1 13 32 28 44 30 33 26 41 11 40 18 12 39 35 6 45 24 22 23 20
c order 18 12 9 7 42 6 27 11 10 8 1 25 40 41 4 19 21 39 14 32 2 15 43 24 5 31 45 26 13 22 28 38 37 23 44 30 36 34 20 16 33 35 29 17 3
c order 22 10 27 23 12 33 11 41 14 9 32 16 45 44 29 25 35 34 18 19 37 4 17 7 38 40 8 31 30 26 42 21 6 36 43 20 15 2 13 24 39 5 1 28 3
c order 41 9 37 29 21 30 34 7 43 5 18 8 44 24 2 26 19 10 40 23 12 32 31 20 27 17 45 35 25 42 33 4 36 14 28 22 16 3 15 11 6 38 1 39 13
c order 14 12 28 6 25 39 2 17 9 29 44 27 36 38 18 32 20 24 30 31 21 34 16 42 43 5 33 19 37 4 40 3 7 41 26 13 1 11 23 45 10 22 8 15 35
c order 13 30 39 18 7 42 4 27 38 1 11 26 3 35 19 31 32 17 21 40 5 43 37 2 33 22 41 44 45 28 24 34 29 8 23 9 12 6 10 14 36 16 15 20 25
c order 5 24 22 25 16 44 26 30 1 31 33 9 18 14 15 3 2 13 11 4 17 36 40 29 7 41 38 12 10 35 39 23 6 19 28 42 8 34 21 27 32 43 37 20 45
c order 27 29 8 12 31 37 34 6 1 24 9 2 35 36 20 43 21 18 26 11 13 5 19 39 17 38 23 30 22 7 4 33 42 41 28 44 3 15 25 45 14 10 16 40 32
c order 4 44 24 36 14 7 21 2 33 9 35 34 22 8 39 45 11 43 10 25 17 19 29 20 16 26 30 6 5 31 15 41 13 27 23 40 37 32 18 1 28 42 3 38 12
c order 43 44 9 11 19 17 40 23 34 4 3 5 7 16 13 45 20 38 10 31 27 22 39 41 18 35 12 29 1 25 8 37 28 6 30 42 14 2 26 33 21 36 32 24 15
p cnf 45 432
41 7 26 39 0
9 1 24 3 0
-8 -35 33 -4 0
-44 -17 6 -10 0
-36 6 27 -13 0
41 12 -23 20 0
39 36 33 -26 0
5 -36 23 2 0
-36 34 -24 29 0
2 -34 -1 9 0
-30 -39 11 -25 0
-26 14 43 -30 0
-45 4 -13 22 0
14 -23 33 -34 0
-35 -2 -14 -32 0
43 22 -28 7 0
-24 -26 -7 -9 0
13 -17 -39 -28 0
-13 16 26 24 0
-3 -4 11 38 0
15 -36 -40 -3 0
-35 5 19 -29 0
5 22 29 28 0
39 -34 -5 -24 0
-30 -4 -43 -15 0
-42 32 10 7 0
-35 -21 44 42 0
-24 4 28 -1 0
-2 8 -36 -37 0
-10 -5 12 -26 0
-22 -31 -30 25 0
25 34 14 -23 0
-39 -10 9 -40 0
-6 -14 -13 8 0
4 2 28 19 0
-23 18 9 13 0
14 13 21 45 0
31 -26 -35 42 0
-7 4 8 -18 0
7 -44 -11 4 0
30 -11 5 -19 0
-11 -21 -9 14 0
-35 -45 -13 14 0
-1 16 41 -7 0
-44 -36 -4 2 0
38 -40 41 32 0
16 -20 -24 -34 0
13 7 5 -12 0
-12 -24 19 -5 0
-24 -36 -6 17 0
-39 38 -2 26 0
-9 -38 -42 -29 0
-16 23 -41 -14 0
33 5 -25 45 0
-39 -13 15 42 0
-26 -34 33 22 0
40 -18 -30 24 0
-45 11 21 -22 0
15 -34 17 18 0
-29 19 -36 34 0
-20 -30 9 41 0
23 44 -32 25 0
-25 -6 9 15 0
-13 -9 10 4 0
25 -17 -40 -11 0
40 12 42 2 0
-34 15 26 24 0
-24 38 -12 41 0
-10 -35 28 -27 0
3 -10 -30 40 0
23 -9 -13 -12 0
39 -9 7 14 0
-29 26 41 5 0
36 -3 -24 15 0
-7 -42 -45 -41 0
-2 27 -10 7 0
41 -10 -45 -24 0
-6 15 1 -43 0
-42 32 -45 -24 0
30 6 -34 43 0
-7 -20 32 9 0
30 20 2 -13 0
-8 -25 17 -12 0
-30 -7 -24 -9 0
-25 9 28 -5 0
-30 -23 -6 -15 0
43 -3 13 -25 0
27 -2 4 -29 0
-23 -12 -25 -34 0
-35 -33 21 -40 0
10 -17 -31 21 0
34 -7 -42 -27 0
-8 -2 16 -4 0
44 18 42 16 0
22 3 21 29 0
22 11 -21 -17 0
-3 -12 13 -5 0
27 -19 -23 34 0
17 27 40 41 0
-12 23 -2 20 0
38 41 31 43 0
-8 7 13 12 0
23 1 27 -5 0
-29 44 -27 -2 0
-13 -25 2 -37 0
-40 -10 -7 8 0
40 32 1 -39 0
-3 13 -35 34 0
-17 -16 -34 4 0
21 -37 -1 -39 0
1 24 21 -27 0
-5 11 -4 37 0
-1 -14 -6 18 0
-36 -17 7 -44 0
43 -1 -25 -11 0
10 19 -40 -41 0
-36 4 8 43 0
23 -29 -42 -17 0
33 -3 42 11 0
2 18 -28 11 0
42 -22 8 -30 0
18 8 41 42 0
-18 -26 -44 -37 0
-23 -45 25 8 0
-23 -13 15 -28 0
-34 7 41 -18 0
4 -6 -42 25 0
-3 28 15 36 0
-42 5 13 6 0
31 -17 -22 -36 0
43 -28 -16 10 0
-23 -21 -18 -39 0
-13 28 -40 43 0
35 -8 -41 -29 0
15 -4 6 -16 0
-35 -33 -9 19 0
14 -31 -36 34 0
19 24 2 23 0
34 -6 41 -5 0
-7 36 9 -4 0
-5 -7 1 17 0
-45 3 29 33 0
31 36 -11 12 0
-28 -27 -15 -5 0
22 3 -13 -27 0
36 -31 -20 13 0
-7 2 38 -40 0
27 1 -4 -6 0
33 22 -39 20 0
-43 -21 -32 -1 0
21 -43 24 -42 0
-1 2 27 -41 0
-8 16 -35 21 0
-35 5 24 -10 0
17 6 35 -8 0
-8 29 -17 -35 0
-20 42 21 10 0
-25 -31 4 -3 0
-20 -19 29 -2 0
-41 44 8 -12 0
-19 10 -30 28 0
-33 -40 -24 -19 0
35 36 -30 42 0
-32 -6 42 -15 0
42 -16 27 41 0
-14 33 8 -20 0
-23 -24 44 10 0
-12 22 -7 32 0
42 32 33 38 0
-41 -36 11 5 0
-13 38 35 30 0
43 -4 22 -3 0
36 -42 24 38 0
-9 -30 -8 29 0
36 22 44 26 0
31 -14 -20 21 0
39 44 38 7 0
35 13 7 -23 0
-26 -14 23 11 0
-14 45 24 -4 0
-31 38 -42 5 0
33 -39 -16 22 0
44 -27 31 17 0
45 19 41 8 0
12 -39 7 13 0
44 -1 28 7 0
-21 -10 -45 18 0
-37 25 -21 -29 0
-38 -7 18 -9 0
-24 23 -3 -43 0
4 31 -36 14 0
-24 -28 16 -26 0
10 44 -32 37 0
34 27 17 3 0
-27 -9 44 -40 0
4 -18 -11 41 0
-25 1 26 -7 0
-13 19 -27 -9 0
44 -7 42 13 0
2 -39 -34 38 0
1 -17 33 -42 0
-3 -22 40 -4 0
-4 5 -15 1 0
-35 -37 3 -32 0
-27 36 26 1 0
17 16 -18 25 0
3 21 8 -24 0
-11 -36 -6 5 0
34 -6 44 -9 0
-9 -28 40 42 0
30 -44 24 22 0
1 -22 11 -33 0
30 -27 28 -32 0
34 -8 -25 41 0
-7 -13 5 32 0
45 -22 28 -17 0
41 -27 8 -42 0
41 -18 -12 11 0
-18 -25 34 43 0
-13 -30 32 6 0
42 26 40 -32 0
-45 -37 -33 23 0
31 -41 -17 38 0
-23 41 -32 39 0
-35 19 24 2 0
33 3 8 12 0
4 9 19 27 0
-39 -37 -13 23 0
-36 40 -33 1 0
40 3 -16 -27 0
29 -26 -38 9 0
-24 -32 7 -20 0
3 -44 -42 43 0
7 5 8 -29 0
28 -4 35 -9 0
32 -4 17 -8 0
11 -28 3 -2 0
-30 -37 34 -7 0
-34 -25 10 -18 0
17 -20 -6 -26 0
1 -40 9 30 0
19 25 9 15 0
35 28 9 33 0
-39 -9 -19 31 0
30 6 10 -42 0
37 28 40 41 0
28 -3 -13 -29 0
-13 38 10 1 0
-19 -25 42 -45 0
-22 -9 39 4 0
-22 -5 -29 25 0
34 13 -14 -25 0
34 32 37 17 0
-14 23 -11 -12 0
8 10 16 -37 0
-31 -23 -27 1 0
6 -30 -20 27 0
-20 26 14 -10 0
-43 -13 1 -33 0
-24 33 10 14 0
16 -18 -23 29 0
-43 -15 -38 18 0
-35 37 22 -31 0
-23 -21 9 27 0
-30 -28 -36 33 0
-19 -18 -20 38 0
-17 -18 6 -40 0
-28 11 32 -29 0
6 -17 -30 32 0
-20 -41 -7 -10 0
8 40 -17 -5 0
23 -38 -19 -4 0
42 -38 -31 14 0
-35 32 -44 -36 0
22 27 -43 31 0
13 8 -12 32 0
9 21 27 -38 0
15 -36 4 18 0
6 -39 -14 -18 0
24 29 31 41 0
22 -28 1 -19 0
-35 -31 -9 29 0
-5 7 -23 -33 0
-40 18 25 -1 0
-38 -29 13 6 0
11 -10 -41 40 0
16 22 18 24 0
23 1 -2 35 0
-7 -44 31 -45 0
-43 38 -19 -27 0
18 -34 6 -41 0
37 9 -23 -45 0
-39 43 -18 3 0
5 32 45 -22 0
40 -28 21 -45 0
39 -27 -37 -2 0
-12 39 -13 30 0
-40 30 34 23 0
-30 11 39 -7 0
12 -39 31 -1 0
-2 -16 23 4 0
-31 -22 19 28 0
-28 25 -23 6 0
28 -35 -34 10 0
22 36 -29 -3 0
-12 -13 -5 -8 0
31 9 -20 -14 0
-13 -18 -45 -24 0
-39 -36 17 -14 0
6 15 -28 -24 0
-8 1 23 -4 0
-32 -5 3 -26 0
11 -43 17 -15 0
-25 -15 -35 45 0
-19 -30 -24 -4 0
9 27 19 42 0
12 -28 40 19 0
36 -13 -3 41 0
-35 40 -34 -7 0
41 -23 -29 16 0
30 -40 26 29 0
-16 15 -38 8 0
45 -15 7 38 0
4 -7 -30 17 0
-37 34 -18 27 0
6 34 10 -32 0
-23 -3 45 -39 0
36 -17 13 1 0
-13 43 -9 36 0
14 -36 11 -23 0
43 8 -6 27 0
-8 18 -12 43 0
6 -22 -27 18 0
29 -11 36 23 0
9 25 8 -39 0
-31 -32 34 -5 0
36 -38 -37 18 0
43 -35 38 15 0
-30 -24 -41 9 0
-36 -42 -31 -24 0
-22 11 -9 4 0
30 33 -22 -11 0
37 14 4 28 0
28 41 -43 -20 0
-25 16 1 -45 0
-19 17 -40 26 0
-43 41 -4 -31 0
-21 -11 10 -8 0
11 12 43 -32 0
11 -13 38 -28 0
43 -30 -9 24 0
17 -24 -6 -41 0
-1 -23 -17 8 0
-33 41 -12 9 0
34 37 -45 -39 0
-39 18 7 -30 0
-5 27 34 2 0
-18 12 -2 35 0
-4 27 44 -36 0
-3 -24 -18 37 0
-17 -45 -39 26 0
-6 -16 -40 30 0
22 -27 36 43 0
-33 39 -31 -32 0
36 -20 -32 4 0
-6 -14 30 19 0
-26 23 6 -8 0
7 -12 -42 10 0
29 26 -43 -39 0
-3 -1 -28 -6 0
8 26 -11 19 0
23 7 -44 -25 0
10 -18 -38 4 0
23 8 36 12 0
2 30 39 10 0
24 -40 -37 -28 0
-23 18 -13 11 0
-3 26 -17 38 0
-31 -11 45 29 0
-27 -42 -36 -45 0
-40 -7 -24 44 0
29 -16 -30 5 0
37 -32 24 -39 0
-16 -44 -7 -30 0
-19 -28 -20 27 0
-35 22 42 -20 0
-18 42 41 -8 0
-3 5 -6 12 0
8 -41 -20 -39 0
37 40 28 4 0
-23 -43 10 45 0
38 2 16 12 0
44 -38 -12 17 0
-35 -2 45 -43 0
-2 30 -20 -11 0
-22 -44 27 -32 0
16 -11 19 9 0
25 33 -8 3 0
-37 -3 7 32 0
-2 -13 -7 -21 0
38 -5 -32 -9 0
-28 -26 -44 12 0
23 30 39 -26 0
28 12 20 9 0
6 -15 24 -41 0
-34 -43 -40 30 0
-3 15 -30 16 0
-24 23 31 37 0
-41 12 32 15 0
2 5 -20 12 0
29 19 41 23 0
34 35 9 14 0
8 41 18 24 0
45 10 2 43 0
2 -24 -26 16 0
-16 10 31 25 0
-4 -23 37 -13 0
-14 32 26 -4 0
3 18 -17 -41 0
19 37 -14 -20 0
37 -12 -10 -27 0
-45 -8 -20 42 0
43 -23 33 -24 0
-35 28 44 5 0
22 27 -18 1 0
38 -41 5 -14 0
-17 39 -27 -9 0
15 1 -4 11 0
-2 -23 8 37 0
29 -20 34 -33 0
16 -20 14 44 0
40 -16 26 32 0
