c family=4-SAT n=45 instance=1 seed=726001144 models=3
c order 40 7 35 41 5 38 32 44 25 37 2 43 13 45 34 12 21 30 8 28 14 20 6 15 10 22 27 31 42 9 16 33 18 24 1 26 11 39 17 19 29 36 23 4 3
c order 10 5 45 15 12 36 3 39 29 1 9 16 33 7 11 19 26 25 23 18 35 44 27 41 14 37 13 40 24 31 42 4 22 43 30 20 6 21 8 2 34 17 38 32 28
c order 40 15 41 32 27 2 39 31 37 22 44 17 45 20 10 34 16 6 38 12 36 42 24 21 7 5 43 29 14 35 1 18 19 4 11 9 3 26 28 30 8 25 23 33 13
c order 26 34 20 24 19 29 12 1 14 38 32 45 15 4 33 41 18 28 2 10 23 30 37 44 27 17 3 21 35 16 42 43 11 25 6 36 39 40 7 22 9 8 13 31 5
c order 1 35 28 40 10 25 41 29 9 39 34 19 44 21 26 23 3 27 5 11 45 33 2 14 31 32 15 38 16 13 12 22 20 36 17 7 37 30 24 6 18 42 8 4 43
c order 31 11 9 33 44 39 29 22 37 36 42 4 14 18 34 20 25 40 6 32 27 7 26 2 3 17 12 23 35 10 13 30 19 43 28 8 38 21 16 41 45 5 1 24 15
c order 20 19 40 17 32 36 31 39 18 22 34 26 42 21 5 44 9 30 29 24 41 13 1 3 25 35 33 28 43 15 37 27 14 2 7 8 11 6 10 45 38 4 12 16 23
c order 21 27 12 10 14 18 42 8 40 25 41 34 29 1 43 11 23 28 36 22 44 6 31 20 13 26 3 19 17 4 9 38 5 32 15 16 33 45 35 39 37 7 2 24 30
c order 45 30 11 6 24 43 34 3 5 10 14 38 37 19 7 16 29 27 18 22 12 20 32 44 31 41 25 2 1 15 9 21 36 17 26 13 35 23 4 33 8 42 28 40 39
c order 12 34 30 43 28 37 5 11 10 16 39 27 26 9 38 36 17 22 31 4 13 33 7 32 19 21 15 1 41 20 42 29 18 24 35 45 8 14 23 40 2 25 44 6 3
p cnf 45 432
-8 19 -10 29 0
5 -4 -15 -1 0
39 -10 -14 -12 0
1 18 34 -23 0
1 15 24 45 0
-18 14 44 -9 0
-10 -39 -25 -4 0
-38 -7 -2 28 0
13 -4 -24 -44 0
16 -2 -21 -6 0
-22 29 21 8 0
-5 -31 4 -13 0
-30 23 -29 -1 0
-31 43 19 -1 0
21 31 37 2 0
-26 -9 36 -22 0
40 -23 16 45 0
42 -31 35 -25 0
29 -40 44 -31 0
30 -45 9 23 0
-43 1 -7 20 0
33 39 -11 37 0
-16 22 13 -15 0
11 -9 -22 37 0
-8 19 -25 30 0
36 -19 15 -11 0
45 -13 3 2 0
-44 -1 38 -45 0
-37 2 -15 28 0
19 -38 40 -14 0
-5 -40 12 -45 0
36 30 15 -28 0
-32 -24 40 -35 0
21 6 43 -18 0
-3 34 -35 -17 0
-39 29 6 -36 0
-19 -41 -39 -44 0
21 -35 41 -2 0
-5 -25 3 38 0
11 9 -20 -31 0
23 7 9 3 0
41 10 -5 23 0
-9 -26 27 -40 0
24 -23 25 38 0
-18 13 -36 -35 0
27 18 7 -45 0
-19 36 33 24 0
16 32 30 18 0
-26 40 8 -5 0
24 25 -43 -7 0
-19 34 43 -12 0
21 17 -19 -29 0
24 1 7 -43 0
-41 43 -10 26 0
3 -15 -22 7 0
-37 -1 -8 -21 0
19 -33 44 -31 0
-4 38 35 20 0
40 33 -20 19 0
39 22 -43 23 0
-38 -3 -6 30 0
-44 16 12 -20 0
-30 -14 41 1 0
-19 -13 -15 -44 0
-42 -35 -15 -29 0
14 -36 -32 9 0
18 -28 11 39 0
36 16 -31 28 0
32 -44 12 -36 0
-38 22 29 -1 0
43 -25 -35 -11 0
34 32 41 12 0
19 6 3 -29 0
-19 12 31 -5 0
-42 -40 -45 -16 0
-44 -33 -42 -10 0
-17 2 7 4 0
15 -33 10 32 0
21 39 31 -25 0
43 14 15 -40 0
-18 -3 4 -29 0
42 5 2 35 0
44 -33 7 -25 0
-38 -45 -30 8 0
9 -7 43 -24 0
21 36 4 2 0
39 -15 -11 -36 0
-30 7 -44 43 0
25 4 40 -29 0
-17 -42 -12 -30 0
-4 -25 7 44 0
-24 -20 27 -25 0
-33 17 -40 10 0
21 -43 35 -30 0
18 26 11 -38 0
-27 22 -11 -6 0
-42 -12 19 -31 0
15 16 2 -28 0
-2 32 40 5 0
-12 -30 41 -18 0
-21 13 -6 5 0
27 -3 43 -1 0
-41 42 -32 -24 0
25 8 21 -40 0
27 -19 8 -17 0
-6 -12 -45 10 0
-42 15 -36 -39 0
15 8 -40 6 0
-20 -23 -10 4 0
13 -44 33 22 0
28 39 21 -40 0
-6 29 42 -27 0
-3 -12 31 -9 0
-18 -21 1 19 0
22 38 -19 -36 0
11 33 -38 -7 0
-36 7 31 6 0
-27 9 29 15 0
-8 -24 -39 22 0
28 -45 34 -3 0
7 -19 -45 -18 0
2 -19 -39 27 0
44 36 -21 -23 0
42 21 29 -35 0
16 -30 -6 14 0
-24 -4 -11 1 0
-20 -30 -18 -41 0
-30 -24 -40 -14 0
-6 28 -21 -16 0
19 -41 -3 -27 0
22 -30 21 29 0
-18 1 8 21 0
18 -43 26 30 0
-37 43 -19 44 0
35 28 -41 -18 0
-28 -44 12 38 0
8 9 38 25 0
32 40 45 27 0
38 35 5 9 0
-17 -7 19 -21 0
32 -8 -28 -7 0
15 -39 -23 37 0
16 12 10 1 0
-12 -4 -28 39 0
-36 12 -10 -22 0
-4 3 -28 -12 0
17 5 -32 -15 0
2 22 -34 42 0
2 3 19 13 0
-24 -29 28 -37 0
6 -26 4 -42 0
-11 25 -40 -21 0
29 28 30 13 0
26 -6 31 -27 0
-31 40 -24 12 0
8 45 14 -21 0
3 8 35 -2 0
-7 33 -23 22 0
44 -29 27 32 0
18 -21 -35 -20 0
4 20 23 -31 0
-13 -29 20 -7 0
-20 -3 2 35 0
-40 -32 -30 -11 0
-1 31 38 -29 0
-16 -26 15 7 0
36 33 37 17 0
-21 1 -33 23 0
17 -16 7 -43 0
31 -41 37 -42 0
31 13 -15 -38 0
28 23 -41 22 0
-13 -10 33 -28 0
-36 14 -21 -42 0
42 -30 16 44 0
5 9 22 26 0
-21 -26 -37 41 0
-13 -11 44 22 0
26 2 37 -13 0
44 37 23 -9 0
-34 33 -19 32 0
-13 4 14 -33 0
25 2 -19 30 0
-21 -24 -18 -26 0
-45 -37 40 15 0
-27 39 -11 -43 0
29 13 -20 31 0
-16 4 1 -18 0
42 -29 1 26 0
4 38 -32 8 0
-34 13 16 -18 0
9 -34 -19 -29 0
45 -18 -44 -13 0
24 -35 -2 42 0
-12 39 26 36 0
31 -6 38 41 0
8 -15 -11 6 0
-3 43 4 -12 0
16 -36 -42 22 0
-32 -2 38 -24 0
8 -12 18 20 0
-6 -4 7 37 0
-34 -38 18 40 0
7 22 -37 -21 0
-2 -26 -15 -41 0
3 -33 11 -21 0
-11 15 -36 26 0
16 -1 -10 31 0
-3 -35 29 18 0
-21 7 16 36 0
35 -31 27 -18 0
-1 -21 23 -18 0
8 -38 -24 13 0
27 -41 7 -32 0
26 -9 -3 -21 0
-44 30 -21 4 0
-41 17 -44 -25 0
-7 8 32 -41 0
18 7 -12 30 0
35 23 -33 9 0
10 -39 -5 6 0
-23 -4 15 -28 0
-6 22 -14 10 0
40 -27 17 -20 0
-36 -29 -18 -7 0
-26 17 -32 -9 0
44 -21 -24 -7 0
-5 -21 35 -37 0
-20 -4 10 19 0
17 39 40 -8 0
17 -15 -25 35 0
38 41 20 -21 0
5 3 40 -23 0
27 6 32 9 0
25 -14 -33 18 0
-40 -19 -23 -26 0
-35 -43 40 42 0
10 4 -41 -34 0
5 -41 45 9 0
-7 -18 26 19 0
-25 44 13 -1 0
11 21 -3 -27 0
3 -22 -26 31 0
16 45 -37 -20 0
24 31 -41 4 0
45 1 -8 -2 0
-31 -27 16 -25 0
-30 24 -4 22 0
8 -45 -36 43 0
40 26 -12 -1 0
-27 -5 2 12 0
-27 44 -8 -39 0
-17 3 33 36 0
-45 -8 -28 -5 0
-41 -11 28 -2 0
14 18 -19 44 0
-37 -38 -26 41 0
-32 -29 -22 15 0
27 -35 34 -31 0
-10 8 -24 14 0
23 26 -4 30 0
-1 5 -6 19 0
18 39 19 -43 0
-45 -15 28 34 0
21 11 -2 12 0
-18 35 11 -43 0
27 3 -17 35 0
40 -24 -39 -36 0
-34 8 41 33 0
-30 11 -36 3 0
-13 -1 -9 -11 0
-19 -39 42 7 0
-45 -16 -10 -12 0
6 23 -10 -22 0
36 -44 4 -22 0
-7 28 -29 -26 0
-28 40 -21 -7 0
31 -1 -18 -22 0
37 27 4 -10 0
44 31 32 -20 0
-17 -3 -19 8 0
30 -23 5 -3 0
12 -39 -7 -36 0
-8 -15 -16 9 0
-12 23 5 34 0
17 -15 -30 24 0
6 -26 -8 5 0
42 -27 -39 15 0
-2 24 -21 -11 0
38 35 -27 -45 0
-33 36 -42 -31 0
25 -34 -45 10 0
-30 -15 27 -33 0
21 -38 -12 9 0
4 -15 18 31 0
29 -45 -22 -28 0
23 41 32 -43 0
25 18 31 19 0
-38 -10 16 -29 0
16 28 -37 6 0
-13 5 33 4 0
24 13 -32 -39 0
44 -11 -25 22 0
-5 -17 -3 32 0
34 -8 -37 -44 0
32 -21 41 -40 0
19 34 -27 17 0
-3 30 -39 -35 0
33 32 31 19 0
7 -39 37 -16 0
-45 33 36 4 0
31 -11 26 -5 0
-32 12 7 15 0
25 5 -7 -15 0
-2 -45 -5 16 0
-11 -27 35 -8 0
41 -20 31 -37 0
-9 5 38 40 0
-19 6 -43 -5 0
5 22 -42 26 0
-19 -2 -25 -4 0
-33 19 -27 -28 0
-23 42 -16 -29 0
28 -15 22 44 0
-27 24 8 9 0
-41 24 18 44 0
41 -15 -30 3 0
15 19 8 -6 0
10 -45 7 17 0
-19 45 -3 -24 0
-21 4 -34 -24 0
2 45 10 -15 0
-38 -33 44 -5 0
-38 -21 11 42 0
-12 22 20 30 0
-26 -25 3 37 0
-3 40 27 24 0
-34 -30 27 14 0
-12 35 5 -33 0
-25 27 40 -15 0
-16 35 -3 37 0
-7 -25 2 38 0
-34 9 18 -30 0
41 16 34 6 0
22 9 -19 -35 0
5 -23 -44 29 0
27 -18 -34 -19 0
7 -44 25 38 0
9 39 -21 8 0
18 -25 14 -32 0
-40 -25 -11 -10 0
-9 -7 -13 28 0
33 -1 -18 -39 0
-28 4 11 2 0
44 -1 -45 -4 0
-39 32 -30 -41 0
42 -23 37 -21 0
-39 14 -16 -13 0
-2 -16 7 -19 0
5 -15 -33 29 0
-7 16 12 -8 0
36 -7 -20 -25 0
-3 -28 -13 18 0
26 -15 34 -2 0
22 43 19 -2 0
41 12 -45 23 0
-37 -6 -38 -31 0
20 -2 3 27 0
-20 1 -24 -8 0
-18 -5 -34 -9 0
21 -12 30 10 0
12 39 -41 4 0
10 3 30 41 0
28 -36 9 12 0
39 -38 1 -22 0
30 -36 -37 33 0
-4 -7 -24 -43 0
39 42 -6 16 0
27 39 20 44 0
26 -21 -27 -28 0
13 11 -14 37 0
-38 34 28 13 0
41 -12 -25 -2 0
-27 5 -32 39 0
34 -26 -8 -35 0
-42 13 -20 35 0
-44 10 -8 -22 0
16 -2 -25 32 0
-8 25 35 -41 0
27 3 24 -5 0
5 21 -40 4 0
-33 -5 44 30 0
-45 -30 42 -11 0
-6 -9 1 27 0
-32 29 -38 28 0
-34 30 23 -16 0
-1 6 -20 12 0
-13 36 -5 -28 0
-7 -43 -38 -18 0
-10 -28 35 7 0
24 39 -30 -14 0
16 28 10 41 0
-15 27 23 11 0
4 -36 -33 -2 0
44 -38 -45 37 0
-7 -40 -27 18 0
9 -20 35 24 0
-13 -12 -15 -27 0
-19 -35 2 -24 0
-43 4 -21 6 0
-14 33 8 -31 0
29 39 -27 8 0
-1 30 -38 40 0
-33 32 23 30 0
-6 -25 -40 42 0
-9 -21 43 -41 0
-6 -45 35 -29 0
-17 10 -19 -14 0
-6 -29 24 20 0
-13 -20 -45 15 0
32 -43 34 -16 0
-17 -4 -21 33 0
21 -12 4 29 0
21 33 8 13 0
-18 30 -8 -36 0
-25 35 -44 13 0
-18 -8 35 28 0
-6 38 -10 -4 0
8 28 3 -33 0
22 45 25 29 0
-6 23 -30 40 0
-39 -31 4 41 0
