c family=4-SAT n=45 instance=2 seed=726001144 models=41
c order 5 17 16 20 22 9 19 25 24 29 28 41 36 3 12 8 26 27 30 23 42 4 45 32 34 44 13 1 38 7 10 39 18 14 31 40 21 37 6 11 2 15 35 43 33
c order 38 23 9 20 36 28 32 42 24 43 33 29 19 44 37 6 2 41 3 35 34 30 31 5 21 4 12 39 10 45 25 14 22 13 1 26 7 40 16 17 11 27 15 8 18
c order 39 9 10 19 23 7 41 38 32 5 4 2 3 14 36 16 20 17 25 28 24 31 6 29 26 21 18 1 22 45 13 11 43 40 34 8 12 35 30 37 44 33 27 15 42
c order 25 30 45 18 41 43 29 31 33 21 42 9 1 28 8 44 10 11 22 7 14 39 17 6 3 16 5 40 19 4 2 23 32 37 38 34 13 27 20 36 24 26 35 12 15
c order 21 19 10 1 42 9 38 33 30 35 26 44 13 7 29 6 24 4 32 18 34 40 36 8 2 31 28 12 11 20 3 17 23 22 16 27 45 43 37 15 39 41 5 14 25
c order 27 6 20 35 8 15 4 11 31 1 36 2 22 12 10 37 28 43 3 39 33 44 38 7 21 42 23 34 13 18 25 32 17 26 16 40 19 30 24 14 9 5 41 29 45
c order 11 18 9 10 38 32 43 5 27 35 34 29 26 24 45 40 6 2 37 42 36 44 30 4 19 28 41 13 7 23 8 25 31 20 16 14 39 17 21 22 3 33 1 15 12
c order 24 22 33 3 37 6 38 14 20 23 4 27 35 15 44 7 36 5 8 13 25 26 41 21 10 32 43 29 19 18 11 9 17 12 31 39 40 30 34 16 28 1 2 45 42
c order 43 21 40 13 23 35 10 19 16 22 30 2 34 8 17 15 20 39 18 36 45 29 9 11 44 38 1 7 24 3 14 12 42 37 41 6 27 26 31 33 5 28 32 25 4
c order 14 37 17 25 15 16 5 43 4 3 23 31 34 24 1 19 21 6 42 28 7 38 39 12 22 10 18 29 45 35 40 36 44 9 20 27 8 41 30 33 13 2 32 26 11
p cnf 45 432
8 -18 -36 6 0
5 -4 36 43 0
26 10 -36 6 0
-33 21 -35 -9 0
-34 -21 -30 -12 0
6 5 1 -33 0
-15 -14 -34 2 0
-26 -13 -14 40 0
15 -12 18 -39 0
-45 23 -4 -31 0
-16 13 8 -24 0
44 -15 21 -45 0
26 -39 29 18 0
-45 35 -8 -24 0
23 -38 -24 -8 0
35 -8 -12 -6 0
45 -12 -16 -25 0
7 -23 12 36 0
25 -12 38 41 0
37 2 4 -31 0
10 -41 20 1 0
-34 13 -25 32 0
-16 -45 -28 9 0
-32 30 -4 -23 0
19 29 9 -10 0
-33 -8 15 -29 0
-39 -9 -20 40 0
-27 -12 38 -3 0
-14 5 -17 -1 0
-8 26 5 -7 0
20 19 -6 2 0
-39 -1 43 14 0
40 8 -20 19 0
2 25 32 -11 0
-22 36 -32 24 0
-38 -26 -37 -25 0
-19 -38 45 -5 0
-30 31 -40 23 0
33 -30 2 -17 0
33 -30 -19 31 0
-2 5 12 16 0
-41 -11 -4 -43 0
7 3 37 28 0
-43 -18 -31 -41 0
-1 -43 -40 -17 0
12 -17 -14 -35 0
-36 10 11 43 0
1 39 3 -10 0
-7 -40 -18 43 0
-8 -45 -42 -33 0
-12 -6 40 -7 0
35 -11 -30 8 0
2 19 -26 37 0
-14 -29 4 -31 0
20 -17 -26 2 0
29 4 16 31 0
38 -30 34 15 0
-10 -30 -36 31 0
-42 -15 5 39 0
44 21 24 -41 0
33 30 -1 2 0
39 -21 27 32 0
41 -32 -36 -2 0
-21 -38 -31 6 0
21 37 38 -20 0
-41 32 5 -9 0
27 -34 36 16 0
-27 34 -32 7 0
-19 33 -24 22 0
-29 44 -11 -15 0
-24 -20 29 -8 0
37 41 -43 -30 0
-5 7 29 45 0
5 44 36 -34 0
-24 -41 -1 -15 0
-31 33 3 -15 0
-22 -26 -28 23 0
16 1 -2 27 0
-5 -4 13 -27 0
-14 -3 40 -27 0
16 15 20 6 0
29 -27 19 -14 0
44 -39 15 2 0
-24 -23 -41 26 0
-19 42 -34 -21 0
-29 -9 27 -39 0
-21 1 14 -2 0
3 -10 -38 17 0
-5 -16 36 -23 0
38 -33 -32 35 0
23 -25 5 -16 0
-6 33 -7 1 0
15 -25 -5 2 0
-4 33 35 20 0
-27 -18 -9 -40 0
-7 13 -6 -21 0
11 26 -4 -23 0
14 -40 -9 32 0
11 10 31 -19 0
29 -3 31 -13 0
44 -18 19 -4 0
16 -1 -38 31 0
33 -44 14 -38 0
36 43 -6 44 0
-40 14 31 -24 0
34 -22 32 30 0
-27 34 -29 -36 0
-39 -22 32 16 0
-31 15 -43 2 0
15 24 -13 30 0
26 -3 9 -30 0
10 -1 9 32 0
-9 24 -30 -21 0
12 38 27 -21 0
-36 26 -23 -5 0
13 -6 -7 36 0
-7 -1 11 -2 0
-15 9 36 -40 0
-9 -39 8 -6 0
41 2 8 -17 0
-39 -18 25 -28 0
-44 -4 37 36 0
-1 -11 -36 -40 0
30 29 -18 33 0
6 -16 14 30 0
26 19 -11 5 0
-28 17 -43 -27 0
-45 2 30 11 0
1 27 21 -44 0
-24 -29 3 7 0
21 -43 4 2 0
13 33 -6 -5 0
27 29 23 18 0
-16 -41 45 2 0
18 -28 1 12 0
24 44 25 3 0
-14 16 4 -40 0
21 28 -39 -31 0
-26 -20 21 37 0
12 -33 -20 27 0
36 -8 5 -39 0
-2 -39 14 -20 0
10 18 -45 -38 0
-35 27 -11 -8 0
28 -5 -27 -37 0
17 25 -33 28 0
-2 11 43 -27 0
29 -1 -21 -11 0
1 19 34 -29 0
23 -31 1 -17 0
-44 -2 7 -26 0
35 -26 -21 30 0
40 30 -45 -20 0
-38 12 -41 -33 0
-4 43 23 11 0
19 -21 -1 30 0
18 13 -12 19 0
-37 11 -13 22 0
-21 -7 22 12 0
-27 -41 32 8 0
22 -23 25 30 0
25 -18 -13 6 0
-37 -5 -6 -36 0
-14 -4 40 19 0
27 -6 -45 -24 0
-7 42 45 -2 0
-6 -8 28 11 0
-14 -9 -34 32 0
-35 -19 -22 -8 0
16 32 -43 -29 0
4 27 3 38 0
18 -24 -45 -11 0
-6 4 25 -42 0
20 7 19 -27 0
-20 -7 -18 5 0
35 41 -37 44 0
19 11 -22 5 0
-42 1 4 -27 0
-18 26 -29 -8 0
-31 -12 41 -27 0
-12 -27 -2 14 0
29 -28 36 27 0
-26 -38 36 -7 0
5 34 -27 -23 0
-18 25 -1 -21 0
5 -16 42 -2 0
35 -22 -8 -21 0
43 -38 26 -45 0
-11 25 43 28 0
5 37 15 16 0
20 21 -16 -2 0
-3 2 38 -16 0
18 -16 -12 -23 0
13 3 -6 22 0
-27 7 9 40 0
28 -11 -21 -8 0
2 16 21 -44 0
44 24 -18 -13 0
27 -32 17 23 0
-30 21 43 -23 0
33 -41 -26 -2 0
-9 42 -3 -32 0
16 -22 -29 28 0
-34 40 2 -17 0
-28 -39 -20 6 0
39 -42 31 -28 0
-32 44 -41 19 0
30 -16 -38 -8 0
-5 -15 -32 10 0
20 30 9 14 0
19 -32 -14 20 0
-25 -31 -7 40 0
40 11 -37 31 0
-35 42 -25 3 0
-15 38 -42 7 0
16 40 -10 36 0
-23 -24 -17 4 0
37 -36 -24 45 0
-15 -1 11 -32 0
26 28 10 -37 0
-31 -5 1 -13 0
32 -41 39 43 0
-6 -23 -32 -44 0
-27 14 16 -17 0
-30 39 -18 35 0
-15 -21 -30 -42 0
12 -23 -8 -3 0
19 25 -39 -45 0
10 -20 -44 12 0
-39 -37 41 21 0
-12 -11 -33 -9 0
13 39 40 3 0
-13 33 16 17 0
-3 -11 -5 -35 0
9 -1 -26 -14 0
36 23 13 -28 0
-29 -28 -39 37 0
-28 14 7 5 0
31 -41 -44 14 0
18 -31 16 21 0
-6 29 -17 9 0
16 -8 -19 15 0
-19 8 20 17 0
-17 31 19 43 0
31 8 -12 -14 0
-6 -13 44 7 0
-40 9 27 35 0
-31 -41 25 -11 0
-10 39 34 -6 0
-13 30 -18 38 0
-19 42 8 12 0
44 22 -2 -19 0
-12 -8 -45 -13 0
-30 -2 4 23 0
20 -22 15 8 0
-23 -29 7 -21 0
-7 2 41 11 0
-37 -24 -13 -43 0
-41 35 -11 -40 0
-23 -29 4 40 0
13 17 3 -39 0
-44 26 1 -39 0
-1 -15 42 30 0
-30 -8 -14 -41 0
16 20 1 -8 0
22 27 -30 45 0
-44 -40 -33 -7 0
-34 45 -21 -24 0
-39 -2 -31 33 0
-37 40 -15 -11 0
5 38 -7 -21 0
7 24 12 -23 0
16 8 -13 -7 0
-8 30 35 -28 0
-18 3 45 17 0
-39 11 -17 4 0
-7 24 30 23 0
-34 -12 35 7 0
25 -41 -9 -28 0
-43 -6 19 42 0
-41 22 -1 40 0
42 -12 22 -2 0
-7 -20 -10 6 0
19 -31 -29 2 0
11 32 31 38 0
1 -39 24 -22 0
28 -4 -38 33 0
-27 -16 -23 7 0
7 -17 -36 15 0
30 8 -43 -37 0
37 -44 35 17 0
24 -30 -21 -27 0
8 7 -11 10 0
4 36 -45 24 0
1 42 -2 -37 0
-21 11 -9 43 0
16 -40 35 -17 0
-29 24 26 38 0
-20 -29 -22 -2 0
28 -36 -8 -17 0
40 31 -2 20 0
2 -22 25 19 0
35 -39 -25 32 0
-43 -2 -26 24 0
14 11 -6 9 0
-9 21 41 -13 0
-39 25 -30 -1 0
-43 -26 35 -25 0
-31 15 35 -20 0
25 -17 34 -28 0
-36 -10 38 -1 0
40 27 7 -6 0
-3 -19 -5 45 0
-16 39 -14 -21 0
-15 -30 22 42 0
2 -9 7 -31 0
-16 20 -34 -18 0
-29 -43 -37 32 0
-30 -4 -42 13 0
14 -40 25 21 0
29 -13 -28 39 0
-36 3 -8 14 0
44 -45 -34 20 0
-12 30 36 -6 0
-17 43 -40 31 0
-20 -31 -41 -3 0
41 36 -29 -2 0
11 5 27 3 0
30 -39 11 -12 0
29 43 -27 -24 0
-42 24 -23 -6 0
7 10 -12 37 0
8 17 40 -34 0
-6 13 7 21 0
7 -22 19 13 0
7 16 25 30 0
43 5 -20 21 0
22 -9 24 -29 0
36 32 17 4 0
-22 19 -41 -28 0
18 -4 -10 35 0
10 -23 29 -2 0
21 -1 -7 -29 0
-31 45 -17 -19 0
39 -4 23 -1 0
-37 -32 -22 -11 0
-34 -45 31 -18 0
-14 3 -24 5 0
-31 42 -45 -20 0
17 30 -38 22 0
-11 -27 -42 -44 0
34 44 29 -16 0
27 -24 -38 4 0
20 17 -18 -14 0
11 22 4 39 0
-36 -17 -19 -1 0
-8 -21 18 -41 0
15 -28 -42 -10 0
36 -6 -17 10 0
1 -12 16 -15 0
43 -25 5 10 0
-35 14 29 11 0
-5 -6 37 -20 0
35 31 39 -16 0
-12 33 43 -44 0
40 -9 -19 -34 0
12 -20 -6 -11 0
-44 13 29 31 0
44 32 -38 -34 0
-22 4 43 -7 0
29 -21 -15 41 0
-37 -41 -20 14 0
9 -34 -7 -23 0
-19 36 24 -4 0
38 -15 -27 -42 0
26 -18 -28 -42 0
-45 37 29 20 0
-45 -33 -6 -12 0
36 16 3 37 0
-22 1 -11 -30 0
-28 -12 8 -32 0
17 -36 16 -24 0
39 -30 20 6 0
19 -37 11 -24 0
32 -2 37 -21 0
26 10 22 44 0
44 39 -31 25 0
32 -20 33 41 0
-9 -15 17 -10 0
7 -45 -30 -41 0
33 38 40 17 0
-1 -34 -37 -23 0
44 -23 41 -16 0
44 37 9 -33 0
-14 -21 -26 -12 0
-32 14 -29 -24 0
-22 -23 -35 39 0
11 44 -40 26 0
-44 -1 -35 -7 0
35 -19 -23 -4 0
16 -26 -18 -24 0
-8 25 -5 35 0
-26 -4 9 39 0
1 -4 -28 -16 0
-39 -33 -12 24 0
-37 -1 28 -10 0
-23 24 22 44 0
4 -22 14 -21 0
-34 -5 -18 4 0
-2 26 17 36 0
-8 -34 30 -7 0
-27 -6 37 42 0
23 -33 -12 -28 0
-8 -10 -33 -38 0
31 4 15 28 0
-32 42 14 -39 0
-45 39 34 31 0
22 -30 -4 11 0
43 -15 2 -11 0
40 33 -22 -41 0
-7 31 -23 2 0
-31 -13 -45 -44 0
-43 27 -1 -4 0
38 8 41 -39 0
-7 42 -37 -43 0
-16 -8 29 30 0
-3 -2 -5 8 0
10 -23 -30 2 0
-4 1 -5 20 0
-4 27 -28 -2 0
34 25 -21 39 0
25 -5 35 33 0
