c family=4-SAT n=50 instance=4 seed=726001144 models=26
c order 49 44 24 12 14 36 35 22 42 4 45 11 46 19 16 17 48 8 31 5 13 7 41 29 23 1 30 33 21 3 20 6 26 40 39 43 34 37 18 38 32 27 28 2 47 10 50 25 15 9
c order 45 39 11 14 23 49 28 35 7 12 15 25 9 17 27 43 50 36 44 5 32 37 31 19 22 30 26 3 47 16 42 10 29 1 24 13 21 18 38 46 20 40 2 34 6 48 4 41 8 33
c order 37 34 19 43 26 47 38 35 23 33 11 5 32 18 30 4 1 36 14 9 44 10 39 25 27 50 20 8 49 22 12 24 17 28 2 48 3 40 15 42 46 29 45 31 21 41 16 7 13 6
c order 41 27 38 30 19 13 5 25 50 2 18 17 21 23 15 22 40 3 12 44 33 37 4 26 28 29 48 35 45 11 20 43 10 47 36 32 34 42 7 39 16 49 8 14 9 46 6 31 1 24
c order 21 7 1 39 32 14 41 38 27 17 35 33 5 44 3 36 25 18 6 40 4 26 48 49 23 9 50 11 47 28 42 30 29 15 19 24 2 43 31 10 46 20 16 8 37 34 22 45 12 13
c order 33 5 50 45 1 24 36 13 40 20 32 4 27 38 8 28 11 17 34 48 22 18 12 23 42 15 43 49 35 37 3 31 44 47 25 30 39 46 41 10 2 26 29 21 6 16 9 7 19 14
c order 46 10 29 28 30 12 43 38 37 31 42 26 14 49 50 9 4 1 32 21 40 36 44 45 7 19 23 47 22 24 35 20 13 41 6 2 25 48 3 5 34 15 33 8 18 27 39 11 17 16
c order 11 17 14 5 27 35 38 28 18 12 8 41 39 29 20 45 19 30 26 43 48 47 13 37 36 40 42 1 46 7 15 16 23 6 34 9 49 10 25 21 2 33 31 50 4 32 3 22 24 44
c order 32 22 9 40 20 11 43 2 42 37 10 17 29 12 50 25 18 3 7 44 33 27 8 15 1 35 30 45 6 48 19 14 49 41 23 31 46 39 38 24 13 21 5 36 26 28 4 34 47 16
c order 48 47 33 5 46 8 25 50 3 14 23 16 40 21 17 7 49 37 35 26 30 38 20 39 29 34 12 10 31 41 19 1 18 11 43 22 32 27 6 15 24 44 42 13 2 28 36 45 4 9
p cnf 50 480
12 20 -45 11 0
-19 48 -22 14 0
46 48 34 -38 0
23 -1 -12 -32 0
21 -39 19 -16 0
23 -46 49 17 0
-25 -28 15 -35 0
-29 14 -19 8 0
46 -16 33 -21 0
9 50 -6 19 0
18 -2 -10 13 0
21 20 -15 -29 0
45 25 -27 17 0
32 -45 22 -4 0
-46 16 -43 -10 0
-6 -2 -47 -45 0
-27 -40 -5 23 0
-3 14 -37 5 0
4 -41 -45 8 0
31 13 -21 14 0
-15 13 -23 -25 0
-49 28 -18 22 0
-12 36 21 -14 0
14 40 -31 5 0
-5 43 -35 -17 0
-38 -19 28 39 0
-27 42 41 11 0
30 17 28 2 0
22 -9 -46 4 0
5 32 -36 42 0
25 -6 -29 48 0
-46 -23 26 -5 0
-42 -35 -38 -32 0
16 22 -39 -3 0
27 15 19 47 0
-46 47 2 -4 0
-30 31 -32 -47 0
-31 -24 -27 19 0
-40 29 -44 -31 0
-5 -38 -17 -25 0
-37 -6 4 -50 0
41 -13 39 -12 0
-48 -42 4 -40 0
17 7 11 -1 0
8 -48 37 45 0
-17 -45 -30 -22 0
-42 45 -9 10 0
3 -22 26 31 0
13 -38 -12 -10 0
-30 -12 -5 20 0
49 21 2 -8 0
30 33 -18 32 0
46 10 -16 -13 0
-8 -45 -46 -21 0
-4 -35 36 32 0
-16 -3 -36 -35 0
-17 -43 33 24 0
24 -28 -39 36 0
11 43 -35 -5 0
44 36 -2 -27 0
-46 11 -35 38 0
31 -3 14 -23 0
-31 -13 -24 -14 0
1 35 -5 -22 0
-49 -4 5 35 0
10 -41 -5 30 0
-13 -31 48 22 0
-21 47 41 -34 0
-46 17 15 6 0
-39 43 27 5 0
-30 39 -47 43 0
32 13 44 37 0
-5 4 -2 28 0
-13 -16 -22 -1 0
-33 -9 42 -47 0
-42 -28 22 36 0
-23 31 -47 2 0
-17 8 47 44 0
48 44 15 -42 0
-46 -44 19 34 0
-30 -15 -28 -2 0
29 -31 -12 -48 0
9 38 -3 -13 0
-19 22 -15 4 0
32 -10 35 46 0
-38 -7 17 23 0
-23 -10 -19 24 0
1 14 2 -44 0
-43 -25 -11 -42 0
20 17 -22 23 0
-24 -32 -34 -33 0
-7 -8 -28 -33 0
18 13 11 47 0
-14 -41 15 -4 0
-12 45 3 16 0
-18 -30 40 -22 0
-2 9 -50 31 0
-32 3 2 45 0
-30 31 4 -33 0
31 6 -19 5 0
39 -45 14 34 0
45 3 29 -12 0
32 19 -5 -27 0
40 4 -50 21 0
-17 -27 -5 45 0
-13 9 -42 4 0
6 15 44 -34 0
19 20 -40 7 0
34 -48 16 -26 0
-49 40 -45 -48 0
26 16 17 -6 0
29 -2 24 39 0
-8 9 48 -19 0
-29 -8 -30 -5 0
-1 20 -19 -3 0
23 26 -41 42 0
-11 -36 21 35 0
-19 11 16 -2 0
44 -26 -29 30 0
27 -13 39 4 0
8 11 18 25 0
-4 42 50 -11 0
9 -34 44 48 0
-49 -18 -38 -46 0
6 28 -38 -31 0
-13 45 -39 17 0
3 18 -36 -7 0
-37 -42 7 -17 0
-48 19 -3 33 0
14 -4 -40 -5 0
32 -45 -43 49 0
25 20 7 -32 0
-36 6 -33 48 0
-10 3 26 18 0
-23 8 -4 50 0
49 3 -4 35 0
27 -35 6 -50 0
-39 48 2 -49 0
-48 34 42 14 0
1 -40 7 -30 0
8 -2 40 -15 0
-21 -2 46 -6 0
-15 45 41 8 0
-36 31 39 11 0
-7 -11 -44 -5 0
-9 -42 -33 -10 0
-21 -18 13 -47 0
4 -6 -29 -21 0
40 15 -44 2 0
30 -35 22 -21 0
-38 -39 2 32 0
-11 -21 7 30 0
-11 30 -39 -25 0
-12 -37 22 16 0
-45 28 -2 -16 0
9 10 -11 -39 0
-37 -15 -13 48 0
-21 -41 -37 27 0
-46 2 26 -24 0
-30 19 15 -16 0
-21 49 36 -47 0
40 19 22 47 0
16 45 18 39 0
12 45 36 29 0
22 -17 -30 41 0
47 19 -29 15 0
-18 12 -31 4 0
-23 4 13 18 0
-28 -10 -43 22 0
13 12 48 44 0
-34 45 32 -4 0
-31 44 -24 -22 0
47 -30 -19 -37 0
-4 6 -38 31 0
46 42 47 37 0
-33 -19 -17 46 0
-48 17 9 -29 0
-29 39 -30 -47 0
-36 27 -19 32 0
-34 -31 20 41 0
25 -7 -39 34 0
-41 -37 50 9 0
39 37 -14 8 0
25 41 6 -38 0
-10 -47 24 19 0
-43 -48 -10 -6 0
27 43 -16 -23 0
-3 19 29 -44 0
35 24 -25 -26 0
-8 -50 -32 -9 0
-44 -41 14 -8 0
-7 50 -32 -12 0
-33 -25 -10 -13 0
-31 -27 -4 46 0
8 -49 -38 -45 0
35 17 -47 23 0
-38 -39 7 -33 0
2 -12 32 -28 0
-31 16 -49 -42 0
-24 30 50 21 0
-5 -49 -39 30 0
-32 15 -16 -50 0
-22 -49 46 -16 0
25 24 19 31 0
45 -43 -48 -46 0
17 -40 -10 42 0
-28 -25 -9 50 0
-1 30 -3 -41 0
-1 -9 27 12 0
13 -27 -21 -48 0
49 23 -22 -1 0
8 35 -47 37 0
1 38 4 -25 0
-29 -42 4 -49 0
2 -48 28 39 0
-32 16 40 -21 0
3 22 4 -38 0
50 35 -29 4 0
-13 -11 -12 41 0
18 -1 -22 -33 0
-5 32 34 11 0
27 32 -10 3 0
-18 13 47 50 0
-46 -41 6 -5 0
-2 -37 34 14 0
-9 -46 -47 49 0
39 -44 -23 -27 0
-30 37 -21 14 0
9 -22 -20 12 0
-31 -25 15 -39 0
-34 39 7 26 0
-8 7 13 -9 0
-45 5 47 -34 0
-3 20 -33 -18 0
-42 -33 48 22 0
-2 47 22 9 0
-29 17 -12 40 0
42 41 -37 18 0
22 -50 33 12 0
-1 20 -25 -49 0
-35 46 -39 -13 0
-3 -9 27 -34 0
-35 -49 -41 -5 0
39 -50 -34 6 0
-45 24 33 -31 0
-11 -46 36 37 0
36 -17 -31 3 0
26 -13 -11 -38 0
19 -13 28 -27 0
-16 34 43 -26 0
-32 21 40 -45 0
12 -33 44 -46 0
-26 21 23 36 0
10 -33 -14 -47 0
-2 10 -13 -4 0
-6 3 21 -17 0
-23 41 8 14 0
-4 -42 37 21 0
-39 -47 14 45 0
21 -7 -28 24 0
6 5 -30 -40 0
37 -46 20 -16 0
32 -33 45 -13 0
41 -4 16 -5 0
11 37 -43 -20 0
23 -2 -12 -9 0
27 20 15 -38 0
-18 -3 -34 38 0
-34 6 43 -25 0
-22 -11 48 4 0
-9 -45 -18 -25 0
42 -25 -15 40 0
-4 -34 39 32 0
2 -44 -30 -7 0
46 24 5 42 0
43 10 49 -28 0
-20 -35 -12 21 0
18 46 -43 -14 0
34 42 -2 13 0
-33 29 -40 -17 0
-45 19 -49 5 0
-15 -41 -27 -5 0
42 43 -10 -1 0
20 48 -34 -13 0
19 24 14 -15 0
23 32 -48 -25 0
50 20 34 45 0
16 43 -32 -24 0
8 34 -11 -2 0
-26 -15 -12 5 0
-23 21 20 12 0
10 -50 -12 -48 0
-5 -29 -8 3 0
45 27 -38 1 0
13 17 -42 38 0
30 -22 -21 -40 0
-22 -39 7 29 0
-35 12 29 39 0
26 -13 3 34 0
-35 42 39 -17 0
32 -17 -49 -36 0
-15 -17 30 47 0
-31 -40 37 -28 0
17 -47 23 27 0
-38 16 -50 -29 0
-46 -5 -45 36 0
40 -21 -34 -32 0
46 20 -26 49 0
-31 -15 23 14 0
21 17 -34 -15 0
28 -25 -17 20 0
29 50 11 -6 0
37 -5 -8 -10 0
-32 43 -30 -7 0
3 -34 31 -5 0
-25 -1 3 46 0
-31 32 -1 6 0
-26 50 -23 33 0
-14 -41 6 -42 0
5 25 18 4 0
-46 -31 -40 -44 0
-45 28 29 -12 0
-32 -31 13 -24 0
10 -12 -33 -27 0
32 -25 -50 17 0
-41 4 43 -28 0
29 -46 5 15 0
-10 -15 -50 -14 0
-32 6 15 34 0
3 22 -46 -36 0
43 -10 -19 35 0
-23 -11 24 -31 0
-18 -27 -38 9 0
12 46 -25 38 0
-4 27 18 9 0
46 28 -50 31 0
16 -20 -31 26 0
2 -48 -31 34 0
-36 -4 -18 -14 0
16 24 -26 -17 0
-36 47 -22 26 0
9 -5 27 2 0
38 -27 45 -36 0
11 -32 -15 -41 0
-24 -16 1 -42 0
12 -21 1 30 0
-6 43 28 -25 0
-30 44 13 3 0
-15 5 42 -31 0
2 -10 31 -1 0
26 -36 -28 7 0
32 17 -13 -5 0
16 -15 -11 -40 0
36 35 28 42 0
-8 -17 -4 -31 0
-6 -37 -32 -13 0
47 -38 44 -3 0
-47 43 -19 13 0
47 44 -16 7 0
27 33 -45 19 0
22 20 -8 4 0
45 -39 -13 40 0
-42 -49 25 -22 0
12 -50 42 20 0
-38 -21 34 -6 0
23 -49 -39 -36 0
-39 36 11 30 0
40 -30 15 -16 0
26 -8 22 29 0
-46 -12 -42 39 0
41 6 -48 -10 0
-29 28 -27 -23 0
5 -24 40 -13 0
7 13 -48 2 0
-28 -3 -29 -42 0
-1 12 -25 -13 0
-15 12 -31 16 0
49 -28 21 11 0
-26 10 -8 -50 0
-37 36 11 45 0
-45 6 2 -37 0
11 36 27 9 0
44 -9 -20 49 0
-1 41 -23 22 0
4 10 41 -42 0
-32 -22 25 -35 0
38 -39 -16 -26 0
-42 28 5 -26 0
19 44 27 -31 0
46 19 -12 6 0
-31 44 36 32 0
-14 23 34 -33 0
23 37 -11 50 0
48 33 -9 -5 0
-38 16 34 44 0
-45 -20 13 -5 0
-11 -34 -44 -32 0
-3 48 -25 36 0
40 -38 20 -33 0
48 30 -43 -44 0
19 20 -12 -39 0
10 -1 9 -20 0
-42 -21 6 39 0
33 -15 45 42 0
8 30 -5 -11 0
14 46 -15 30 0
34 19 24 50 0
20 38 46 33 0
-12 42 17 -27 0
-46 10 18 -22 0
-27 6 40 -3 0
-25 -26 44 16 0
41 14 9 -19 0
11 -10 -24 19 0
9 -33 21 -2 0
-7 -22 38 44 0
49 7 -2 46 0
-36 39 -7 47 0
46 31 -23 13 0
-27 -6 -18 8 0
46 24 35 49 0
29 24 -47 13 0
-26 46 -34 27 0
-50 -48 -7 -5 0
41 18 50 47 0
45 38 1 24 0
7 -14 -2 -39 0
45 9 46 -1 0
14 -23 -42 50 0
-14 16 26 18 0
-24 43 20 49 0
-5 2 27 -48 0
-9 -44 12 18 0
40 -19 -46 -7 0
8 -6 18 39 0
-7 40 -14 34 0
44 39 10 -3 0
46 12 -20 7 0
-10 -43 26 12 0
-25 -47 18 -15 0
-46 40 15 7 0
14 6 -39 -45 0
35 37 -45 21 0
-14 -49 -29 39 0
-41 37 -2 25 0
-4 -5 -15 -16 0
42 -37 45 -24 0
-10 -23 -19 46 0
7 -36 -15 -12 0
-16 -3 37 23 0
29 -9 -3 -34 0
-6 10 37 38 0
22 -12 -34 -33 0
29 -20 40 47 0
-18 -17 27 -44 0
-5 9 48 -19 0
-3 -19 42 -22 0
16 -49 -10 -17 0
42 24 -6 32 0
15 22 -40 50 0
-7 41 -25 -12 0
2 20 10 40 0
39 10 19 20 0
-32 42 -50 -33 0
-37 24 -18 -40 0
-50 28 -31 18 0
-8 40 45 -9 0
-34 20 -12 47 0
44 -5 -48 -26 0
-41 1 -17 16 0
-43 -37 -50 -48 0
-46 7 33 38 0
-7 27 17 22 0
-19 30 26 -40 0
25 13 -43 35 0
42 41 35 27 0
27 -1 17 20 0
-49 -22 3 -41 0
29 -12 13 -25 0
-50 30 42 28 0
