c family=4-SAT n=50 instance=7 seed=726001144 models=32
c order 42 1 43 21 34 18 22 35 15 5 36 28 41 8 26 33 16 19 17 44 24 37 10 12 49 7 38 11 25 4 13 29 6 46 3 14 9 45 23 40 27 32 30 20 39 31 48 50 47 2
c order 31 32 24 27 48 13 26 16 49 12 23 40 35 20 30 33 50 9 6 4 2 44 10 17 22 11 18 37 38 7 15 34 3 28 8 29 45 36 1 25 19 42 21 47 39 46 41 5 14 43
c order 7 11 22 45 23 36 27 44 34 8 28 19 39 16 48 25 9 30 15 49 2 20 3 26 6 50 4 46 12 10 29 14 31 17 18 47 32 21 42 38 1 24 5 43 35 40 33 13 37 41
c order 32 37 28 11 29 40 25 33 45 2 16 18 35 13 4 15 12 21 41 46 8 24 50 30 47 9 44 17 7 48 26 31 20 36 43 6 34 38 27 1 3 14 19 42 49 22 10 5 39 23
c order 3 22 24 43 45 49 39 17 42 23 8 26 6 37 29 9 32 38 25 33 36 1 27 2 18 34 4 14 47 7 12 44 46 11 31 19 41 40 28 20 10 21 48 30 35 13 15 16 5 50
c order 26 35 47 1 19 4 41 25 37 45 17 43 12 36 3 44 40 23 27 28 22 32 24 50 49 48 21 5 34 8 30 42 9 18 20 46 7 6 16 39 38 11 15 10 33 14 13 31 2 29
c order 37 24 34 21 49 33 19 43 16 40 30 23 10 27 3 14 46 36 47 17 50 29 11 39 1 28 8 13 35 38 5 4 18 9 44 48 31 6 42 7 20 2 25 15 22 32 41 12 26 45
c order 27 22 11 34 35 10 16 41 48 13 28 20 43 39 46 12 5 26 23 42 25 38 31 45 29 47 36 14 9 7 6 3 4 15 50 17 30 32 44 21 33 40 18 37 8 1 24 19 2 49
c order 10 9 16 30 21 33 19 25 45 40 31 8 1 4 41 15 13 11 32 47 34 2 28 38 39 3 12 22 49 44 35 37 17 24 48 46 20 7 27 26 18 29 42 43 36 50 5 23 14 6
c order 43 14 33 20 29 1 24 45 10 4 44 16 50 9 22 32 15 11 42 23 37 46 27 6 49 18 40 38 2 12 13 5 21 47 36 35 28 17 41 48 25 19 26 31 34 30 8 3 39 7
p cnf 50 480
49 -9 48 -17 0
-3 -10 -39 -33 0
-30 29 -5 24 0
-10 16 38 45 0
44 -35 -32 -26 0
-32 8 -47 29 0
-20 25 -46 15 0
6 -33 30 31 0
31 44 -30 12 0
-11 -12 48 15 0
32 -44 4 -11 0
12 34 15 -24 0
4 -47 -33 -13 0
40 49 -35 -33 0
-6 -50 35 4 0
48 10 -27 14 0
30 -17 -27 -22 0
-29 -42 32 19 0
-2 24 -46 21 0
-1 -25 7 -48 0
33 12 13 -22 0
12 -5 -6 -38 0
-10 -21 -18 -44 0
-9 18 -37 50 0
24 -3 -27 -5 0
-22 -1 21 -17 0
-29 43 31 -39 0
49 -34 -23 -39 0
19 44 -32 -25 0
29 -42 8 5 0
48 25 -1 -31 0
24 -3 -50 45 0
31 46 22 -29 0
-1 -43 -24 -31 0
-37 -47 -10 39 0
48 19 15 -46 0
-12 14 13 4 0
-47 49 18 9 0
-35 28 7 -18 0
7 -9 -22 -6 0
-13 29 38 12 0
26 14 30 31 0
-19 34 9 24 0
-8 -20 38 39 0
33 -20 36 -41 0
-25 31 11 38 0
-28 16 -17 -10 0
15 -18 -31 -30 0
-50 -31 13 -33 0
-31 -5 10 -4 0
-17 22 -47 -25 0
-22 -38 -45 40 0
5 -25 38 35 0
35 -49 27 -29 0
29 -30 2 32 0
-32 -13 49 -24 0
-9 40 -33 -13 0
-43 -44 -31 13 0
27 -35 26 19 0
46 43 49 -35 0
-10 4 -9 11 0
-41 -35 23 -19 0
19 -33 38 -11 0
8 7 -30 16 0
-34 -25 20 7 0
10 -28 16 -27 0
26 38 -17 40 0
-43 18 -11 6 0
3 -29 -2 11 0
-29 22 28 30 0
-10 -22 6 4 0
12 -5 -24 -48 0
-3 -14 -19 30 0
46 5 43 -9 0
46 3 -31 -34 0
-39 48 30 -40 0
-43 -24 -34 1 0
27 18 34 -14 0
-40 36 -33 -3 0
34 -38 48 -8 0
22 -24 45 -46 0
-6 -2 40 -27 0
-28 40 9 -45 0
45 -47 -38 23 0
28 -9 -18 45 0
-41 -20 -33 -34 0
-37 -42 22 -4 0
36 8 -19 20 0
-44 29 19 30 0
3 -16 35 6 0
-49 42 31 -23 0
15 50 10 29 0
22 9 -35 40 0
-15 -8 -10 -39 0
-33 -50 -10 -4 0
18 -41 -46 33 0
4 44 15 -26 0
38 16 22 24 0
-5 -26 -46 34 0
-5 -14 38 36 0
5 49 -33 30 0
-15 -2 -25 -22 0
20 -16 -2 31 0
-48 36 -18 -31 0
46 -32 39 -23 0
-49 -42 -16 -8 0
-35 50 28 -45 0
-10 -46 -21 40 0
14 42 -45 9 0
19 28 -3 7 0
-8 39 19 -1 0
-7 2 24 47 0
35 12 -36 3 0
-7 -37 3 2 0
8 17 10 49 0
36 -8 42 39 0
-32 -19 -49 -18 0
-48 -12 7 49 0
40 -47 -5 -16 0
-45 13 -14 -37 0
41 -12 48 -32 0
17 35 3 38 0
-23 4 9 -1 0
25 -28 10 -8 0
-1 -22 -25 -17 0
45 -46 -4 42 0
-31 22 2 -40 0
-42 -41 49 -28 0
-37 -12 -42 44 0
-7 28 43 -22 0
-14 -48 -3 44 0
-42 15 -28 29 0
44 -14 18 -24 0
35 -22 -29 39 0
27 -9 37 44 0
26 37 46 -48 0
23 -14 -24 15 0
49 41 38 19 0
2 48 35 -44 0
-21 2 43 -25 0
-39 45 43 -50 0
28 31 -50 -6 0
34 -40 31 -6 0
-17 39 3 41 0
-29 -10 30 49 0
34 -36 -28 -13 0
27 3 44 -40 0
-45 2 -14 -5 0
8 49 -24 3 0
-37 32 5 -20 0
-33 47 -27 31 0
49 -30 40 -7 0
42 29 15 7 0
-35 -17 -44 -5 0
3 16 -41 -18 0
47 -23 17 -25 0
29 33 30 -37 0
-7 5 49 34 0
-36 -47 -14 34 0
-18 -20 34 -45 0
30 50 -12 -25 0
6 -38 21 34 0
-16 29 -15 -48 0
48 23 31 18 0
25 39 2 35 0
-29 14 20 -37 0
28 -47 40 18 0
20 -31 26 34 0
16 -12 -20 -22 0
-32 -8 -31 44 0
-29 -31 -8 48 0
-9 49 16 -20 0
36 1 -38 14 0
-15 44 -8 7 0
6 -40 50 -23 0
33 28 -10 -45 0
-35 -43 -23 15 0
-17 7 37 -23 0
-43 -38 17 -26 0
-14 -3 40 -27 0
-18 -16 -49 -12 0
1 43 37 27 0
2 27 13 47 0
22 21 49 3 0
28 -42 -35 27 0
-11 5 26 36 0
-40 -1 6 18 0
30 42 -1 -14 0
5 -13 28 -32 0
7 -17 -32 5 0
-20 12 22 4 0
46 19 -23 -26 0
23 -31 -11 17 0
-40 19 -34 -25 0
10 -32 -46 -3 0
-50 33 -10 -15 0
-50 -8 -34 -45 0
-13 39 33 16 0
39 23 16 18 0
-42 39 -1 -9 0
6 -49 5 37 0
9 -49 -10 -50 0
-18 -19 10 36 0
-48 40 1 38 0
38 35 -18 8 0
-24 13 21 34 0
-10 -30 16 -35 0
-20 -49 36 -48 0
29 -46 -13 24 0
-30 34 45 -4 0
46 -11 -9 39 0
-34 41 -5 -42 0
-9 20 30 8 0
-23 -24 4 26 0
40 -7 13 -2 0
-11 -4 -45 24 0
27 14 -42 -22 0
6 -40 26 -33 0
27 -9 -19 -28 0
-11 -41 39 47 0
-2 -37 49 -44 0
-11 33 5 -22 0
27 12 -32 33 0
-27 21 -29 32 0
15 27 45 35 0
-42 -30 11 -23 0
14 -15 -31 33 0
-11 -43 4 1 0
-12 23 35 3 0
-12 -49 -11 -44 0
25 -26 33 11 0
-14 -11 -28 43 0
-11 -3 -34 29 0
-18 23 8 20 0
-41 -3 47 -43 0
-34 15 38 16 0
43 -8 3 34 0
-40 -21 -34 -42 0
41 -35 31 46 0
-9 17 45 23 0
10 -39 -26 -48 0
-6 -9 10 8 0
35 -41 -16 45 0
1 31 46 -43 0
-32 34 -50 8 0
-33 -16 -21 10 0
35 -5 50 21 0
-32 -27 4 -43 0
49 -24 -27 16 0
47 5 25 4 0
-13 41 -43 -32 0
47 14 22 -18 0
45 -46 -15 -40 0
-11 -35 -29 33 0
4 35 49 39 0
-11 -47 17 8 0
37 -35 49 -11 0
-16 -4 -18 -1 0
-24 -49 1 -34 0
34 -35 25 -11 0
49 8 45 -27 0
48 -29 -16 -44 0
-31 24 22 -15 0
50 31 7 -41 0
33 29 -43 -15 0
16 22 -50 19 0
-45 -11 4 46 0
-34 -19 -21 9 0
15 35 31 -26 0
-15 45 20 4 0
44 -15 -17 4 0
19 -31 9 -2 0
43 26 40 -7 0
-17 -47 19 4 0
-22 -33 6 31 0
-44 33 -18 -26 0
-45 -33 -5 50 0
32 -42 24 9 0
1 24 -16 -33 0
30 -36 24 -45 0
-23 -3 -10 -29 0
43 45 9 -11 0
-4 -6 -37 -45 0
43 14 4 -1 0
29 -23 -5 -25 0
-23 -14 -42 -6 0
40 -19 -27 24 0
-3 -43 -13 5 0
-18 -34 -5 -21 0
30 -7 -23 25 0
-11 34 -4 19 0
-38 -3 -40 22 0
-28 -5 49 8 0
-47 -35 -34 -25 0
-12 -14 -34 -32 0
-32 -16 -14 5 0
-4 -29 17 10 0
-5 -49 -7 -35 0
-50 -11 -48 -25 0
-7 -20 24 1 0
11 43 -22 49 0
-50 -6 -2 -45 0
11 -19 9 -42 0
35 6 11 -46 0
-5 -1 -16 -42 0
-41 22 -3 21 0
23 32 -45 -42 0
-44 -11 -20 -8 0
30 11 26 -20 0
-24 -26 30 -14 0
-4 -12 1 27 0
-13 34 45 -37 0
10 -34 15 6 0
-22 -29 -8 -33 0
-11 36 -32 26 0
-20 21 -44 -22 0
-13 -22 -50 -45 0
-19 1 21 -3 0
8 -36 -47 20 0
-17 -47 -1 -28 0
11 -23 -8 -30 0
-15 2 -50 33 0
27 3 30 37 0
10 -28 -20 -22 0
42 33 -22 -47 0
18 29 17 -43 0
-24 30 -45 6 0
-18 -7 -6 -9 0
-12 -18 -33 -5 0
-16 45 -43 11 0
41 33 -44 -18 0
-21 -42 -47 -22 0
-40 39 46 -2 0
32 38 23 6 0
36 -44 -21 17 0
32 -34 43 21 0
44 -42 -10 37 0
-25 -47 -18 -45 0
46 -32 4 28 0
-6 19 43 7 0
-41 9 -50 8 0
-41 49 8 -2 0
13 -37 33 -21 0
-14 -48 -27 -13 0
26 -18 -44 -25 0
29 -32 20 -14 0
36 -20 -29 -2 0
-42 -38 -31 4 0
5 32 13 -6 0
45 -36 -33 -32 0
-49 -26 50 -24 0
4 42 -13 -46 0
-11 27 -39 -49 0
-43 -20 -37 -41 0
49 -25 -41 42 0
-20 -36 40 -2 0
-22 1 5 -30 0
-12 44 -11 23 0
50 36 -5 9 0
46 -47 2 -19 0
-47 16 24 28 0
-13 18 -1 -24 0
40 25 -10 16 0
-49 -6 -26 -44 0
8 28 9 27 0
-49 50 -42 -30 0
4 37 28 -15 0
-31 1 6 -17 0
42 10 12 -16 0
12 46 -4 -10 0
33 -15 -4 8 0
33 43 41 -6 0
8 33 3 -34 0
-9 40 29 6 0
50 7 -29 -24 0
27 40 -16 35 0
41 -17 5 11 0
48 -14 -25 -21 0
35 -45 48 17 0
-28 20 3 -30 0
-4 -33 -29 49 0
-12 -3 -46 -45 0
14 2 -39 -41 0
30 36 18 -5 0
-33 20 -16 -18 0
29 2 12 42 0
37 19 11 -47 0
23 -43 5 -30 0
31 -41 -37 -36 0
-38 -1 -22 9 0
5 -4 3 10 0
-33 -20 13 -47 0
-8 43 4 13 0
-18 -2 50 -5 0
-10 -48 35 -15 0
37 -14 26 -43 0
-16 -2 -14 4 0
-40 46 38 -34 0
-9 -24 39 17 0
35 -24 6 4 0
-19 -9 -35 43 0
-44 -50 -1 -31 0
45 12 16 34 0
43 17 -19 -41 0
10 -35 -6 49 0
-15 -38 41 -13 0
-4 50 -16 -45 0
-45 -47 -34 -41 0
-25 29 14 22 0
37 30 50 -2 0
-3 -10 -8 12 0
35 -26 -46 -34 0
-19 36 26 21 0
-47 -12 20 28 0
18 -49 46 48 0
-10 -21 39 -44 0
-12 5 -44 -26 0
44 -41 3 -8 0
20 -8 25 6 0
35 10 3 1 0
11 45 33 -15 0
3 -10 9 -45 0
-20 31 -40 18 0
-46 -18 -39 -22 0
-11 1 32 34 0
-25 -27 2 -14 0
-35 45 -12 -50 0
-30 50 -18 -28 0
36 50 43 -17 0
21 48 12 -35 0
45 -14 13 -43 0
-2 20 -42 43 0
49 -28 -25 -42 0
-26 31 39 -46 0
-31 25 -12 37 0
-19 21 43 -33 0
16 30 26 19 0
-3 8 40 -39 0
-7 -12 45 43 0
-24 45 -39 1 0
44 24 -9 -14 0
-12 -2 37 40 0
43 -34 -49 -18 0
12 26 31 1 0
33 -9 43 42 0
-34 -6 11 49 0
-45 -46 10 5 0
33 -30 12 29 0
18 -40 38 -2 0
-27 11 8 -50 0
47 -23 -31 34 0
18 27 43 34 0
40 11 -48 -22 0
-46 48 2 12 0
-38 16 20 -8 0
32 -45 -48 23 0
16 23 24 21 0
-50 46 -44 -39 0
-42 -36 -39 -16 0
-34 8 38 -6 0
30 -50 22 -9 0
37 -39 2 10 0
-30 -5 38 -1 0
15 -4 36 46 0
26 31 46 -40 0
38 -21 50 30 0
48 -30 40 -18 0
-24 -44 2 27 0
-17 -34 -22 50 0
31 15 42 43 0
8 13 -28 -30 0
-41 48 -6 -43 0
50 -12 44 41 0
-3 -12 -30 27 0
43 -36 -27 15 0
-39 -41 37 3 0
47 -44 48 36 0
-16 13 18 20 0
-22 -8 -24 -36 0
-35 -19 -33 50 0
