c family=4-SAT n=50 instance=2 seed=726001144 models=174
c order 48 14 50 28 44 7 33 49 18 23 12 22 39 10 11 42 13 29 17 8 9 2 37 1 24 21 30 5 32 15 26 25 45 34 41 27 47 6 35 20 16 31 46 4 19 3 38 40 43 36
c order 17 38 32 23 45 4 36 42 13 19 1 2 50 21 46 11 5 41 49 9 34 30 25 14 18 44 22 28 29 16 31 6 33 12 10 24 7 47 48 27 37 8 35 20 26 3 39 40 43 15
c order 48 42 5 41 8 25 9 11 10 16 19 4 28 36 12 23 7 13 3 44 30 2 1 43 15 6 49 17 45 46 40 27 39 37 35 22 20 32 31 33 24 26 21 38 14 29 50 34 18 47
c order 48 23 37 35 29 31 13 2 1 49 38 4 40 30 33 14 10 15 8 26 27 25 34 11 24 6 47 5 50 36 9 19 46 16 44 12 39 28 21 41 7 45 18 20 22 32 17 3 42 43
c order 16 33 32 21 36 50 47 1 19 42 43 44 8 31 25 41 13 11 20 28 30 3 10 46 40 27 17 37 7 2 6 22 45 4 38 14 26 39 15 9 12 23 48 49 34 18 24 29 5 35
c order 19 11 24 37 12 45 9 46 3 40 17 6 33 47 22 20 16 38 44 5 36 42 25 18 1 49 23 31 10 41 35 32 29 34 26 27 43 39 30 50 7 4 15 13 8 48 2 28 21 14
c order 24 36 45 7 48 33 27 40 10 39 47 26 50 8 22 6 42 2 43 12 14 11 1 34 5 16 4 30 17 46 15 41 37 20 13 28 49 23 3 38 9 31 32 44 29 18 35 21 25 19
c order 43 37 30 35 46 7 36 8 31 33 49 14 40 6 44 4 3 24 28 42 27 32 12 45 13 18 1 15 16 38 2 9 17 48 10 22 29 34 11 5 20 19 50 21 47 25 41 26 39 23
c order 35 24 25 5 6 17 22 23 16 13 36 10 46 3 14 7 8 1 39 33 11 37 26 27 29 42 48 12 18 20 32 28 34 19 15 4 50 40 43 31 45 49 47 41 21 38 2 30 44 9
c order 44 32 20 37 41 27 21 8 5 10 2 25 17 23 33 42 35 36 49 18 46 26 38 12 29 30 34 19 45 11 9 22 13 15 3 28 7 24 31 14 50 16 47 6 39 43 48 4 1 40
p cnf 50 480
-47 -48 36 31 0
-44 20 6 -41 0
32 14 -1 -13 0
40 -44 22 35 0
6 15 5 -48 0
-11 46 -32 -47 0
-37 42 -1 25 0
-43 -6 17 -47 0
-41 18 12 39 0
-17 -42 -48 9 0
-13 40 -32 -26 0
1 -49 34 -23 0
-1 50 47 43 0
33 -25 31 -35 0
-23 33 21 49 0
23 36 24 -46 0
14 -28 9 -12 0
22 10 9 -29 0
-24 16 49 5 0
37 -42 -18 -43 0
21 12 48 19 0
-46 23 44 10 0
-13 11 44 12 0
48 -28 31 17 0
40 24 -30 -42 0
-7 46 -50 35 0
25 -20 12 -4 0
22 -40 46 -14 0
42 49 -25 -50 0
-6 32 33 -19 0
-49 15 27 -19 0
45 34 47 33 0
-21 -22 -35 -14 0
36 -48 -17 20 0
-2 34 3 -50 0
50 -28 40 -2 0
-39 23 38 -18 0
27 32 23 15 0
-49 47 -10 -43 0
3 23 -15 2 0
-44 -36 26 -41 0
39 -27 -2 -7 0
27 -45 48 -4 0
13 -45 -43 -40 0
-11 42 -38 4 0
-13 5 -14 -16 0
-6 33 11 -16 0
-30 -26 -8 -6 0
-25 -9 18 -2 0
28 24 -17 -20 0
-33 13 3 -37 0
11 2 28 36 0
-49 47 -12 41 0
-2 -8 48 -26 0
-13 -9 27 28 0
-16 -26 23 9 0
48 46 -39 34 0
-47 -31 4 37 0
1 -22 -42 23 0
42 -31 -4 30 0
41 -40 -44 24 0
-33 8 13 -46 0
49 -30 21 19 0
33 48 45 -4 0
-50 -35 -15 14 0
-2 -5 -42 -25 0
-1 -22 -17 -9 0
33 10 17 32 0
39 -21 -25 -20 0
50 47 -43 34 0
2 38 -49 29 0
18 -42 29 -33 0
50 20 19 46 0
-14 35 -39 3 0
29 -5 13 19 0
36 -6 -21 -16 0
-24 35 -18 -47 0
1 -28 -32 45 0
-9 33 7 -15 0
33 -29 -23 42 0
30 -8 29 28 0
44 -38 27 47 0
32 41 37 44 0
-30 -8 -25 -40 0
-20 -36 -17 -12 0
3 -34 -28 17 0
26 -1 -8 39 0
-42 9 -40 13 0
-28 -19 -8 4 0
26 17 -28 35 0
11 26 41 33 0
50 49 -14 -7 0
-19 -17 47 40 0
6 41 -49 36 0
-19 13 23 -48 0
34 -30 40 29 0
-40 -6 -31 -33 0
38 15 37 -32 0
30 19 42 -41 0
13 -48 15 11 0
-5 28 8 -48 0
-13 -14 -42 39 0
27 -19 -12 48 0
47 27 -43 28 0
-16 33 1 2 0
-21 -38 10 31 0
6 -30 -12 -2 0
31 36 35 26 0
-47 -20 -27 -38 0
-19 28 39 35 0
-24 41 -25 18 0
2 -37 42 -10 0
-40 4 12 -37 0
17 32 41 42 0
2 7 -44 31 0
38 10 23 -22 0
-6 44 40 46 0
-28 39 -36 -4 0
41 45 12 6 0
2 -34 -36 35 0
10 -31 23 19 0
-1 16 -19 -39 0
-19 20 -6 -21 0
17 35 -15 -48 0
-17 7 -37 -32 0
-38 -43 -24 -15 0
-4 -48 -45 -36 0
48 38 -34 -21 0
-8 -1 -33 6 0
26 5 -8 -15 0
21 16 39 -3 0
-31 -46 -43 40 0
12 48 41 -42 0
24 -25 -9 41 0
-38 19 18 48 0
-14 -46 47 26 0
-32 -14 -16 10 0
10 -20 -40 -45 0
-37 29 21 -25 0
-39 -18 44 28 0
10 -21 8 -1 0
43 41 2 38 0
-16 12 10 36 0
50 -17 -10 37 0
-4 23 43 -8 0
20 -43 -33 47 0
27 31 14 24 0
-38 44 -21 -30 0
-29 -45 -3 -26 0
-6 9 -15 -40 0
-44 -38 -28 2 0
49 39 50 9 0
18 14 49 -19 0
-18 -29 31 11 0
28 -21 9 33 0
4 -34 23 27 0
47 24 -1 -10 0
12 8 5 -26 0
-38 45 -16 -19 0
24 35 42 -39 0
38 44 24 12 0
-4 -48 -32 37 0
-20 34 -38 -15 0
21 -22 45 -8 0
50 -20 -37 26 0
42 -8 -18 -50 0
28 36 -15 38 0
-46 -20 45 43 0
19 20 17 -7 0
-12 -17 29 -47 0
-36 17 -37 -16 0
-28 4 25 -26 0
-43 25 -23 36 0
5 -26 36 19 0
-47 -6 -27 23 0
30 -47 -35 44 0
14 37 18 -5 0
-15 24 13 33 0
-40 -48 37 1 0
-33 31 -49 -28 0
34 -4 -31 -5 0
49 -23 -16 25 0
-7 39 -34 50 0
-38 -3 -7 -21 0
5 -2 12 33 0
17 50 9 -18 0
-45 -35 -1 33 0
-49 39 -6 10 0
-41 21 24 -31 0
-37 16 1 5 0
-6 39 12 9 0
31 -14 25 48 0
-26 36 25 38 0
13 35 10 42 0
-18 -27 29 9 0
43 -5 -31 -32 0
-27 -6 47 -32 0
-43 24 13 44 0
8 -41 -48 11 0
21 -16 24 -13 0
45 18 -10 -7 0
-17 -22 49 33 0
-38 4 -23 -46 0
34 30 -38 -31 0
3 36 -26 43 0
-26 -28 -8 -33 0
28 -38 -22 49 0
-17 -9 39 -32 0
-41 50 40 -37 0
15 1 17 12 0
18 50 47 -20 0
50 7 -8 -45 0
50 -26 -20 -44 0
-42 13 21 -10 0
18 44 -37 -1 0
40 3 -34 45 0
39 -44 -6 33 0
-22 -13 -43 -18 0
-10 -29 -3 42 0
-22 -6 -44 38 0
21 -6 -46 -15 0
47 -46 -19 -35 0
24 26 -45 -6 0
-41 31 4 -34 0
-18 -16 -36 21 0
-15 39 18 14 0
41 -44 -35 -34 0
44 -36 49 6 0
-50 -14 -46 37 0
45 -30 -21 7 0
-46 -18 -37 -13 0
29 -17 -9 -37 0
-6 -48 -27 45 0
-49 -31 30 34 0
-18 24 28 -10 0
-31 34 47 -41 0
-26 47 23 33 0
39 8 3 -45 0
35 -32 28 22 0
50 18 -48 -17 0
-28 -50 9 43 0
4 -23 -18 33 0
44 -33 17 -26 0
40 17 -3 38 0
-1 2 -36 -20 0
2 -22 26 35 0
-30 -21 5 34 0
34 27 -6 9 0
37 14 -11 -28 0
-29 -11 -46 48 0
7 -12 -13 -16 0
44 41 -6 8 0
-35 21 -5 11 0
-24 25 -17 33 0
44 30 -23 -9 0
-28 -7 30 43 0
-42 -38 -10 -5 0
21 4 -43 -47 0
11 41 7 23 0
-21 -25 11 10 0
12 -3 -27 -13 0
46 -6 -44 -26 0
-26 47 27 36 0
-28 -39 43 33 0
-43 30 -37 -29 0
-9 47 24 -13 0
-10 35 -45 49 0
-43 17 34 40 0
-34 -50 20 -4 0
-44 -42 -5 30 0
-8 41 -19 30 0
-38 -19 5 -46 0
34 36 45 -48 0
-29 13 44 31 0
-50 9 6 -39 0
-22 -2 -8 -4 0
27 45 -25 2 0
-9 6 19 33 0
25 -24 -26 37 0
44 40 -6 1 0
-22 5 -34 10 0
-35 -25 29 -21 0
-35 23 22 40 0
34 -21 -9 22 0
24 44 12 -43 0
9 -29 -42 8 0
-9 23 -38 -12 0
-31 -4 21 -50 0
2 49 3 22 0
-33 43 27 41 0
11 40 37 -49 0
37 9 -27 -39 0
41 -39 7 -46 0
-18 21 -32 -23 0
37 20 -11 -18 0
-13 12 -46 -42 0
40 -31 37 3 0
27 17 19 -25 0
-13 24 -40 21 0
-34 -21 15 3 0
-38 -48 -35 -11 0
18 -21 20 6 0
-9 26 -35 -40 0
41 -1 33 -31 0
49 47 -9 -24 0
24 -44 50 29 0
18 19 47 38 0
37 -6 -29 -10 0
45 -19 36 -33 0
-48 -43 -2 -44 0
32 17 -34 20 0
-39 -49 5 2 0
37 10 -13 46 0
50 -8 -31 43 0
6 -9 -8 -31 0
9 16 -41 -7 0
48 -24 46 -25 0
6 -17 10 49 0
24 43 -33 -7 0
35 23 31 -37 0
33 45 -36 5 0
30 35 20 41 0
-11 -13 29 -10 0
23 -47 1 -9 0
-34 37 31 40 0
-45 4 14 -33 0
-45 -17 -7 -30 0
-45 -30 -5 -28 0
-26 -16 43 28 0
7 46 -27 29 0
-49 13 -33 -7 0
20 -18 4 -17 0
35 4 -36 -12 0
40 -8 -6 47 0
29 -19 -33 17 0
20 24 -21 -33 0
14 -31 18 -44 0
-18 -41 -13 -33 0
-32 -50 22 7 0
-4 25 20 -22 0
-9 -14 -20 39 0
-6 47 -19 3 0
43 -18 -26 -9 0
12 -26 -7 1 0
-10 -25 7 -40 0
39 -24 -3 -8 0
-25 -43 -5 -35 0
-35 13 14 49 0
-2 -33 21 -45 0
49 -20 -39 -25 0
29 -9 -15 -32 0
-23 46 24 15 0
6 44 -38 20 0
19 18 -42 24 0
38 16 -40 -1 0
-46 30 1 31 0
-16 -41 -17 -4 0
-17 -42 28 -35 0
41 -44 28 32 0
-24 -2 -48 9 0
22 -49 -4 5 0
-17 26 50 -7 0
-39 13 24 46 0
1 -21 -14 22 0
2 -24 11 40 0
-19 -48 -49 42 0
-49 -27 10 19 0
47 -3 14 4 0
-1 3 -41 -15 0
-29 -32 -40 24 0
24 -17 -7 14 0
8 -9 -26 -30 0
41 -42 31 -25 0
-8 20 -30 36 0
11 -5 -35 -21 0
-37 -29 -28 13 0
-3 -21 -39 36 0
-27 -15 -9 -44 0
44 10 -5 -25 0
-4 -21 32 -27 0
-21 -8 -47 -27 0
-47 38 3 -42 0
-39 -38 3 -30 0
46 18 19 -32 0
-47 -14 -43 33 0
-19 -9 -43 -23 0
43 -7 26 -25 0
-43 -23 -6 -15 0
17 16 10 3 0
37 -40 10 50 0
7 6 -38 -3 0
-29 -32 14 41 0
7 26 22 20 0
-11 39 33 17 0
-1 -50 -46 -31 0
47 50 41 8 0
-2 29 26 -32 0
-26 46 11 -3 0
-23 -36 47 13 0
20 11 27 13 0
-28 19 45 49 0
35 2 -16 -47 0
-42 -13 -18 -8 0
-15 -12 48 26 0
-24 -37 -43 -17 0
-30 7 -41 -16 0
17 3 29 -39 0
19 -20 4 40 0
39 -7 9 -12 0
-48 -10 -13 -2 0
43 -3 -17 47 0
-34 35 -12 -1 0
19 6 -17 30 0
-27 -20 -43 48 0
-14 -44 -1 42 0
-38 31 -17 -19 0
-28 5 25 -1 0
-4 -33 35 5 0
-26 32 -4 -44 0
-2 -13 -38 -29 0
15 25 -7 -38 0
-14 49 31 -47 0
46 7 -20 12 0
-37 -49 -15 43 0
-26 1 -7 -41 0
33 -27 41 4 0
34 -31 -28 44 0
-37 -47 -20 26 0
19 26 -43 -39 0
9 -22 -37 4 0
24 -19 38 -41 0
-35 1 47 13 0
34 -46 -47 43 0
8 -33 22 -24 0
4 -19 -43 -13 0
12 -18 -4 -17 0
47 16 37 -22 0
-43 21 -8 -6 0
-23 -18 35 31 0
30 42 -29 -49 0
-11 40 -16 44 0
22 -33 25 -16 0
-23 -33 -1 -26 0
21 -29 26 12 0
-5 41 -9 3 0
-45 -10 40 -6 0
-44 28 17 -38 0
10 17 -33 6 0
-43 37 -22 10 0
-47 34 19 44 0
20 24 -26 -17 0
-28 -40 -39 -20 0
-2 -13 -14 -10 0
-18 -48 -9 11 0
46 13 8 -21 0
6 -43 3 -49 0
44 14 12 -35 0
-21 8 -26 45 0
38 12 39 43 0
47 -38 -42 32 0
20 46 5 -49 0
33 -19 -42 14 0
6 24 -28 -34 0
-21 -45 24 -7 0
-10 28 19 3 0
18 -23 24 -42 0
-8 -38 35 33 0
30 3 -15 14 0
-2 -48 27 17 0
7 -31 -23 9 0
31 27 42 -35 0
-7 -14 -22 46 0
-9 -1 -22 -26 0
25 15 -37 -29 0
21 11 -28 -9 0
44 41 -34 -13 0
9 -34 12 -32 0
16 -22 -7 -42 0
30 -11 -38 -21 0
16 29 -2 -30 0
