c family=4-SAT n=50 instance=3 seed=726001144 models=1048
c order 49 50 10 31 19 45 30 24 37 14 5 41 17 2 42 47 27 29 1 33 4 44 40 12 13 32 38 46 18 39 36 35 6 21 34 20 26 28 48 7 16 25 43 15 3 22 23 8 9 11
c order 44 1 34 19 12 25 41 26 9 22 6 23 21 42 31 8 18 11 2 37 27 3 46 24 50 36 43 39 4 20 29 30 48 33 7 28 47 45 10 15 14 5 35 17 13 38 49 16 32 40
c order 42 45 33 16 24 36 40 50 13 34 21 35 25 31 9 2 30 48 5 19 14 28 29 27 32 46 44 37 20 41 7 6 18 12 38 8 4 11 15 17 43 47 22 3 1 49 26 23 39 10
c order 35 10 3 20 36 19 43 16 34 14 44 40 45 49 1 26 29 33 15 4 42 46 18 50 2 21 9 8 7 12 27 38 13 48 30 41 28 39 37 11 6 23 47 32 17 31 5 24 25 22
c order 43 20 50 28 23 16 8 21 44 4 30 1 33 5 9 17 14 19 11 37 41 35 24 25 27 39 49 3 40 47 48 42 38 34 29 13 10 18 45 31 12 15 22 36 2 6 7 32 46 26
c order 42 40 39 29 9 7 31 45 28 38 47 43 48 11 21 18 32 46 12 22 35 20 36 15 4 37 13 44 34 30 3 10 17 41 6 14 26 5 2 23 50 19 33 8 27 16 25 24 1 49
c order 2 49 45 32 30 41 43 25 28 5 47 37 12 18 46 48 7 24 44 3 33 23 1 19 40 8 22 11 10 16 6 39 27 14 21 29 9 50 42 13 31 26 36 38 15 20 35 4 34 17
c order 25 49 14 36 9 42 16 10 12 18 48 11 37 32 40 34 23 17 45 43 21 26 4 41 13 3 39 22 27 33 15 44 20 24 31 19 47 46 50 5 1 6 7 8 2 28 30 38 29 35
c order 26 29 5 34 38 18 50 1 24 28 32 12 39 48 9 13 22 14 3 23 4 17 41 42 36 15 43 47 37 21 10 45 31 16 25 19 7 20 44 35 30 40 8 46 11 27 2 6 33 49
c order 43 20 15 7 23 16 13 3 8 4 5 2 18 12 47 41 28 36 19 22 31 1 33 42 26 14 17 37 9 21 40 44 45 38 6 32 29 10 35 46 27 30 48 34 49 39 11 25 24 50
p cnf 50 480
-29 22 -4 36 0
28 22 -41 -50 0
-28 -22 7 -9 0
41 -16 5 -49 0
-15 -1 -14 21 0
-42 17 -40 -29 0
24 -32 34 -23 0
-50 -42 -17 41 0
-24 38 -22 -10 0
24 -34 45 9 0
6 13 -20 -24 0
-23 -50 16 -47 0
-33 10 23 14 0
-4 6 27 8 0
-11 -47 -40 27 0
9 11 -2 -15 0
-8 -6 -10 45 0
-45 43 -26 35 0
44 -7 -42 19 0
-2 10 -16 4 0
25 8 -41 47 0
47 -10 -41 18 0
-46 -31 -21 19 0
26 13 28 8 0
5 -11 -45 -31 0
-24 42 25 10 0
11 47 -10 4 0
-17 45 -29 -5 0
43 -21 -26 -32 0
45 46 -2 -15 0
49 41 -30 34 0
-4 -5 -1 45 0
-6 43 -32 47 0
50 22 -13 -28 0
-49 5 41 4 0
-13 -45 32 16 0
-3 -9 -11 10 0
-23 -47 36 21 0
49 25 -17 9 0
-48 4 -30 45 0
21 -40 -47 9 0
-47 5 1 7 0
-23 46 47 29 0
3 -34 -32 -5 0
7 32 39 -38 0
37 29 23 -43 0
-4 32 20 -1 0
32 -28 50 -38 0
32 -8 -17 23 0
37 -7 -35 -33 0
-32 40 22 45 0
24 22 -23 10 0
-1 9 49 -50 0
33 -9 -48 -15 0
2 33 41 -11 0
-38 -37 -34 -17 0
26 49 -34 41 0
29 -38 -45 11 0
13 -18 36 -7 0
26 -46 -30 -47 0
-46 23 -17 -21 0
-11 -21 -49 4 0
-29 15 -48 50 0
25 -21 43 12 0
28 -17 44 15 0
-48 20 26 28 0
49 17 3 11 0
8 1 33 22 0
-10 -26 -30 -24 0
30 27 -4 -24 0
6 -26 -2 -34 0
16 34 32 -7 0
13 36 27 38 0
34 -32 -3 28 0
-39 32 2 -23 0
-11 1 -16 44 0
-6 25 -8 27 0
-8 -50 -46 -9 0
43 44 36 -24 0
-43 -26 -42 38 0
20 -4 36 41 0
37 49 41 21 0
-27 29 3 28 0
-37 -25 22 -16 0
41 11 7 32 0
12 50 -9 33 0
-36 -41 -32 -4 0
-29 10 36 -11 0
-12 -4 -37 8 0
40 7 -39 -19 0
38 -36 -8 -13 0
16 36 31 -14 0
35 -39 1 -45 0
5 -13 9 -23 0
-32 -50 38 26 0
-47 -17 16 36 0
47 -20 -32 -34 0
-2 -30 17 -4 0
30 34 5 -37 0
35 15 -37 -23 0
-21 1 -45 -6 0
-44 47 -49 -12 0
29 3 40 25 0
10 40 33 -31 0
-4 41 50 -33 0
-9 -10 -30 -6 0
-25 -13 -33 45 0
-1 24 -47 8 0
-17 -1 37 -16 0
-45 35 10 -21 0
-31 -28 35 23 0
36 50 -16 -40 0
21 -47 7 6 0
27 -43 4 31 0
-14 2 -11 18 0
-21 37 -5 43 0
6 36 -43 10 0
31 6 39 -40 0
-36 -15 -6 22 0
43 11 -6 31 0
-30 37 -34 -43 0
7 6 -20 -35 0
27 4 19 43 0
-20 -28 -6 8 0
-34 -42 48 -36 0
-5 25 48 45 0
-14 -23 42 33 0
36 -8 1 -9 0
38 44 -22 -26 0
-37 31 48 -36 0
27 -35 -47 -50 0
-22 -45 -13 -6 0
-46 15 26 6 0
-4 2 -36 -8 0
39 -15 -4 -24 0
30 37 18 36 0
-12 -16 -25 27 0
-2 -49 34 -16 0
-14 -30 -31 1 0
8 9 10 -38 0
18 -5 -17 9 0
9 44 30 -12 0
-6 45 -17 4 0
35 3 32 -37 0
-32 27 26 -24 0
-10 -50 35 28 0
28 33 -50 -8 0
12 27 -48 -19 0
-2 1 -6 -3 0
5 -17 48 -11 0
14 27 -16 28 0
-8 -6 18 -40 0
-12 -16 2 26 0
38 23 -32 18 0
20 4 24 -15 0
20 8 50 -32 0
-35 10 18 -29 0
6 21 17 28 0
-5 -44 28 -12 0
18 27 -5 31 0
-19 23 25 33 0
-33 48 29 -39 0
-42 8 36 15 0
-45 48 -21 -26 0
44 -12 -18 -43 0
50 23 28 21 0
9 35 -19 20 0
-11 -8 -28 -1 0
-18 7 -6 -13 0
-49 -6 8 -9 0
24 -32 -3 -27 0
-2 -36 41 17 0
16 -32 -14 -33 0
5 -48 24 -20 0
-20 13 46 23 0
17 7 44 33 0
20 16 -29 -15 0
-43 -22 -26 -19 0
34 28 26 -11 0
50 -22 36 -23 0
49 -1 12 35 0
-30 -32 -35 -44 0
6 2 -4 37 0
49 -10 7 32 0
-50 32 22 -2 0
27 -1 -4 17 0
-23 -37 -6 42 0
28 -43 -21 -25 0
-14 1 19 -2 0
5 48 32 -28 0
-32 9 8 44 0
3 -17 -10 2 0
-30 42 -37 18 0
-37 34 -35 2 0
-44 -45 18 25 0
48 -25 39 -22 0
32 -46 -41 -11 0
-20 -31 -47 -37 0
41 24 16 26 0
-42 33 -23 35 0
-23 26 35 -38 0
18 1 28 24 0
-48 -25 -9 -1 0
1 41 -28 -43 0
14 -13 30 46 0
-11 2 5 -7 0
47 -37 -11 -26 0
45 12 3 -38 0
-30 -44 -50 -6 0
44 19 -5 50 0
-4 8 -31 48 0
50 -46 34 49 0
-20 -45 -24 -2 0
-7 11 22 23 0
8 -3 12 -19 0
-50 10 41 -37 0
-45 15 -20 -46 0
21 29 -10 -32 0
-17 -3 -31 38 0
-35 -20 32 39 0
3 34 1 -7 0
-46 -13 -37 14 0
1 -40 6 -50 0
22 -19 11 13 0
46 -44 27 -20 0
-13 28 -9 48 0
-47 -13 35 22 0
-37 -10 6 -15 0
-17 20 42 -21 0
-39 -45 44 33 0
-13 17 15 45 0
22 23 -11 3 0
7 27 36 40 0
-25 20 -2 7 0
40 -19 41 -13 0
-43 -5 29 48 0
-1 -6 28 -14 0
27 33 3 19 0
-30 7 -18 -47 0
-6 -9 -4 -48 0
15 24 17 -34 0
-20 -45 -35 -34 0
-3 16 -24 43 0
-38 -33 13 -7 0
21 -41 37 -19 0
44 26 23 47 0
3 -50 -19 5 0
-41 1 -27 -16 0
25 -43 -2 1 0
41 27 -7 38 0
26 -34 4 -3 0
8 -49 35 19 0
27 19 -32 46 0
-2 3 -16 -25 0
4 8 28 48 0
32 21 -22 9 0
-46 6 -24 36 0
-16 15 -27 34 0
-47 41 -30 -18 0
2 11 -39 8 0
-49 28 39 10 0
-29 50 6 25 0
-33 -47 -21 -50 0
-23 -31 41 -29 0
32 35 34 -17 0
21 -26 1 42 0
15 6 -2 -40 0
42 -25 -5 17 0
-47 16 -9 -37 0
17 41 -48 43 0
44 21 12 15 0
42 1 -6 3 0
-40 -13 25 8 0
24 -38 -50 -36 0
46 27 20 -22 0
46 27 12 -41 0
-1 -4 -20 -30 0
-33 -4 48 -2 0
34 14 -50 -16 0
-4 13 -16 -25 0
-39 35 49 1 0
-20 -46 4 -36 0
25 -9 3 -22 0
8 -46 24 47 0
-4 32 30 -18 0
27 -44 -48 -46 0
1 24 -34 -28 0
-49 -23 42 -27 0
-20 24 18 5 0
15 40 45 47 0
6 -16 5 7 0
-45 37 19 -10 0
12 -18 -16 -33 0
27 -41 -22 2 0
-11 17 -28 -33 0
3 7 -45 -38 0
-20 7 31 46 0
39 -22 34 3 0
11 -42 19 32 0
21 19 -11 -42 0
24 -9 25 15 0
16 27 -8 40 0
15 -18 29 46 0
-14 -25 -4 6 0
-31 32 41 -11 0
28 -22 31 -27 0
-18 34 11 1 0
31 7 4 -5 0
-16 -5 15 -47 0
30 -48 -26 -33 0
-3 21 -22 -20 0
5 -50 32 -2 0
-12 23 47 43 0
9 41 11 -26 0
-29 -34 -48 37 0
-18 28 -14 -50 0
-25 43 -38 6 0
-3 -24 46 -38 0
22 28 -25 12 0
4 40 -2 15 0
16 -27 -19 11 0
-24 5 18 20 0
14 32 -13 20 0
-46 45 -37 29 0
14 -41 -23 10 0
-34 22 -10 -24 0
8 -30 41 -39 0
-31 35 23 -17 0
-26 -10 35 -25 0
-25 -24 7 1 0
41 38 -28 -26 0
42 -41 31 43 0
-8 12 -25 36 0
32 13 6 10 0
-49 -35 -43 -26 0
21 -45 31 12 0
-47 -21 17 19 0
-16 -31 -34 -18 0
-40 -9 13 -29 0
50 -14 33 45 0
-17 3 -15 4 0
23 -37 -31 24 0
-14 6 32 16 0
-35 10 -5 -9 0
33 -38 26 -6 0
-30 1 -3 -13 0
9 -27 16 41 0
43 -14 -38 -8 0
-10 -13 8 22 0
44 -39 -29 -26 0
39 -22 16 36 0
45 10 -50 42 0
-46 -44 -26 22 0
-5 8 33 -4 0
7 -42 -24 -11 0
44 31 46 -23 0
16 50 -24 -19 0
-42 -35 -30 -7 0
-28 40 41 48 0
29 35 33 -20 0
24 32 -6 50 0
-18 -40 -39 1 0
-17 -4 13 26 0
-8 -50 -9 11 0
-43 8 -25 -27 0
-15 33 -12 -39 0
-9 41 20 42 0
-28 -11 25 -3 0
-11 24 -19 -44 0
-42 8 -3 -25 0
-15 39 -28 -30 0
-47 -44 -1 4 0
9 -44 47 -19 0
-10 -33 -39 -27 0
19 -7 32 30 0
-17 33 -19 48 0
46 20 35 -24 0
16 49 -11 -42 0
37 28 1 -26 0
17 18 14 43 0
44 -2 -25 41 0
-2 -48 -39 25 0
-41 16 -4 49 0
28 -24 11 35 0
-29 -30 -12 41 0
-20 13 -10 -35 0
-18 7 -34 14 0
-4 -48 -37 -28 0
17 -22 3 27 0
-19 -13 -21 -4 0
44 33 1 -26 0
49 -40 -38 -21 0
31 -38 -8 -11 0
17 32 -13 -18 0
16 -14 18 1 0
29 7 28 -35 0
39 43 25 49 0
-34 3 19 -37 0
40 -14 -24 35 0
15 -12 42 32 0
21 -44 -31 -23 0
-27 -47 46 -33 0
7 -23 39 17 0
4 -13 5 6 0
-48 -13 22 -12 0
39 50 -24 6 0
36 -29 -30 22 0
3 50 -35 16 0
-43 -40 -41 -35 0
2 -50 -32 -43 0
19 -33 24 8 0
-40 41 -38 -3 0
25 -37 45 -48 0
-39 -25 -42 -49 0
13 34 -37 39 0
43 34 -47 32 0
-26 -7 24 -25 0
-2 36 22 31 0
50 -36 8 48 0
41 -22 31 29 0
-44 -35 -8 42 0
-14 -34 -38 29 0
25 44 29 -8 0
5 19 34 -6 0
41 40 -34 -22 0
17 32 38 -35 0
22 4 14 -39 0
36 -19 46 -4 0
-25 18 -47 -14 0
7 8 37 -11 0
20 30 14 29 0
-13 -11 30 -49 0
-26 7 27 18 0
44 29 7 -46 0
8 -46 -47 39 0
15 -14 -49 7 0
-41 -4 48 -22 0
-18 -4 -2 24 0
-42 22 -26 8 0
-21 10 43 -23 0
32 -14 -15 -2 0
17 31 -14 -26 0
-6 -15 -46 27 0
9 -50 -26 -43 0
-8 38 -37 -3 0
36 14 45 -35 0
50 -32 39 -11 0
-41 22 -32 44 0
-43 -30 16 -1 0
18 -47 28 30 0
-17 25 -35 -4 0
-6 -30 -2 35 0
13 -27 -30 24 0
18 49 1 2 0
42 48 50 24 0
-9 38 -3 -17 0
8 49 -9 43 0
-23 -13 -25 -19 0
-21 -8 -48 14 0
-43 6 15 46 0
-37 13 3 17 0
-9 37 -40 13 0
-31 32 -48 -15 0
21 42 19 -31 0
-38 -20 -40 11 0
-44 31 40 35 0
8 2 -20 25 0
-49 27 -14 20 0
37 -49 -29 28 0
-32 46 23 -10 0
-35 43 -23 -38 0
-34 5 11 -48 0
-1 -31 8 -10 0
39 -4 6 -24 0
-37 -4 50 -8 0
8 -4 -3 38 0
1 -40 16 -47 0
9 14 -39 -20 0
-20 32 29 24 0
-47 -6 -29 -3 0
