c family=4-SAT n=50 instance=8 seed=726001144 models=603
c order 6 19 49 34 20 36 22 38 40 12 2 50 13 48 16 43 21 5 24 27 44 14 3 10 29 47 17 41 25 11 46 45 23 31 26 39 30 15 32 8 28 4 18 35 42 37 9 7 33 1
c order 14 5 36 27 8 17 7 6 10 50 3 39 29 49 11 21 34 16 48 15 22 1 41 45 30 18 46 25 4 23 38 19 9 44 13 47 43 40 28 26 12 24 2 37 32 20 35 31 33 42
c order 22 36 27 9 42 24 5 18 31 1 14 20 12 48 6 34 17 38 7 44 33 19 32 41 10 39 43 47 29 13 49 21 40 28 30 46 50 3 4 15 2 8 25 16 11 23 35 37 26 45
c order 30 10 42 48 5 36 46 49 35 9 4 50 16 19 6 45 38 7 20 39 47 3 18 31 2 22 43 29 13 12 14 21 41 24 40 28 1 37 17 27 32 8 33 44 25 11 23 15 26 34
c order 21 9 48 38 35 29 40 24 42 33 37 31 34 11 32 3 23 5 45 7 28 1 50 49 47 41 8 17 43 25 6 14 22 26 46 19 39 2 10 13 36 30 15 4 44 12 18 16 20 27
c order 38 6 11 10 42 18 44 21 30 26 3 46 7 48 45 17 39 33 34 20 14 15 36 5 41 9 27 37 1 8 35 24 50 12 28 16 31 49 47 29 32 23 25 19 43 40 13 22 2 4
c order 37 38 13 7 11 5 48 35 12 41 43 33 16 20 29 3 42 49 8 17 28 1 45 2 10 9 30 36 40 6 21 22 46 4 27 18 31 44 50 24 47 39 23 19 14 15 26 34 32 25
c order 21 36 50 46 40 5 27 29 28 43 16 2 3 12 6 18 14 19 24 15 45 34 1 20 42 38 9 47 26 32 10 37 17 23 48 35 4 25 11 49 13 22 31 33 30 7 44 41 39 8
c order 37 14 15 46 8 41 25 27 6 9 13 17 7 19 35 1 5 48 42 30 33 10 36 22 24 21 34 26 3 28 4 12 43 31 49 47 20 44 39 16 38 50 23 11 32 45 29 18 2 40
c order 23 5 20 38 6 18 11 21 34 48 3 2 9 1 15 37 28 16 29 39 35 44 30 19 24 14 32 33 49 42 17 4 25 10 7 8 22 46 45 12 50 41 31 27 26 36 43 47 40 13
p cnf 50 480
-18 -25 50 49 0
-3 30 -7 22 0
-42 3 -21 39 0
-45 -1 50 -26 0
-25 -19 -26 -32 0
-28 -44 -27 -25 0
-36 17 -26 4 0
-40 6 12 -50 0
-34 12 -6 14 0
-18 25 -31 -28 0
-13 -20 27 -23 0
49 3 -7 13 0
16 43 20 -3 0
3 -43 22 -47 0
-9 -43 30 18 0
-5 42 44 33 0
31 -41 -47 -9 0
-31 40 2 25 0
42 5 8 1 0
-1 17 -29 -24 0
-30 19 12 -41 0
-37 20 17 45 0
-50 45 27 -33 0
-14 2 7 5 0
41 -18 -37 -15 0
-11 -42 23 29 0
-21 -16 49 13 0
27 -29 -44 9 0
42 8 16 -18 0
48 17 45 50 0
-40 -4 28 9 0
7 -12 8 -28 0
-29 -27 -9 -8 0
47 12 -6 31 0
39 -46 -49 -10 0
4 -2 34 -24 0
49 36 6 32 0
44 -50 13 -42 0
22 48 -30 -28 0
-45 27 12 -28 0
34 11 -12 47 0
44 -12 -17 -8 0
-31 38 -26 -14 0
-36 -49 39 46 0
-6 47 -37 39 0
2 -22 -4 47 0
15 23 5 24 0
3 -7 34 -12 0
37 14 18 -44 0
-27 -29 25 46 0
-6 -16 -2 27 0
6 35 -17 -18 0
-2 26 -22 37 0
33 15 -50 -10 0
-33 -34 -15 -43 0
18 -49 -32 -3 0
-18 -15 43 -35 0
1 15 44 -42 0
-14 50 45 35 0
4 -1 -8 25 0
-7 37 30 -20 0
-24 17 -13 -46 0
-14 -33 -48 5 0
-45 -49 27 -38 0
-16 -41 42 -21 0
31 49 1 27 0
-8 37 -15 34 0
46 12 26 -6 0
16 -7 -35 -5 0
-22 7 -21 -34 0
-39 47 1 35 0
-47 22 -46 -1 0
15 -1 36 28 0
42 -37 -39 20 0
-14 32 -44 48 0
36 -31 2 14 0
27 -20 41 11 0
-50 28 -26 2 0
-2 9 -34 -13 0
33 10 -42 9 0
-31 -22 37 35 0
42 -6 1 -7 0
7 -34 8 -40 0
-36 5 -10 -34 0
14 48 -42 -15 0
-49 -17 -34 2 0
-3 -46 -49 -21 0
-43 10 -16 50 0
-7 -42 24 -29 0
-47 -18 -29 -14 0
21 -27 48 -29 0
-6 -25 17 -46 0
5 50 17 -43 0
-39 -6 4 -48 0
-7 33 24 37 0
-47 10 -20 24 0
-24 -35 -43 3 0
35 -13 -15 -5 0
1 -19 26 -21 0
-50 -41 -11 -25 0
20 -43 -31 34 0
-21 46 37 31 0
-33 13 -49 45 0
-19 -14 -37 31 0
-25 -31 38 9 0
-3 -26 23 41 0
49 -19 -21 -18 0
-30 9 -18 38 0
24 -46 8 15 0
4 41 -22 -28 0
-49 35 32 13 0
8 -33 31 2 0
45 5 -7 -21 0
38 13 40 36 0
-2 -8 -22 32 0
-33 18 -8 27 0
-34 16 40 35 0
3 14 49 -8 0
38 43 -34 -46 0
-1 -22 26 -49 0
39 -24 2 40 0
31 13 -28 -7 0
-49 -16 -6 17 0
47 1 48 -4 0
27 -1 39 -28 0
-22 -18 -43 -13 0
-24 -12 -45 -50 0
-21 -19 -29 -25 0
7 49 17 -28 0
-34 28 -23 -4 0
-37 10 11 28 0
-28 35 -25 7 0
-42 8 -50 35 0
18 17 23 -1 0
10 -38 -49 37 0
30 3 14 18 0
47 18 35 -36 0
-28 -35 23 4 0
-39 -30 2 -16 0
-14 -44 -32 40 0
27 18 6 -35 0
35 49 -29 -47 0
20 -40 21 41 0
41 39 -42 -29 0
-20 -21 39 -19 0
34 -48 22 23 0
-21 -9 15 12 0
-47 -38 16 -3 0
-10 -45 27 -4 0
27 23 -4 -22 0
-26 -6 -24 -2 0
-20 -12 -48 32 0
-22 30 48 4 0
-1 -8 37 12 0
49 46 -13 26 0
3 38 14 -18 0
-1 -19 3 28 0
-43 31 -30 34 0
28 10 30 3 0
45 -25 -41 -7 0
15 1 -13 9 0
31 47 5 -9 0
2 -41 46 8 0
20 -45 6 -38 0
-25 29 4 -43 0
-45 -15 37 -5 0
-43 42 -20 -24 0
7 -43 21 5 0
-12 2 16 -1 0
26 -48 -3 2 0
-23 -28 -9 -11 0
-26 15 2 31 0
-37 -14 -32 49 0
-13 44 -3 31 0
37 -39 25 -28 0
2 -49 9 48 0
15 16 -26 -25 0
-50 -10 -20 7 0
44 34 -5 50 0
-15 -29 -20 -10 0
-3 36 26 18 0
50 35 31 44 0
-48 -15 -40 -6 0
44 -27 46 3 0
-35 -9 23 -42 0
22 -24 -10 30 0
-8 26 -19 37 0
-48 31 44 -15 0
-4 -6 11 -1 0
9 -30 26 -27 0
10 50 -24 -47 0
-32 -13 48 24 0
-7 -17 -24 -34 0
-9 5 -3 -38 0
28 19 11 -24 0
-25 48 31 44 0
10 21 38 25 0
45 36 37 30 0
-37 33 -25 -2 0
1 11 -34 -5 0
12 26 -2 -27 0
8 35 38 48 0
-23 18 -40 -38 0
-36 41 -48 -31 0
4 1 35 21 0
1 -6 -35 4 0
-42 -38 23 -1 0
30 -13 -21 2 0
-26 33 11 -25 0
45 48 42 38 0
-34 43 -29 36 0
12 -10 19 15 0
33 30 -29 36 0
22 -15 -29 -30 0
47 -24 -38 49 0
12 11 32 -31 0
43 -6 39 17 0
29 17 -31 -10 0
-5 39 -25 -32 0
42 43 8 49 0
30 11 44 31 0
35 -14 -27 15 0
17 -38 -37 20 0
37 34 -16 13 0
18 -17 -31 -10 0
-49 42 3 -32 0
29 -2 8 5 0
-18 1 -14 -34 0
14 -3 11 46 0
-33 -35 -32 -34 0
-33 -40 47 6 0
-26 -38 -18 -35 0
35 -31 -50 -32 0
50 -14 -33 -8 0
-16 25 39 31 0
-30 49 32 -40 0
20 16 15 -48 0
-34 -43 -23 28 0
36 14 -21 37 0
43 36 19 -18 0
44 40 39 -4 0
41 -1 12 -27 0
42 22 37 45 0
10 -42 9 -25 0
-17 41 36 -28 0
-46 33 -48 30 0
-35 2 8 -37 0
-47 12 -34 -17 0
50 -12 -28 -18 0
41 37 -2 -38 0
35 47 39 -18 0
-30 -32 -37 13 0
-22 15 12 -46 0
-1 5 -25 -11 0
47 50 -17 15 0
20 -50 43 26 0
10 36 -45 -28 0
-24 -9 34 -45 0
-42 -21 -24 -16 0
18 28 -27 -43 0
-27 40 -14 45 0
43 -16 22 -5 0
3 -40 -49 -44 0
19 10 31 26 0
-36 -19 -32 50 0
-37 -1 39 -16 0
-18 -43 49 -9 0
-41 12 37 -6 0
14 -22 -5 18 0
18 -36 -42 -39 0
37 15 11 -47 0
-2 -29 -28 -13 0
5 46 44 45 0
7 48 -39 -31 0
20 -26 -32 -25 0
13 11 -31 41 0
6 -5 -4 17 0
-45 20 41 -23 0
47 6 -46 50 0
32 34 -21 -1 0
-48 -4 -15 -50 0
-4 37 30 25 0
-7 29 -39 4 0
-16 -11 -48 -5 0
-10 -15 31 -21 0
35 41 17 -10 0
2 -7 29 38 0
-38 -26 -32 -22 0
13 -18 -24 -50 0
21 -29 17 -2 0
4 40 27 -33 0
41 -36 46 -22 0
-5 -36 -26 45 0
33 3 30 -7 0
-28 -37 -20 32 0
49 -1 48 25 0
5 25 -41 -42 0
49 -39 -34 -9 0
-35 21 -17 -26 0
9 -15 16 10 0
-29 5 -25 9 0
-19 46 27 -42 0
41 -28 5 22 0
-12 -25 37 -24 0
-50 -48 -14 -1 0
-35 -49 18 -9 0
-31 -20 -13 -25 0
12 -29 40 49 0
38 -48 -26 16 0
-40 3 12 -35 0
41 -44 -39 -12 0
25 10 21 -18 0
-49 18 16 -31 0
12 -26 -22 32 0
-44 20 -10 -14 0
-16 8 37 -44 0
-19 17 -46 -28 0
50 -19 -40 -11 0
-26 39 42 -36 0
-32 27 -17 19 0
-20 27 -15 -49 0
29 -15 7 21 0
-31 -28 37 27 0
8 -17 14 15 0
-2 28 40 39 0
40 -46 23 12 0
46 48 -50 13 0
-3 17 -36 -34 0
10 -13 -36 -45 0
-47 -28 38 -4 0
-23 -13 -10 -20 0
-41 -49 -28 7 0
-44 -5 21 -12 0
-19 17 44 43 0
-38 -37 3 -34 0
-41 -32 7 -16 0
45 -9 -42 47 0
-46 -41 11 8 0
-50 -7 31 18 0
-25 19 15 -20 0
30 31 45 -28 0
29 8 22 18 0
-48 40 12 9 0
2 15 23 26 0
16 33 11 40 0
-41 42 -33 7 0
47 38 45 29 0
-29 7 15 -21 0
-5 46 -19 -38 0
18 25 -46 20 0
1 -20 -33 -32 0
-9 30 -2 -32 0
37 -7 -41 -17 0
-24 3 31 -14 0
45 -44 -32 -26 0
-38 2 19 -3 0
-5 -50 -39 -21 0
-10 -32 -23 -31 0
-38 -22 47 -25 0
18 -4 -40 25 0
24 -37 -12 10 0
-6 -40 -21 47 0
-12 -13 31 -10 0
-28 46 27 41 0
-46 35 39 -28 0
44 -38 -45 -21 0
9 11 -25 50 0
-29 50 -20 33 0
-14 -21 -43 49 0
31 -35 36 -43 0
-9 -23 -24 -15 0
36 -22 -12 -45 0
-36 31 1 -4 0
-44 3 48 40 0
46 49 -30 -31 0
35 -31 -40 1 0
-18 -23 -12 -5 0
47 42 36 -3 0
-14 -4 32 -40 0
23 -4 -10 29 0
-31 50 -6 40 0
38 -33 25 21 0
-15 -24 34 38 0
-24 -49 44 -39 0
-22 -13 5 -40 0
-16 9 -10 47 0
11 -49 -28 14 0
-19 6 -50 -49 0
9 -39 -24 10 0
43 -36 -49 10 0
-22 -46 19 44 0
33 -24 30 -14 0
16 4 -22 -40 0
-34 38 7 -14 0
-31 11 8 -5 0
14 -31 11 -41 0
9 -50 46 -15 0
32 -34 29 42 0
4 23 -29 -7 0
-36 -49 -13 -35 0
6 25 46 47 0
-28 -19 12 38 0
-45 9 22 10 0
-40 -47 -15 23 0
-40 -10 -41 -33 0
-29 -31 -15 34 0
38 3 -34 -21 0
-14 -19 17 29 0
1 10 -21 23 0
16 -19 -50 34 0
22 -50 -38 -32 0
-35 48 -36 50 0
49 39 -26 -29 0
-23 -14 -15 -50 0
18 -50 19 26 0
32 35 36 -44 0
-10 4 -6 -43 0
-43 -47 3 -17 0
48 42 -46 -13 0
-37 -12 18 -30 0
-2 -33 26 -6 0
-30 -27 25 -42 0
20 -47 -35 4 0
34 -50 12 -38 0
-20 -18 32 -34 0
-29 21 15 12 0
40 -36 34 41 0
16 -45 -40 4 0
-38 -46 -12 34 0
44 -27 42 23 0
-2 -31 -41 26 0
-44 45 24 -19 0
-28 -27 -15 20 0
17 33 32 28 0
47 -10 26 22 0
-39 -40 33 14 0
-23 38 -30 -50 0
-16 -32 35 -50 0
20 6 -2 -13 0
-12 9 -32 -41 0
-22 1 30 31 0
42 5 46 -44 0
35 2 -9 -38 0
-2 16 11 -35 0
31 -24 37 48 0
38 -44 -10 -50 0
-27 7 -25 45 0
2 35 -49 38 0
-14 46 12 7 0
-36 35 23 -9 0
-13 24 1 2 0
8 30 31 9 0
41 34 12 10 0
37 21 -2 -19 0
-18 -50 28 -10 0
17 20 40 -13 0
-30 28 -7 -26 0
-2 33 21 -26 0
-25 -16 -4 8 0
-15 43 21 -8 0
-46 -47 38 17 0
28 -30 -38 27 0
-47 -22 -30 45 0
33 22 18 32 0
2 -41 30 -21 0
-30 38 -17 32 0
-31 20 15 19 0
-28 15 -3 -48 0
36 34 -17 -27 0
12 -20 48 13 0
31 48 21 16 0
3 -42 38 25 0
-10 26 -37 -43 0
44 -23 48 -29 0
-24 18 -43 -31 0
-16 -6 -20 24 0
47 -9 -39 12 0
-28 19 38 37 0
-12 17 -8 36 0
-34 -41 -44 49 0
