c family=4-SAT n=50 instance=0 seed=726001144 models=23
c order 27 28 7 44 23 16 46 1 21 17 19 37 29 2 34 45 26 12 48 33 32 6 36 9 20 22 41 50 15 42 35 25 38 3 24 40 43 8 39 49 31 30 47 10 14 11 13 5 18 4
c order 36 50 27 7 10 37 47 2 40 5 45 11 24 14 41 38 43 46 3 49 6 32 25 1 33 20 34 8 30 35 29 4 16 42 26 15 28 39 9 18 23 48 17 19 22 13 44 31 12 21
c order 20 43 14 7 36 28 45 13 5 15 50 22 49 2 35 33 30 41 47 23 46 19 8 11 21 39 34 25 27 4 31 24 16 38 9 1 18 17 29 32 10 3 26 40 48 12 37 6 42 44
c order 19 2 47 21 33 12 49 18 1 5 46 35 6 50 9 27 14 22 16 31 45 11 41 39 23 32 17 43 40 26 13 44 29 10 37 34 48 8 36 4 3 25 24 20 28 42 15 30 7 38
c order 18 38 19 33 39 4 40 7 15 29 43 35 14 23 30 22 41 27 50 37 31 36 8 49 28 12 5 1 13 44 9 21 42 48 2 25 47 3 26 6 20 46 24 34 45 16 17 10 32 11
c order 17 28 18 13 5 14 38 24 45 10 19 49 44 7 26 29 20 41 9 33 36 50 30 2 32 27 34 11 40 22 8 4 42 35 37 23 39 31 3 12 6 16 48 1 15 43 21 25 46 47
c order 9 26 19 27 30 33 46 23 49 32 38 12 43 15 4 13 20 45 25 3 7 1 24 21 31 17 2 8 48 42 16 22 18 44 35 39 37 50 40 11 47 14 36 28 34 29 41 6 5 10
c order 33 13 23 29 30 49 34 42 48 20 50 19 43 12 3 9 25 27 1 45 24 47 38 36 18 37 41 32 7 39 10 44 2 16 11 21 5 28 26 22 15 46 14 35 17 4 6 31 8 40
c order 43 47 49 11 29 20 18 26 32 16 34 7 46 8 40 48 37 5 33 50 42 12 6 3 2 44 25 24 28 27 35 36 10 14 22 1 4 23 39 30 17 15 41 9 19 45 38 13 21 31
c order 26 1 16 48 44 14 3 50 21 6 34 18 9 46 17 45 25 43 37 8 15 28 40 13 24 32 7 30 11 5 42 20 2 23 41 33 27 36 39 38 35 19 12 31 29 49 10 22 47 4
p cnf 50 480
8 -47 -11 -15 0
27 -25 -50 -24 0
3 -7 -36 30 0
-15 30 26 50 0
24 -3 -22 49 0
-7 39 4 45 0
20 -14 -36 8 0
-29 45 32 -47 0
-20 3 5 -9 0
-5 -42 -8 -29 0
-19 -6 38 -10 0
28 24 -31 -14 0
30 -21 46 -4 0
-39 -40 -30 -33 0
20 6 -2 -46 0
2 50 30 -10 0
3 15 -14 -27 0
32 -50 33 -21 0
18 33 16 -30 0
-2 4 11 7 0
-37 -23 -43 30 0
-8 45 -9 46 0
3 -19 2 43 0
37 25 -42 50 0
49 -37 36 44 0
-37 -18 39 7 0
25 42 -20 -31 0
45 -13 -29 -8 0
-50 31 -11 5 0
-47 2 -1 45 0
-16 14 25 6 0
36 42 24 -26 0
27 44 -47 24 0
-26 42 25 16 0
-27 -17 7 -20 0
-46 -20 -47 45 0
18 36 29 22 0
-16 35 5 3 0
10 -21 45 -1 0
-17 -20 -43 -9 0
-48 5 28 -26 0
12 -22 35 -4 0
-17 41 -21 5 0
-42 -44 29 2 0
-23 37 18 26 0
37 1 -19 45 0
-49 -1 -29 6 0
-33 46 -8 -14 0
-34 -36 30 33 0
-16 -8 -37 -45 0
-6 -50 -19 -23 0
-7 50 26 -14 0
3 -20 -10 31 0
25 35 47 41 0
-6 -37 -42 16 0
19 -17 32 -22 0
32 13 45 10 0
11 42 -22 29 0
-39 -46 -6 48 0
47 -44 8 -29 0
-45 -32 29 -4 0
-19 9 25 -14 0
-31 1 25 2 0
-12 -23 -44 -26 0
30 10 -48 -45 0
26 23 27 37 0
-22 -46 50 31 0
42 -25 7 45 0
-49 23 38 28 0
28 -25 20 46 0
14 40 -31 -19 0
13 -39 -33 -28 0
43 -38 -35 -5 0
-15 49 22 -30 0
-47 45 -32 34 0
33 -42 47 48 0
2 29 47 -31 0
-27 9 -24 21 0
30 12 -21 11 0
26 -35 -11 -24 0
17 7 42 11 0
-41 40 -5 24 0
31 43 -40 12 0
49 -28 11 -12 0
-35 21 38 -44 0
29 -13 -27 21 0
-4 -41 38 15 0
-21 -2 -1 -38 0
-8 -32 39 -21 0
27 22 -34 14 0
5 -27 11 46 0
-21 -44 9 7 0
-7 -29 -20 19 0
-18 34 47 3 0
-18 28 -12 42 0
22 47 25 29 0
-23 -47 -12 -33 0
-29 8 1 41 0
-22 9 25 -15 0
-42 -6 1 -4 0
-2 -15 -37 -20 0
-17 -28 46 38 0
34 12 -37 39 0
46 4 -33 -16 0
-28 39 29 -13 0
48 44 40 -37 0
-19 -46 47 31 0
-46 -44 22 -32 0
-24 12 48 25 0
7 22 -48 4 0
-46 25 -31 -48 0
10 22 -30 2 0
-46 37 45 18 0
3 -12 -50 34 0
2 27 34 -36 0
-27 28 49 12 0
7 15 10 -16 0
4 -26 7 -41 0
15 -46 -14 36 0
48 41 28 -36 0
-2 -28 -14 41 0
12 14 32 45 0
-31 25 49 -41 0
-36 26 -45 -13 0
-12 26 -46 15 0
26 -22 27 32 0
-43 21 4 8 0
-26 18 3 30 0
41 -21 19 -32 0
-5 -10 29 15 0
32 11 -2 -24 0
49 11 -34 -41 0
30 23 2 27 0
-10 -41 3 -34 0
-27 -17 28 -10 0
-19 -17 -25 -44 0
-48 49 -2 -37 0
-35 -49 -30 8 0
-29 -19 -8 -4 0
18 -30 -12 -6 0
10 19 -11 18 0
-11 50 32 36 0
21 -1 -27 11 0
47 20 -15 49 0
-41 -23 40 1 0
42 -2 -30 15 0
4 34 -11 14 0
45 -24 -19 6 0
12 2 28 38 0
5 -42 26 19 0
42 -3 13 -35 0
-41 35 -44 3 0
14 -26 13 -29 0
6 19 -26 -2 0
46 -42 30 -32 0
-29 -48 -15 -16 0
1 22 -21 50 0
-33 -15 -49 3 0
-36 -32 -21 43 0
-17 -32 -12 -9 0
-37 15 -18 -35 0
-34 25 -26 8 0
37 35 31 28 0
30 13 -50 16 0
11 13 36 20 0
-29 24 -32 13 0
29 33 8 5 0
19 -5 23 41 0
28 15 -5 -32 0
14 -5 31 -17 0
24 -10 1 6 0
1 -17 5 31 0
-14 -24 -38 -19 0
38 9 -1 -24 0
-27 14 -25 -45 0
-4 -26 -42 -7 0
31 10 44 9 0
-34 -3 -8 -24 0
-22 -34 26 31 0
-8 11 -14 48 0
18 40 34 -14 0
-9 26 33 -14 0
-10 28 33 17 0
14 15 34 -47 0
20 12 50 18 0
5 -7 -20 -34 0
7 18 -9 -1 0
44 6 48 42 0
-13 -12 -19 35 0
-34 -15 -2 -28 0
-3 -4 50 -1 0
10 13 12 38 0
2 -16 -49 -33 0
31 -10 30 20 0
14 -25 -26 48 0
-17 5 -8 -37 0
19 -7 6 -38 0
-26 30 -11 36 0
-2 24 16 30 0
-33 -32 9 1 0
-39 44 50 -5 0
-15 24 -44 -23 0
-28 -30 -8 3 0
24 43 40 -33 0
-6 -45 -19 14 0
-36 9 -21 -34 0
-9 -40 -12 7 0
-43 9 34 29 0
-34 -5 16 2 0
-6 4 -15 10 0
14 17 -32 41 0
1 14 -15 -12 0
14 7 6 -23 0
48 36 -30 15 0
34 -6 41 49 0
-30 23 46 -40 0
28 23 36 -3 0
-38 -50 -7 -43 0
31 36 -15 -43 0
-35 -19 7 3 0
48 -38 49 19 0
-44 13 17 36 0
-11 -1 -7 -34 0
-18 -20 -28 9 0
-11 -30 45 15 0
3 49 -5 -17 0
32 -33 -49 34 0
41 -16 7 42 0
-17 42 40 -47 0
14 24 -27 -31 0
-49 45 -36 -15 0
-5 -42 16 -37 0
-36 8 -29 -1 0
-21 -26 -34 -28 0
-30 -2 -33 29 0
13 22 -9 15 0
-7 45 44 -19 0
13 -3 -26 -46 0
-15 10 31 38 0
-12 28 14 -35 0
14 -30 -28 -27 0
19 -2 -13 28 0
20 26 7 8 0
10 7 20 -30 0
33 23 -34 47 0
-22 -49 34 14 0
-42 -12 3 1 0
30 -48 -49 9 0
19 30 -21 7 0
-48 15 -3 -22 0
-31 -49 23 -2 0
-11 -9 32 -6 0
28 39 -3 -7 0
-46 -15 12 47 0
-34 -1 -11 24 0
8 -9 -46 -7 0
-44 -1 48 -31 0
-37 6 -24 19 0
48 12 -9 21 0
-30 -11 18 -28 0
44 38 1 -50 0
2 30 -45 23 0
44 -10 -15 -32 0
-17 10 34 42 0
-47 31 -37 25 0
36 -41 -6 25 0
-36 -1 -27 50 0
-12 48 -9 -13 0
-28 17 -21 -32 0
-29 42 26 -16 0
25 -47 -45 38 0
-10 11 -2 34 0
37 -8 42 -28 0
42 24 43 -21 0
16 -41 -2 20 0
38 -4 -41 -50 0
18 -7 -16 -26 0
-37 32 -24 26 0
-12 3 -6 -14 0
-8 -30 20 3 0
6 -14 11 35 0
-29 34 -49 46 0
44 -4 32 30 0
-28 -17 -20 40 0
-43 1 26 -8 0
-16 -41 -7 -36 0
26 -14 -17 18 0
20 40 7 43 0
-42 6 11 -1 0
-41 -14 -5 -38 0
-36 49 1 -11 0
4 -50 -33 -36 0
-49 -14 32 -22 0
-7 -32 12 -23 0
-35 -43 -28 32 0
-38 45 11 -10 0
-42 -38 13 24 0
1 -21 -16 9 0
37 -15 10 -30 0
41 39 -23 -8 0
21 -38 -8 -7 0
47 -27 -13 -17 0
35 -29 -19 -12 0
-23 7 -27 -30 0
-38 27 -33 -8 0
-12 -39 -27 9 0
-3 25 -33 -4 0
-45 -46 17 12 0
33 12 -24 21 0
31 3 42 24 0
-28 -14 -49 -34 0
5 -40 9 -43 0
-45 -41 -25 32 0
-34 -1 21 -37 0
46 48 -16 -30 0
-15 -23 37 -44 0
45 -26 49 -22 0
-1 -5 -32 -49 0
-49 50 8 -48 0
-39 31 7 40 0
37 19 -5 -45 0
-10 -36 5 -35 0
-37 5 -3 46 0
-7 2 -50 -46 0
12 -37 -24 -23 0
6 -9 40 50 0
-40 21 -8 35 0
42 13 16 -19 0
35 -18 -37 -3 0
-1 16 28 3 0
-11 15 -40 -21 0
-36 -42 -40 -8 0
-9 -20 -33 7 0
33 36 -38 31 0
-6 13 36 50 0
-11 -1 43 8 0
10 -22 -13 49 0
11 45 -7 -39 0
-47 -33 -30 14 0
-15 -1 -18 36 0
32 41 19 49 0
15 2 -36 11 0
13 -38 17 -3 0
26 -33 42 -25 0
8 44 34 20 0
40 -44 -43 23 0
-5 -48 -22 -44 0
-5 -1 42 14 0
-28 30 49 -17 0
-10 -2 -22 -15 0
-25 17 3 -13 0
13 -1 -31 46 0
34 -43 2 -48 0
49 38 -45 16 0
27 -32 42 16 0
-20 29 14 19 0
39 -31 14 -6 0
33 -34 49 -15 0
24 39 -34 -5 0
50 -1 8 -2 0
15 12 -33 -18 0
-9 -13 20 -3 0
-26 36 -40 -6 0
-26 -22 -49 11 0
2 -40 -22 -8 0
-48 -26 50 -35 0
7 -40 50 -26 0
-40 18 35 5 0
-21 -32 28 41 0
-48 -13 39 -41 0
-28 45 -46 -19 0
-32 36 9 -12 0
-11 -1 -21 -5 0
-17 -30 -3 -48 0
22 3 12 -14 0
48 -1 -5 34 0
-27 -22 12 40 0
29 9 -35 28 0
16 15 39 -48 0
18 19 -4 -27 0
44 19 33 34 0
39 -28 -11 -9 0
-5 27 25 38 0
43 -22 49 28 0
-46 3 20 -50 0
-39 -24 3 -9 0
-41 -37 16 -3 0
40 -2 27 -33 0
-44 34 -14 -28 0
-47 15 -30 -50 0
27 -12 -18 -43 0
30 -31 43 10 0
18 30 -36 34 0
22 18 -23 16 0
18 -12 -5 45 0
-38 -27 -19 -17 0
34 -39 -1 13 0
18 45 49 -22 0
-9 -24 8 -26 0
1 -33 -21 28 0
39 8 27 36 0
47 -13 -30 -49 0
5 31 44 -29 0
-22 -39 10 -7 0
-26 19 -17 -21 0
8 -42 5 35 0
34 -48 -11 -42 0
32 -33 35 24 0
34 7 36 31 0
-25 1 22 -30 0
-42 -22 39 11 0
31 29 23 -36 0
40 -46 11 -36 0
-28 36 -2 -33 0
-36 16 24 -8 0
39 -30 49 -13 0
43 34 41 -8 0
-38 14 -2 -17 0
14 -49 -16 -34 0
-7 -24 9 -27 0
-6 47 -32 7 0
25 -49 -16 -29 0
9 -37 42 -50 0
37 44 36 -41 0
-40 -43 11 -39 0
-48 -20 -11 -49 0
49 44 -14 -7 0
36 -26 -48 44 0
-12 -25 21 -17 0
47 36 -17 -39 0
-48 -42 24 45 0
-31 46 -45 24 0
13 -42 21 20 0
-37 12 32 36 0
-5 -39 25 -34 0
-25 6 -12 42 0
36 -3 45 -16 0
1 13 -36 24 0
14 16 34 -12 0
49 -34 37 46 0
28 7 21 16 0
1 13 8 50 0
-41 -32 11 -44 0
-50 -29 -19 22 0
-24 30 -28 -36 0
-32 -36 48 -17 0
-3 -38 -27 -32 0
-32 5 33 12 0
2 49 -13 -11 0
50 -9 -29 -21 0
-8 -3 -44 -43 0
23 -40 -7 -43 0
49 32 -42 8 0
-35 -26 -27 30 0
18 -26 17 2 0
47 -4 48 16 0
39 -15 -50 -22 0
6 -20 -34 -28 0
-38 30 -31 20 0
8 -36 -44 -5 0
10 15 -23 -22 0
39 -42 19 6 0
-43 8 -47 12 0
-5 -31 1 -41 0
-41 43 32 -35 0
-42 -49 22 -27 0
-34 -20 4 -35 0
-24 3 -2 -15 0
-20 -22 -35 -29 0
12 3 32 -50 0
-11 45 -43 29 0
17 -24 11 32 0
2 16 41 13 0
13 -38 5 -32 0
-46 50 32 -22 0
-34 21 -3 -4 0
37 9 38 -41 0
37 -39 -8 -48 0
-23 31 -17 -39 0
-10 -16 15 45 0
