c family=4-SAT n=50 instance=9 seed=726001144 models=4
c order 14 20 43 50 24 11 30 2 4 27 49 47 28 41 25 26 22 5 6 3 48 42 33 29 9 45 23 34 39 21 7 1 36 10 32 16 8 17 13 38 40 31 46 19 35 37 12 44 15 18
c order 29 37 5 13 24 11 12 45 15 42 49 40 1 3 31 46 19 39 9 48 50 17 8 21 7 43 27 4 6 41 32 35 20 33 47 22 38 25 2 16 10 28 34 18 44 26 36 23 30 14
c order 16 44 4 18 31 33 50 25 34 40 10 46 37 28 8 38 23 47 3 11 13 12 5 29 19 1 20 2 49 36 21 32 45 35 27 6 43 7 24 22 14 15 39 17 9 30 41 26 48 42
c order 27 46 17 2 24 30 1 4 36 47 49 39 12 14 50 18 11 3 10 45 20 37 35 33 5 22 28 9 42 7 44 40 21 15 29 19 43 8 13 6 38 25 26 34 16 41 31 32 48 23
c order 49 40 41 20 21 25 45 6 3 24 28 22 17 11 50 19 39 47 4 23 36 38 9 46 16 12 13 8 29 27 26 30 2 1 18 10 42 33 14 31 7 35 48 5 44 34 32 37 43 15
c order 11 32 37 4 31 43 49 29 47 18 35 7 40 36 8 21 12 39 45 5 10 20 6 1 9 38 33 28 30 25 34 16 24 48 42 46 26 50 41 2 14 19 17 3 22 23 13 44 15 27
c order 46 5 45 25 10 17 38 7 40 35 34 50 29 26 8 2 12 36 11 37 21 15 31 14 39 30 20 18 23 33 41 24 44 6 47 27 16 3 49 1 22 28 13 42 19 48 43 32 4 9
c order 48 32 34 29 19 50 37 36 30 7 4 41 46 23 21 44 42 14 2 1 6 40 28 12 20 45 5 22 16 39 31 13 35 24 15 10 38 26 49 9 25 11 33 3 18 17 27 47 8 43
c order 39 25 30 27 31 48 29 32 45 47 6 49 2 41 10 9 33 22 11 7 5 28 36 38 44 19 1 3 12 13 50 46 34 21 17 23 18 24 42 37 15 43 14 8 20 35 4 40 26 16
c order 11 43 39 12 26 44 29 34 7 21 8 3 27 35 15 50 24 49 20 37 28 4 30 6 48 45 46 5 14 10 38 36 18 17 23 2 16 1 41 31 40 19 25 9 22 47 32 33 13 42
p cnf 50 480
6 -9 25 8 0
27 33 23 5 0
31 -16 -41 45 0
-5 -24 29 37 0
10 -24 -38 9 0
-48 -23 -32 17 0
3 35 -6 -13 0
-46 29 31 -32 0
4 -44 -33 38 0
17 26 -14 10 0
48 25 15 -37 0
-14 -29 -18 -50 0
-38 2 6 -7 0
39 -32 -22 8 0
-31 -35 -45 34 0
-6 19 -39 -25 0
-18 -41 48 -6 0
-1 35 45 6 0
46 -12 -19 45 0
2 34 9 10 0
7 39 -46 10 0
-48 -39 -16 30 0
9 -18 -14 12 0
-3 -39 -44 -34 0
9 -12 6 38 0
-31 -41 34 4 0
-35 26 8 -36 0
20 -28 -24 7 0
28 -8 19 47 0
-14 18 45 13 0
17 19 -4 10 0
-19 38 -23 -20 0
-31 -48 20 12 0
-28 -38 -21 11 0
20 -37 44 -40 0
-34 -36 41 24 0
-41 -36 -37 31 0
12 -18 -27 -6 0
-37 -50 8 12 0
41 -13 -11 -15 0
19 -18 -45 -7 0
-35 -36 -41 -24 0
-36 -15 41 -7 0
-14 -45 -31 -39 0
-31 -17 23 -37 0
11 17 10 -39 0
43 -29 -27 -21 0
-13 -38 39 -1 0
-28 2 -24 15 0
-39 48 34 -37 0
49 -20 -30 -33 0
-49 17 20 21 0
31 2 -20 37 0
-8 -40 -48 34 0
-25 2 -11 28 0
6 -24 3 -25 0
-27 -45 41 48 0
31 -48 -1 37 0
-41 20 -47 11 0
39 -14 26 -20 0
-10 -38 22 -40 0
19 30 45 -9 0
-12 -30 2 39 0
50 36 44 -46 0
-47 -45 25 -27 0
-17 31 7 -27 0
-29 -3 -15 44 0
-43 -13 12 -14 0
18 -46 8 -7 0
47 -20 -16 27 0
36 -38 9 -10 0
45 30 -43 18 0
27 -14 20 44 0
-39 -3 46 -26 0
11 34 -19 -14 0
-46 23 1 -45 0
-42 26 -22 50 0
-43 -20 49 -5 0
27 -17 -38 5 0
-5 -25 -2 -24 0
-6 -45 -13 -49 0
16 44 -9 24 0
-1 -12 -22 29 0
12 9 42 40 0
23 -42 -13 -28 0
40 -9 48 11 0
48 36 -14 4 0
8 23 -31 47 0
10 26 1 -49 0
7 41 -42 19 0
-38 -7 32 -39 0
-16 -34 44 12 0
44 42 -2 -45 0
-16 35 -17 -9 0
-23 38 -13 -18 0
-20 34 -33 -45 0
26 -28 -16 20 0
44 -26 1 -11 0
18 -19 -26 17 0
-26 -44 41 -45 0
-1 -23 13 -39 0
-17 46 2 19 0
-22 -46 35 -3 0
10 35 29 -15 0
25 -39 4 -40 0
-46 -27 -49 -14 0
44 46 -31 18 0
-3 4 -40 -19 0
16 12 32 -14 0
9 -35 38 -39 0
-41 18 -49 48 0
-32 9 -26 28 0
47 1 -18 39 0
-42 22 1 14 0
-3 8 11 41 0
-50 37 -5 -26 0
-29 9 36 23 0
35 11 -45 30 0
18 -38 -10 -11 0
-34 30 2 39 0
27 -42 2 46 0
24 -26 -46 7 0
1 -38 28 26 0
43 6 49 1 0
8 -34 46 -36 0
-7 2 -11 22 0
3 -32 -15 28 0
-43 -3 -34 29 0
-2 -29 14 19 0
-36 -23 25 -19 0
-26 33 -24 -21 0
34 13 41 38 0
-3 41 35 37 0
2 39 47 33 0
10 41 -3 25 0
21 -34 20 -45 0
-18 -23 45 -38 0
47 -44 -37 -43 0
25 11 -22 -8 0
50 -3 44 34 0
48 -40 -35 -47 0
-44 10 -50 -30 0
-19 40 22 -30 0
21 -9 -18 -13 0
17 24 2 50 0
44 42 -35 6 0
-39 3 -33 20 0
35 12 -37 45 0
-24 -8 -16 31 0
20 -12 29 15 0
-41 7 -49 3 0
16 49 17 32 0
21 -22 4 -32 0
-6 36 -16 47 0
-4 14 11 29 0
-47 -9 40 -45 0
16 -48 -14 -37 0
-2 -27 -48 23 0
-4 -42 -37 7 0
-30 -42 -34 -33 0
15 34 35 -1 0
27 32 -42 34 0
8 -29 32 40 0
-37 -49 44 -42 0
-50 -19 40 -23 0
-18 41 31 32 0
20 1 -35 -25 0
-43 -50 -38 40 0
-1 -45 -12 30 0
-24 1 19 16 0
-5 3 42 -21 0
23 -21 11 20 0
36 48 -9 27 0
-45 -18 -5 16 0
28 29 8 6 0
-41 17 -8 -29 0
42 -37 1 -2 0
-48 -33 27 41 0
-2 39 -26 30 0
28 -9 -7 19 0
19 -2 -29 34 0
17 -42 21 -33 0
-41 37 9 34 0
-39 -4 -34 38 0
-3 16 -10 -12 0
21 3 47 46 0
33 22 3 18 0
4 16 -46 28 0
-13 -44 27 23 0
9 17 -30 -31 0
-37 -23 -25 3 0
-4 40 -27 16 0
-36 39 -48 -5 0
-50 -8 -41 -43 0
50 49 -12 -23 0
-40 -27 21 -8 0
28 -25 12 -31 0
-32 -30 -36 -34 0
-3 -49 45 -34 0
15 41 -26 -3 0
50 -44 25 8 0
-15 46 -24 -7 0
24 49 5 -19 0
-15 -16 45 35 0
-14 21 41 -4 0
-17 36 1 -22 0
50 15 -11 6 0
-49 12 26 22 0
44 -3 -11 31 0
-24 10 -40 22 0
41 36 10 40 0
-37 28 -19 43 0
49 -35 -24 -36 0
6 -25 44 19 0
5 25 24 -36 0
-24 34 36 13 0
10 -26 30 -19 0
15 -23 -16 17 0
-24 -7 -41 -11 0
36 -2 -27 42 0
-1 39 -41 33 0
-37 -33 36 -13 0
-25 42 11 -35 0
32 42 21 12 0
-15 -39 1 38 0
-37 40 47 -1 0
-11 -5 -8 -48 0
14 10 37 9 0
-8 47 -32 24 0
-2 -49 23 -35 0
39 16 32 36 0
8 46 -36 2 0
47 6 -1 43 0
28 45 30 -2 0
33 -50 30 29 0
-9 11 -10 5 0
-45 -18 41 3 0
-19 25 20 44 0
11 4 -49 19 0
-47 11 -49 46 0
24 9 19 -36 0
12 19 42 -10 0
7 -37 -38 -8 0
-37 14 25 -15 0
26 -44 25 -48 0
-11 21 37 -15 0
29 -40 -35 -20 0
-5 29 2 -28 0
37 31 -19 4 0
50 1 -27 38 0
35 -37 40 50 0
-5 -18 -24 19 0
-3 -2 -1 26 0
-22 -10 -1 -28 0
-12 41 -39 9 0
21 7 -6 -5 0
36 48 12 7 0
-2 -9 40 6 0
-47 39 -2 22 0
-32 39 -27 -34 0
-49 -9 33 26 0
-11 -30 8 -48 0
-24 8 -49 -2 0
-28 -30 43 23 0
-37 4 -21 43 0
2 -46 39 -26 0
45 44 -20 -39 0
-11 39 20 -2 0
2 32 9 -10 0
-39 -41 -35 38 0
40 5 -24 19 0
2 46 7 11 0
-24 39 1 -21 0
46 -2 -49 -22 0
-8 -33 36 -3 0
5 22 -13 -32 0
-18 -47 -21 -29 0
36 -20 8 -46 0
39 -21 4 7 0
-37 6 10 -3 0
-2 -23 -11 -13 0
41 -37 -15 -26 0
-24 28 16 29 0
11 -50 40 -31 0
-33 50 -19 -45 0
-38 -11 1 13 0
11 7 40 46 0
-16 -23 -39 -20 0
-11 22 25 3 0
-46 42 45 -49 0
-24 39 37 41 0
20 3 31 9 0
-43 -7 12 45 0
20 43 5 -13 0
12 7 11 27 0
3 20 -13 46 0
50 -32 -27 -1 0
13 -15 -46 -1 0
37 -5 -49 -39 0
16 -5 -45 -34 0
13 -10 21 -2 0
38 6 7 30 0
36 5 -19 34 0
-22 -24 -33 -28 0
33 8 -50 30 0
31 -50 -38 10 0
28 -10 14 -35 0
11 -37 9 47 0
1 6 7 -5 0
23 9 26 -45 0
2 -50 4 -24 0
-34 35 -38 -44 0
34 -42 -3 -49 0
-40 -44 1 -50 0
-29 26 38 28 0
26 7 36 6 0
13 20 -16 -29 0
-28 -14 -48 16 0
12 -3 43 -32 0
-14 -1 21 -24 0
28 45 -4 -44 0
-1 -10 8 18 0
17 15 43 -50 0
31 16 17 36 0
-7 32 27 -37 0
15 48 -13 16 0
38 49 6 -29 0
43 -38 -36 -35 0
-6 22 -30 -9 0
31 1 -17 47 0
6 -47 -17 -48 0
35 -43 -2 9 0
-25 27 5 29 0
44 -26 28 -42 0
9 13 26 24 0
-47 19 -7 16 0
32 -18 -41 -14 0
10 -20 -5 -29 0
-12 -19 -38 45 0
-30 47 22 -33 0
-15 -32 11 -30 0
26 -43 29 11 0
-11 4 -33 -39 0
-22 8 6 11 0
-6 -37 -7 -38 0
-38 4 -47 -24 0
16 29 47 5 0
-8 -25 17 34 0
-29 11 -37 6 0
-11 9 26 -50 0
-35 -36 19 13 0
-6 -21 -8 -47 0
46 21 47 -29 0
-19 16 44 45 0
-23 13 28 -7 0
-1 46 -23 -25 0
-21 46 -13 -18 0
-1 -10 -50 -46 0
-46 -19 47 17 0
12 26 -24 25 0
-6 -32 3 34 0
-11 45 35 24 0
49 17 31 38 0
-17 -15 2 -41 0
-47 -6 -41 43 0
24 -50 -41 -18 0
2 37 -14 -8 0
49 -12 32 -15 0
-32 -8 -9 33 0
-36 24 -37 -25 0
-48 -26 -16 -27 0
-7 -6 -28 -20 0
39 -35 -30 28 0
4 -28 -7 40 0
-6 20 18 40 0
29 -40 31 -50 0
11 44 -27 -48 0
49 -44 -4 12 0
2 19 -28 -35 0
-49 -32 3 -11 0
19 15 44 16 0
-19 31 -42 -46 0
-15 8 27 -10 0
-27 48 8 47 0
-40 19 -45 -10 0
-19 -36 -35 42 0
-15 -1 -7 13 0
11 -32 -16 -43 0
-46 -2 -16 10 0
3 32 33 2 0
-25 23 -47 -34 0
44 -9 7 -31 0
24 -47 39 6 0
-20 -46 -40 35 0
-30 -46 -26 -23 0
34 11 46 -5 0
10 11 48 -43 0
29 18 26 38 0
-8 27 -26 -7 0
-31 -6 -9 -36 0
-2 -5 -3 -23 0
29 39 38 15 0
-6 23 -17 3 0
20 -31 6 -50 0
-36 39 -50 14 0
36 48 -27 -24 0
2 -3 7 -37 0
-37 34 49 18 0
29 -6 17 36 0
-44 -39 33 -14 0
-45 15 -13 17 0
-6 -13 9 32 0
-19 21 15 -16 0
34 -28 4 16 0
-25 -9 -15 48 0
-44 48 29 -14 0
-17 -30 20 32 0
15 -8 42 48 0
50 -45 -38 -3 0
16 12 -37 -14 0
1 21 38 35 0
-32 15 44 43 0
21 23 25 -28 0
39 45 -8 17 0
41 14 29 -35 0
36 -29 24 30 0
-35 28 2 -34 0
31 34 27 49 0
-13 -35 -43 47 0
-21 19 -35 -22 0
34 -13 -44 -16 0
-14 -19 -26 15 0
-12 1 22 -5 0
28 11 -17 -19 0
28 21 -17 -22 0
6 -30 16 -32 0
-18 -36 7 -47 0
31 -7 49 -1 0
-30 -27 15 11 0
-38 -41 -14 -11 0
-50 -12 34 -31 0
49 -37 -29 -36 0
13 -48 31 30 0
10 -40 7 -22 0
1 -10 -34 -42 0
33 4 24 2 0
-50 -16 21 -43 0
-45 -19 -1 -48 0
28 9 36 44 0
-36 3 -12 13 0
-33 -15 40 -47 0
-9 15 1 22 0
41 19 22 -48 0
-19 -46 -24 -18 0
-22 32 -39 -36 0
-16 -44 -49 36 0
-13 3 -11 50 0
-30 7 -6 -40 0
2 14 -31 22 0
21 -6 -2 -18 0
7 8 -42 2 0
5 7 -15 -6 0
44 -5 29 2 0
-30 -23 -18 -24 0
-10 5 -19 37 0
18 3 -13 14 0
48 -7 43 22 0
-22 -20 37 -27 0
42 19 4 -8 0
-25 -44 14 -16 0
-31 -41 34 -10 0
44 -24 -1 17 0
-18 1 46 36 0
17 16 -6 46 0
2 28 35 13 0
13 -43 -45 -28 0
-17 -39 -48 47 0
13 10 18 -46 0
7 21 -3 -43 0
-46 15 -21 11 0
