c family=4-SAT n=50 instance=5 seed=726001144 models=92
c order 44 10 14 6 21 25 20 15 3 16 22 13 9 8 12 29 2 34 32 4 31 45 5 40 37 35 42 17 50 18 30 39 7 49 27 41 26 38 23 24 33 1 19 11 48 28 46 43 36 47
c order 46 21 17 7 24 19 10 38 6 33 2 32 26 27 8 41 16 15 11 30 22 3 35 9 37 42 14 44 18 23 29 12 40 47 13 20 39 50 48 4 34 28 43 45 49 36 25 5 31 1
c order 32 18 19 5 30 15 38 4 6 10 23 34 1 37 7 29 28 47 27 48 43 14 16 35 50 36 24 11 46 26 13 12 40 22 45 39 44 3 17 33 9 21 41 8 31 42 49 2 25 20
c order 39 24 29 22 47 42 31 34 41 7 32 15 2 10 1 49 30 50 5 40 46 12 3 38 26 35 8 36 18 19 43 17 4 21 27 48 45 11 23 37 16 20 9 28 14 25 33 13 44 6
c order 11 31 29 49 9 23 7 2 32 24 17 33 4 14 5 28 18 30 19 40 16 39 25 22 50 34 6 1 45 10 48 3 41 38 42 37 15 47 20 8 27 36 35 12 44 43 46 26 13 21
c order 43 4 33 18 37 2 44 6 11 40 12 25 19 7 29 16 20 17 38 28 36 14 32 48 21 13 8 47 27 23 35 1 24 10 3 5 42 50 46 41 34 49 15 30 26 31 45 39 22 9
c order 46 50 20 19 39 40 37 49 18 44 10 30 11 43 45 29 8 25 9 15 41 28 17 36 2 26 48 14 5 21 6 35 1 3 12 38 31 47 16 32 4 22 23 34 27 42 24 33 13 7
c order 21 28 26 30 6 9 34 32 14 12 20 8 24 1 44 37 15 48 19 23 5 46 11 16 45 29 36 18 27 42 25 3 38 13 31 35 22 40 7 33 41 2 4 47 10 39 49 50 17 43
c order 31 34 44 43 38 27 5 41 19 12 48 40 21 17 46 26 15 16 3 7 37 22 6 18 14 35 49 10 32 11 28 13 30 1 8 25 39 50 42 47 9 24 33 20 4 36 2 23 45 29
c order 19 40 10 34 16 27 50 28 39 42 31 30 12 25 21 41 7 26 32 44 46 3 1 45 13 5 22 18 35 24 38 43 23 15 49 8 47 36 33 6 4 20 9 2 14 11 48 37 29 17
p cnf 50 480
22 39 6 -12 0
-46 -43 -16 -3 0
23 -32 11 33 0
-33 -14 28 42 0
11 35 50 -29 0
23 18 -38 44 0
17 -33 38 2 0
-30 -34 -8 16 0
34 12 8 7 0
-31 17 -18 -32 0
45 47 -34 -20 0
15 -37 -2 18 0
23 8 -42 50 0
37 44 20 32 0
-3 47 -21 11 0
-37 23 -28 -42 0
-37 23 -2 -39 0
49 -10 44 31 0
11 10 29 -12 0
-22 -29 -1 4 0
42 -8 46 9 0
-11 42 12 46 0
16 40 -27 -29 0
-19 -2 11 41 0
31 -34 38 -39 0
-16 -25 -14 17 0
32 -5 6 11 0
-45 26 39 44 0
-50 -19 -7 10 0
-11 -3 23 -7 0
-13 -8 -40 -27 0
35 23 38 -6 0
31 -44 -24 -11 0
33 15 44 -32 0
-20 -24 13 33 0
-50 -13 -24 -27 0
-39 32 -50 -35 0
-38 -2 -10 39 0
-17 14 5 49 0
14 -31 9 46 0
4 1 14 -39 0
-34 27 40 37 0
32 -30 -25 -49 0
20 -32 1 35 0
-20 31 -2 -12 0
-29 -31 26 50 0
-50 -2 20 -41 0
15 49 -11 -40 0
-7 -13 50 40 0
24 34 37 -36 0
3 37 11 9 0
40 13 -46 42 0
-31 -24 44 39 0
9 -21 45 -36 0
-5 21 -8 -6 0
-48 20 50 49 0
-5 -47 -32 18 0
33 -40 18 20 0
1 15 13 -16 0
23 11 -36 22 0
31 4 -45 41 0
-9 21 -8 -33 0
22 -4 36 -42 0
-44 14 -13 27 0
-45 -22 12 11 0
-19 3 -31 16 0
-48 -49 -22 -38 0
-20 16 25 9 0
40 -17 15 -32 0
19 -44 50 33 0
-17 -40 -9 26 0
-8 43 -32 -12 0
-32 -20 5 -2 0
18 -28 -15 49 0
37 23 36 -1 0
-49 20 -11 27 0
5 24 43 -35 0
8 -47 -39 -10 0
4 36 31 -30 0
-12 -27 -17 42 0
-31 13 38 -35 0
-33 48 4 12 0
8 39 -35 21 0
-40 -18 41 -44 0
-44 -45 5 41 0
43 5 -18 -10 0
-15 -9 23 26 0
-7 -9 38 -2 0
-4 39 38 -16 0
-48 18 15 32 0
-42 -50 -36 49 0
-37 22 13 10 0
37 -11 45 -36 0
50 13 -45 22 0
-19 28 47 1 0
23 -9 17 -1 0
8 -17 -14 -32 0
30 50 5 -29 0
-37 42 -40 32 0
29 -44 14 -7 0
-14 -39 10 13 0
6 -31 -27 -35 0
-49 -10 2 -27 0
-19 -46 -9 39 0
28 -31 -3 -10 0
23 -18 15 35 0
-41 -14 5 24 0
4 -15 -3 20 0
-14 -45 29 4 0
49 44 -24 16 0
-42 -24 -32 -15 0
24 -50 -3 31 0
-49 -3 14 27 0
-44 38 -17 5 0
-46 49 23 -47 0
-43 50 4 -48 0
-43 33 34 -5 0
26 8 37 -4 0
4 31 -33 -23 0
47 -45 -3 6 0
-39 25 -16 -48 0
9 -32 14 12 0
19 26 14 -1 0
-19 -20 -5 -28 0
-45 -10 14 -37 0
-25 5 -29 -47 0
3 -27 14 8 0
-1 -12 19 23 0
42 45 18 40 0
33 -6 -16 -42 0
-31 -47 44 20 0
11 4 -46 45 0
-30 -35 12 45 0
-12 33 -4 43 0
-25 49 11 -13 0
-26 44 4 9 0
16 27 47 -34 0
-19 7 -27 -28 0
16 37 -42 34 0
-19 -24 47 -6 0
-10 -21 -38 44 0
7 -20 -34 32 0
-24 -39 -27 32 0
-40 -15 12 -21 0
11 -13 -23 -15 0
17 23 7 -49 0
-40 -39 4 -46 0
23 -27 -35 9 0
37 -4 7 -25 0
-38 -15 -34 -13 0
7 20 11 -26 0
-20 24 47 -49 0
-10 28 -13 46 0
-27 -45 -39 44 0
-6 32 -2 29 0
42 21 -1 26 0
-39 -24 -31 -26 0
-12 -4 -7 24 0
-47 26 15 -36 0
-29 16 -34 42 0
-31 -9 46 -18 0
-1 18 -43 -14 0
-45 -2 11 38 0
27 38 -36 29 0
-21 -28 -32 18 0
-36 45 39 -20 0
-5 7 37 -48 0
26 -42 11 -15 0
20 50 2 -24 0
12 -17 2 22 0
16 9 -37 18 0
-6 -50 -46 -18 0
-15 24 -8 11 0
1 -21 38 2 0
36 -13 39 -15 0
-25 -8 -45 26 0
40 20 47 -49 0
34 -5 26 -18 0
-49 29 42 46 0
-25 6 -36 17 0
9 -6 -15 -11 0
-30 -13 37 5 0
-10 -25 30 -1 0
28 -41 -4 -9 0
31 37 -26 32 0
-23 -18 43 -30 0
-49 -50 -11 -42 0
-7 9 14 23 0
-29 -49 11 32 0
15 6 30 36 0
-32 24 33 -36 0
-45 -13 -3 -7 0
4 -50 -27 -37 0
5 23 46 49 0
-28 -17 -22 5 0
49 -19 -48 -4 0
-44 -28 30 -31 0
-32 -46 -20 -33 0
-29 -48 -6 -39 0
-1 -32 46 37 0
18 -21 -7 10 0
-29 -6 47 32 0
22 30 -44 -41 0
-44 10 -31 18 0
10 39 -22 -36 0
5 -9 -24 42 0
15 -45 27 26 0
-4 -19 20 43 0
-35 39 7 -45 0
38 4 -1 -30 0
-7 -15 -49 -45 0
-33 -48 36 29 0
32 27 -31 17 0
-43 11 18 -29 0
14 -31 36 -8 0
-4 -48 45 15 0
26 43 -21 -44 0
37 -1 31 -22 0
-36 11 30 38 0
14 3 -16 50 0
-9 -50 14 -38 0
-12 6 24 -20 0
26 20 8 -18 0
-42 11 12 44 0
-18 -28 23 -26 0
17 30 43 -46 0
-9 -4 15 -13 0
-16 2 44 3 0
-14 -13 -39 -47 0
50 -20 48 13 0
14 -35 12 10 0
3 -47 -21 -27 0
-47 27 35 31 0
19 -32 4 -46 0
5 14 7 19 0
-47 30 -39 33 0
31 24 -4 -22 0
-46 49 35 -39 0
-47 -17 8 -22 0
-1 37 50 -33 0
18 -20 1 -6 0
45 -38 -4 17 0
-21 19 39 41 0
-41 22 -2 -13 0
39 37 34 43 0
8 -22 37 31 0
-19 -33 24 16 0
-33 18 -1 -43 0
8 -40 37 11 0
46 -28 -11 -23 0
12 45 11 47 0
38 -30 13 4 0
-47 50 -10 -13 0
16 -27 -29 33 0
-14 -48 49 -45 0
-49 35 9 -25 0
-44 19 27 -6 0
-22 -33 36 -38 0
-14 -25 -20 -28 0
-15 -4 -9 21 0
42 -18 37 31 0
-50 -7 12 -30 0
8 -2 11 28 0
46 -11 -1 -15 0
-26 32 -24 33 0
-45 2 -37 -20 0
-20 11 14 -6 0
-29 1 -36 6 0
22 31 -11 35 0
11 -21 4 -45 0
21 -1 -49 24 0
41 21 -46 17 0
-34 -42 11 -41 0
21 -12 1 -40 0
-12 -6 31 10 0
-41 -1 -5 -22 0
14 -46 -24 -35 0
22 24 -3 -27 0
-29 24 45 48 0
10 13 32 39 0
-46 -50 19 -45 0
50 -33 15 -36 0
-44 -48 10 -49 0
48 50 17 -38 0
-34 22 -47 35 0
35 -19 12 -14 0
-43 -29 -18 -12 0
-5 7 17 -6 0
19 8 38 17 0
13 21 -25 -50 0
-20 5 49 -50 0
-1 30 12 24 0
31 -20 -44 2 0
-41 32 2 -37 0
-38 -24 -31 -42 0
-3 -39 -33 -7 0
-50 16 -6 -11 0
38 -42 -34 8 0
-12 10 8 -13 0
45 -35 38 11 0
-30 -22 50 5 0
50 -15 -26 -22 0
-36 30 24 1 0
27 -32 -19 -14 0
35 14 -32 37 0
-4 50 41 46 0
-34 -12 -49 -48 0
-20 12 -39 49 0
-44 -5 18 -45 0
-16 -49 -26 -22 0
-48 -47 41 -23 0
12 23 6 39 0
-8 42 50 43 0
-11 -40 -49 50 0
32 8 49 -43 0
-2 -21 -12 13 0
30 42 -18 32 0
-29 7 -32 16 0
-15 42 18 -47 0
18 1 -9 -16 0
33 -8 -43 -23 0
40 -45 22 33 0
-41 -47 -44 -43 0
-12 7 3 -29 0
-17 -46 -20 -40 0
-10 -46 -3 -29 0
-24 -1 -19 -10 0
-10 2 19 24 0
-19 11 29 -24 0
-48 -6 -35 12 0
11 12 25 -40 0
-7 22 50 -8 0
-8 -27 -38 3 0
36 -12 26 -10 0
25 14 4 15 0
48 18 33 16 0
1 17 -41 -44 0
-22 -11 46 15 0
2 -47 1 31 0
6 -38 -42 31 0
-5 47 -38 17 0
10 21 -49 -32 0
37 30 4 3 0
28 38 19 -13 0
4 -45 -3 32 0
3 -11 47 18 0
28 -46 -48 -29 0
4 26 -46 35 0
37 -34 -43 -30 0
-4 36 49 6 0
-31 -1 18 -38 0
28 -6 17 49 0
-48 45 10 11 0
9 31 -44 -19 0
-40 44 36 -18 0
-43 -22 6 -36 0
16 -11 -12 -25 0
-24 -3 28 38 0
-48 46 24 -27 0
-26 20 24 34 0
-46 -50 -12 35 0
-40 -17 4 11 0
17 18 -46 -38 0
-46 23 -3 -17 0
-2 -45 -26 -37 0
33 13 37 -38 0
-37 -8 -17 32 0
-34 50 -23 15 0
-48 11 -14 45 0
-8 31 -43 1 0
-3 -15 -24 -7 0
-49 31 -38 47 0
17 40 2 49 0
-38 2 -15 -44 0
-7 -33 -34 -24 0
17 -20 8 40 0
37 13 -17 3 0
-38 -21 -5 -3 0
-7 39 15 -37 0
22 -39 40 -33 0
26 13 -23 -47 0
-11 -32 27 24 0
28 17 15 -29 0
40 -1 -13 -16 0
41 -7 -26 2 0
16 27 -43 23 0
12 -24 48 -34 0
40 -36 35 -34 0
37 -13 20 -11 0
45 18 -2 17 0
-19 44 -50 -13 0
-12 -46 37 -38 0
5 -16 -30 31 0
47 -11 34 42 0
-50 45 -17 -30 0
-42 -25 -20 -36 0
-8 -11 -30 41 0
-1 -23 28 30 0
15 25 44 34 0
-17 -16 -36 14 0
13 1 28 7 0
-20 16 -42 -31 0
48 24 35 -26 0
40 31 -25 -44 0
39 35 -28 -48 0
20 -38 -31 -45 0
42 11 -50 38 0
-4 48 30 -27 0
35 27 -47 42 0
-48 8 -15 25 0
21 33 7 -26 0
-45 -2 40 7 0
23 11 47 33 0
-38 36 -15 -40 0
34 -17 -44 -23 0
-28 -49 -36 23 0
-34 -27 -22 -16 0
-27 4 45 14 0
-44 -29 -16 9 0
10 15 -9 -17 0
4 19 -50 2 0
-13 43 9 44 0
-31 -18 41 12 0
45 25 29 8 0
-21 31 -49 -5 0
25 -43 16 -5 0
-23 -43 -36 -41 0
-15 -41 2 22 0
-11 -49 14 -17 0
-21 39 -29 -37 0
30 16 22 11 0
18 13 -9 4 0
-43 -15 -12 -38 0
11 -41 29 -22 0
-38 23 45 -16 0
-26 -12 -36 32 0
-35 22 13 -38 0
14 28 -25 20 0
5 -2 30 7 0
24 48 23 44 0
35 22 36 29 0
-23 25 8 -49 0
13 -20 -36 41 0
-2 17 -33 8 0
-36 -43 -19 35 0
-27 18 17 32 0
40 9 35 5 0
41 6 10 -7 0
32 -46 43 -40 0
-33 30 -29 -46 0
-43 -44 -8 -28 0
-35 -27 8 -9 0
-49 -2 21 -23 0
30 16 -29 33 0
-10 27 -9 -14 0
-43 -34 14 -36 0
45 36 11 -18 0
21 -41 40 34 0
-44 45 -27 39 0
10 35 -20 -9 0
-27 -49 1 -19 0
16 -27 19 -46 0
-10 -38 31 -21 0
46 -2 -21 39 0
-4 -3 40 -7 0
-43 20 30 22 0
8 -20 -44 36 0
31 5 -34 -24 0
41 11 16 -23 0
-48 -47 -46 29 0
14 -7 1 32 0
-8 -24 -29 9 0
49 13 -22 -30 0
-20 -40 -37 -39 0
-4 -8 23 -5 0
-38 13 25 -26 0
-3 24 -38 47 0
12 -43 -26 31 0
46 -36 20 -50 0
-39 -33 -18 20 0
