c family=4-SAT n=50 instance=1 seed=726001144 models=9
c order 13 28 1 8 33 21 39 48 7 6 18 12 9 45 47 42 31 17 22 38 20 24 25 10 14 23 34 30 2 36 41 11 44 50 49 43 4 19 15 35 46 40 27 16 5 26 37 32 3 29
c order 8 36 29 18 33 11 34 28 25 31 38 12 7 37 35 24 1 47 17 40 3 42 10 2 27 50 45 6 21 49 46 5 26 14 48 9 30 44 20 32 15 41 22 13 16 23 39 4 19 43
c order 35 10 43 32 49 39 40 30 27 11 29 26 7 18 44 24 38 16 19 50 28 8 17 3 13 21 37 5 36 33 48 45 2 31 12 34 15 47 6 46 20 42 23 14 41 4 22 9 1 25
c order 46 26 47 6 37 22 48 43 45 4 17 20 32 13 39 11 21 5 41 38 25 34 2 19 33 36 29 10 12 16 24 31 44 7 49 3 40 42 18 50 8 27 15 14 30 28 23 1 9 35
c order 38 2 18 8 39 41 24 37 50 7 42 6 9 19 27 47 31 28 49 13 23 14 35 43 40 34 44 16 29 10 32 20 15 5 21 3 26 4 46 12 30 17 45 22 1 25 33 48 11 36
c order 32 25 7 17 1 20 39 15 34 50 35 3 33 40 45 9 49 10 21 37 38 29 28 36 46 41 24 30 26 4 31 18 22 44 16 19 43 14 47 13 11 8 23 5 42 6 48 2 27 12
c order 4 46 8 22 12 42 20 26 1 10 36 29 17 16 2 15 18 5 3 30 49 19 41 9 28 11 27 14 38 24 7 44 39 40 35 23 32 48 25 43 50 45 47 13 6 31 37 21 33 34
c order 8 23 10 40 6 42 11 12 4 36 21 47 24 35 44 3 13 25 32 22 39 18 37 28 2 16 46 49 20 50 48 19 15 30 17 45 9 33 26 1 41 31 5 7 29 43 14 38 34 27
c order 47 23 44 19 7 4 21 14 46 20 42 10 25 6 9 26 50 34 48 24 5 22 18 35 40 17 11 37 3 15 38 13 16 30 39 27 12 29 36 43 45 33 32 49 8 31 28 2 1 41
c order 35 33 21 49 30 13 1 37 48 44 5 45 19 34 14 3 47 29 10 38 26 6 24 39 46 2 43 32 8 50 7 15 28 11 18 22 16 40 27 41 42 36 12 31 25 23 9 17 4 20
p cnf 50 480
26 -43 13 12 0
-35 28 3 -48 0
-38 41 -37 -7 0
30 13 12 -49 0
46 22 15 -30 0
-27 -35 -30 -13 0
-27 23 49 -32 0
19 26 37 -10 0
3 -8 -17 37 0
49 35 -16 13 0
13 -31 15 -44 0
1 26 42 44 0
18 16 24 22 0
-24 39 -37 -46 0
25 38 14 -27 0
41 40 -16 -22 0
17 -38 33 16 0
-34 33 31 14 0
33 12 19 -40 0
25 4 42 27 0
33 -2 37 -27 0
-2 -30 26 12 0
38 -49 30 12 0
-43 -44 -8 21 0
36 34 -48 -29 0
50 15 36 -27 0
-49 7 16 -6 0
42 -44 33 16 0
-27 -50 -30 -42 0
2 -40 43 6 0
-6 38 -50 -8 0
-9 6 -3 -29 0
46 31 -42 12 0
25 -29 3 -13 0
4 41 9 -13 0
-48 1 -25 15 0
-44 25 -27 34 0
-47 -28 -32 -33 0
43 28 35 -23 0
-22 -10 9 20 0
-36 42 -44 -14 0
-6 -31 -1 -11 0
27 3 -17 23 0
49 35 -21 -39 0
16 -37 2 -1 0
13 -18 -35 17 0
-4 -25 34 40 0
8 18 -24 -12 0
20 -12 -13 -14 0
11 -29 -1 -50 0
3 -25 -24 -6 0
15 19 44 14 0
-31 -12 35 4 0
-7 -41 33 13 0
-11 -30 4 -43 0
4 -38 44 -45 0
-8 -2 -17 27 0
-37 -23 36 38 0
37 -23 40 -43 0
-6 -48 -14 20 0
-8 13 -41 12 0
32 18 -35 -28 0
-19 21 -28 -20 0
43 20 -11 22 0
18 -11 -6 47 0
-4 -32 45 -19 0
-10 22 -47 41 0
15 39 26 44 0
-21 22 -50 -35 0
-1 -35 -21 39 0
-21 13 -31 -2 0
-49 41 -33 -26 0
-33 40 -10 21 0
-48 -22 42 -3 0
-26 -46 19 -38 0
-7 -9 -2 21 0
-21 -14 -5 -10 0
-3 25 -47 35 0
-42 45 -2 -18 0
29 -7 8 -32 0
41 8 -25 21 0
-13 24 6 -10 0
-1 41 -20 29 0
23 9 38 -20 0
19 -45 -32 34 0
-39 -37 -49 32 0
-50 37 4 14 0
20 -15 33 29 0
-37 -17 36 11 0
-24 7 -30 44 0
-33 -13 -9 37 0
10 -22 42 -31 0
31 -8 -45 33 0
-36 8 -17 -14 0
34 -18 39 -32 0
3 -29 -23 50 0
-1 36 10 7 0
20 18 -22 30 0
1 36 48 32 0
47 -15 -39 18 0
48 -47 -21 -26 0
-10 -34 8 43 0
10 18 -48 -46 0
-47 30 -4 -28 0
11 44 -37 -29 0
30 23 31 -37 0
-3 47 27 -41 0
-8 35 -29 -37 0
-10 -27 -1 48 0
37 15 -9 -39 0
9 -38 34 -46 0
-7 -9 32 24 0
26 -15 5 44 0
-49 -6 -20 37 0
-46 -23 -24 5 0
3 30 -31 27 0
-46 34 -5 -26 0
-22 34 -8 48 0
21 6 1 -33 0
38 -47 -6 -25 0
-17 -22 8 -40 0
-18 -42 -28 43 0
9 32 -13 43 0
21 -45 33 -41 0
29 -19 36 28 0
3 18 -5 -44 0
7 -12 -8 43 0
-49 6 13 34 0
15 -18 -20 27 0
-22 -17 -24 38 0
37 -24 -27 -30 0
-30 -34 32 42 0
27 -22 33 -25 0
-20 4 -15 -14 0
40 -42 -28 27 0
-20 31 -48 -5 0
-35 50 -17 -36 0
39 -26 -13 -40 0
2 -24 -10 1 0
8 49 9 -41 0
10 23 -34 38 0
45 -24 -40 14 0
22 49 -26 39 0
-48 -28 13 1 0
-13 -10 -44 -45 0
-23 18 34 29 0
-20 11 18 23 0
-33 3 -40 47 0
-21 27 -48 8 0
-45 37 22 -11 0
-20 49 38 7 0
-46 -27 -8 5 0
-19 -45 -7 1 0
2 25 -47 39 0
33 -18 -6 -8 0
27 35 -37 39 0
-30 21 2 25 0
-10 -14 -7 -16 0
-41 13 9 -25 0
-34 -6 26 -13 0
-27 -12 34 13 0
22 6 43 -49 0
9 14 -18 34 0
-14 -44 20 16 0
-49 -35 8 -19 0
-21 -9 -32 3 0
37 36 33 -26 0
-10 -5 36 -11 0
-7 34 6 -13 0
20 26 -49 19 0
-18 -1 40 -27 0
-15 35 -2 30 0
19 -31 10 -14 0
2 -30 -16 23 0
46 -19 25 16 0
42 -48 30 1 0
7 -48 -8 -26 0
4 -42 15 19 0
-6 -37 -35 11 0
-26 -28 49 -22 0
-11 28 -23 -42 0
-39 -31 -3 -10 0
-30 -7 32 41 0
-24 -42 23 12 0
50 47 5 -40 0
18 -44 22 49 0
-4 -13 35 -24 0
-3 18 5 7 0
3 12 -19 17 0
42 8 27 -9 0
44 -26 -43 -38 0
-39 26 -44 -2 0
2 35 18 -44 0
45 -37 -9 28 0
-16 32 -17 20 0
5 27 -17 -50 0
46 31 -16 -42 0
-19 -36 -1 25 0
41 -27 42 -28 0
-12 10 27 -16 0
-11 -28 38 33 0
40 -11 33 9 0
31 -43 -48 24 0
36 2 11 5 0
20 37 17 26 0
-18 -29 30 -41 0
26 -1 22 2 0
-47 -13 21 -14 0
18 7 -49 13 0
-28 12 -35 11 0
13 -47 -12 -40 0
14 -33 2 -9 0
-16 -6 34 1 0
8 -50 20 36 0
-2 38 42 -14 0
-35 -28 -50 12 0
-41 35 4 -46 0
-11 -36 -34 26 0
-45 18 -20 -2 0
-21 -1 -13 -28 0
-28 -23 -22 16 0
19 18 -44 16 0
5 40 38 -44 0
-43 11 30 14 0
24 -41 -39 16 0
-30 -19 -15 -8 0
-27 -47 28 -40 0
-19 -28 37 -13 0
-24 -9 -50 8 0
-28 9 -19 35 0
12 -16 36 5 0
47 -22 45 -39 0
-22 -1 -44 21 0
48 46 -41 31 0
26 9 -5 30 0
-13 -44 1 42 0
1 -24 -29 -17 0
-33 -15 -23 50 0
-39 -27 -45 28 0
33 -25 -39 -6 0
-18 37 43 4 0
32 -23 -46 9 0
13 38 -50 -14 0
34 -29 1 33 0
26 11 3 7 0
6 20 -2 -33 0
-18 19 39 -2 0
1 -27 31 -46 0
41 2 -29 -9 0
-36 40 -9 31 0
-5 38 25 14 0
29 -19 18 4 0
13 5 -11 -3 0
-27 -1 18 -23 0
8 22 14 33 0
32 16 -43 -19 0
16 -40 45 42 0
-5 11 39 -32 0
-49 -42 -38 48 0
8 34 -37 13 0
36 39 -9 -17 0
-19 24 27 23 0
-10 48 23 -34 0
42 2 -13 14 0
24 -37 -47 2 0
-3 10 -23 -36 0
-39 33 47 32 0
27 42 47 11 0
24 -31 43 -21 0
21 -35 31 24 0
-46 -44 -33 23 0
-34 -43 -26 -14 0
-47 22 19 -44 0
-49 23 -42 44 0
-10 -18 -28 13 0
46 -1 -26 21 0
35 3 -6 -42 0
12 -14 -31 20 0
-36 -44 -50 -6 0
3 14 -4 19 0
38 -18 40 -36 0
-18 22 -5 31 0
-27 -39 -26 -9 0
22 -16 27 -11 0
13 -2 -25 -44 0
-40 -30 -28 19 0
22 -28 39 -31 0
-10 41 35 -25 0
-37 -30 11 36 0
-49 40 15 39 0
41 -30 -17 -27 0
-16 20 -10 -26 0
36 13 -6 -20 0
-19 23 1 6 0
31 -16 8 -49 0
33 47 -29 15 0
10 32 37 -33 0
-39 30 -20 1 0
-9 35 -29 36 0
7 24 48 -21 0
-46 -48 -42 -17 0
45 10 -12 22 0
-42 12 -32 25 0
45 38 -49 4 0
-49 21 10 14 0
22 39 33 46 0
38 -32 50 4 0
2 20 -33 -42 0
-30 47 40 46 0
-7 -44 50 12 0
-1 -4 -7 21 0
-5 36 -2 37 0
-47 -45 -14 28 0
49 25 36 33 0
-32 3 11 21 0
-32 37 34 -19 0
-21 -1 -45 31 0
30 -47 35 -24 0
48 42 13 -49 0
-22 33 -41 25 0
46 -6 41 34 0
15 49 39 -32 0
-31 48 -17 -50 0
-6 12 4 17 0
-5 1 -15 -27 0
-49 38 -39 9 0
-12 29 15 -8 0
50 -19 30 27 0
46 33 -12 -16 0
19 -29 -2 40 0
-28 -30 15 22 0
-11 23 -26 -7 0
-23 -21 46 19 0
36 -8 -40 -19 0
20 31 -44 -18 0
-45 -6 -42 -35 0
-49 29 25 8 0
-45 37 35 41 0
11 -47 -16 -43 0
14 -44 -6 32 0
-33 -42 49 -4 0
-17 -36 -28 -42 0
41 -15 42 35 0
5 27 -7 -9 0
45 15 -38 9 0
-21 -24 -3 -12 0
29 -47 50 -43 0
-6 -1 29 -27 0
-19 -44 -18 -26 0
-32 34 37 40 0
47 5 44 36 0
20 -9 31 41 0
35 -47 -12 3 0
-35 24 39 -38 0
-40 -17 18 44 0
36 -44 3 -14 0
43 -2 26 -32 0
34 -32 -36 -21 0
-43 -10 -30 -32 0
30 19 -22 -3 0
13 2 -39 -23 0
6 10 48 18 0
43 -47 37 -4 0
-39 40 35 20 0
28 9 -41 -36 0
-32 21 15 37 0
5 -24 -25 -23 0
46 28 -37 -45 0
24 -1 20 48 0
-45 -17 22 -39 0
-11 -12 -8 -38 0
2 -47 -22 -29 0
-15 -42 34 13 0
-39 5 14 11 0
32 11 33 25 0
35 48 27 25 0
-36 49 10 -3 0
-24 -18 45 -42 0
45 32 14 24 0
-35 23 8 -7 0
30 39 -36 -43 0
-27 -20 7 9 0
41 -27 23 -15 0
39 15 27 29 0
32 26 20 25 0
45 49 -39 22 0
13 -41 17 -30 0
45 20 38 -46 0
-48 -10 2 -11 0
20 -24 30 23 0
32 34 15 41 0
46 6 38 44 0
36 8 34 16 0
3 40 26 -34 0
4 -23 -37 12 0
-46 22 13 18 0
-12 -5 -45 15 0
33 11 -15 -5 0
-12 37 10 -33 0
-1 44 -37 42 0
38 -35 49 -10 0
-31 -27 26 3 0
-46 -41 31 -33 0
15 -44 -50 39 0
-19 21 -23 -3 0
37 49 -32 26 0
-40 -1 -30 47 0
-4 -23 -30 45 0
50 -41 47 30 0
47 38 15 14 0
-27 -2 -44 -36 0
-34 -32 -1 45 0
19 28 -27 -26 0
16 -17 -38 -22 0
-35 50 -19 -28 0
18 -4 -36 20 0
-45 16 50 6 0
-7 -15 34 27 0
4 -33 -2 7 0
26 -19 46 -44 0
13 -47 -4 -31 0
-31 29 -36 -45 0
-8 -28 32 -26 0
2 12 36 11 0
-10 32 -12 -5 0
-15 46 -33 41 0
-21 8 37 -32 0
11 22 -4 -2 0
49 -34 -27 -2 0
15 24 41 5 0
47 -11 -30 45 0
-16 37 11 -43 0
-30 40 -4 18 0
43 22 -47 41 0
16 47 -45 -3 0
38 -17 31 -14 0
40 12 41 39 0
50 -30 -41 -38 0
-33 50 -1 18 0
25 -41 -42 37 0
-47 32 40 -19 0
-41 48 40 49 0
-6 -29 16 -19 0
37 -49 -6 -22 0
42 35 10 -33 0
35 43 -36 32 0
-33 23 7 21 0
-18 48 26 -11 0
-32 -38 -3 1 0
20 31 -16 -1 0
-41 -44 -14 -38 0
-45 -49 -22 42 0
29 7 21 6 0
21 43 9 -40 0
-48 14 34 12 0
2 8 -45 30 0
-17 35 23 18 0
-19 20 6 -28 0
-33 34 -2 -3 0
-23 43 8 -47 0
-23 -33 21 41 0
-19 -2 28 6 0
50 -4 10 35 0
-40 32 48 -19 0
-37 14 -11 -22 0
48 36 15 -13 0
14 3 6 16 0
36 -32 42 -50 0
46 -44 15 -14 0
-47 -50 35 49 0
33 -45 7 21 0
-12 -25 5 -22 0
-34 10 26 21 0
-16 2 -41 1 0
-25 -21 -42 -3 0
20 14 -7 1 0
-21 -45 -39 30 0
43 47 -14 -32 0
6 24 -45 -23 0
12 -48 -3 20 0
