c family=4-SAT n=50 instance=6 seed=726001144 models=4
c order 30 4 31 19 24 16 22 44 18 40 12 9 3 14 17 47 41 42 29 33 2 43 28 48 8 50 35 34 46 20 5 49 36 1 21 25 32 13 37 45 6 11 10 26 27 7 39 15 23 38
c order 41 16 15 12 23 50 8 27 33 4 17 14 29 34 32 28 22 46 36 1 42 25 9 6 47 5 20 21 30 38 39 13 43 24 26 18 10 19 11 49 2 45 37 31 48 3 44 7 40 35
c order 40 39 27 22 33 34 18 24 46 23 2 12 28 13 50 36 7 1 9 6 48 41 8 44 30 43 10 49 35 5 4 31 32 47 20 26 38 25 14 45 42 21 11 17 16 15 3 37 19 29
c order 16 7 17 12 2 50 13 1 26 48 40 27 3 28 49 35 44 39 11 30 10 34 25 22 23 43 14 31 32 41 45 42 9 6 38 47 46 15 33 18 19 8 5 21 29 4 20 37 24 36
c order 22 6 3 26 35 49 13 34 30 33 12 32 31 39 5 14 46 20 19 38 4 27 48 23 37 36 42 16 7 40 1 11 9 41 44 24 18 17 10 43 15 8 21 47 45 29 2 28 25 50
c order 46 1 5 29 34 35 39 36 23 9 14 26 49 24 22 4 40 12 8 42 47 16 37 43 20 18 41 33 3 27 50 10 44 15 6 19 7 2 48 11 21 25 28 38 17 45 13 32 31 30
c order 34 45 49 44 2 11 50 38 5 43 32 41 33 17 7 3 46 31 26 40 39 18 19 1 15 36 35 9 21 6 20 8 42 27 13 37 10 25 29 22 30 48 16 12 47 28 23 4 14 24
c order 36 25 20 29 50 37 49 17 34 39 40 16 12 31 5 3 4 11 24 22 41 15 18 45 27 9 19 8 14 42 38 6 2 28 26 48 30 33 35 44 10 46 23 21 7 1 32 13 43 47
c order 39 12 10 47 9 35 4 49 38 25 19 34 42 41 21 11 7 50 16 40 20 22 24 28 36 13 3 45 29 2 31 37 43 46 23 30 17 48 32 15 1 27 33 8 5 6 44 18 26 14
c order 47 18 48 23 27 5 43 42 37 24 11 21 14 34 49 46 25 20 15 28 41 38 7 35 45 32 22 26 31 33 13 30 10 1 6 9 36 19 17 50 40 16 29 12 8 4 39 44 3 2
p cnf 50 480
-11 -21 25 -17 0
26 13 19 40 0
-38 1 4 3 0
-31 -33 10 -20 0
-37 8 13 19 0
-1 -21 -13 -4 0
22 -3 21 40 0
-19 6 37 -9 0
-6 -9 -32 34 0
1 10 -40 36 0
23 -37 -50 25 0
-38 4 -22 9 0
-10 -21 23 -18 0
-5 19 13 34 0
18 -44 -47 10 0
-46 -35 17 -6 0
32 16 -37 -27 0
46 -17 -16 -2 0
-12 6 -44 -21 0
-6 -41 24 -37 0
41 -12 37 11 0
-8 12 -19 50 0
48 30 -40 -5 0
23 -13 5 20 0
30 25 -47 18 0
-34 -48 16 45 0
3 42 -47 11 0
48 -39 -2 -44 0
-33 -5 -2 29 0
43 -13 -1 -7 0
40 50 -14 -7 0
5 -6 -20 47 0
17 -46 -6 -26 0
35 -13 -6 -44 0
-25 47 17 3 0
-5 22 38 -17 0
-15 -6 17 28 0
29 -3 -23 -16 0
-4 -3 41 21 0
25 22 -40 -8 0
-4 9 -45 -37 0
18 38 -4 40 0
-36 -8 28 43 0
30 42 29 16 0
5 -16 -7 50 0
42 -34 -4 -28 0
40 -50 1 -44 0
20 -30 -16 13 0
-31 22 -27 -2 0
-3 10 5 -11 0
-48 45 -32 -38 0
-7 -12 36 39 0
-4 -15 23 13 0
-29 44 -16 34 0
-10 33 -35 -37 0
-34 -50 -33 22 0
-49 -4 44 -6 0
34 -2 -3 23 0
-48 36 -30 -27 0
44 -10 26 -15 0
4 32 -19 -21 0
12 -43 9 -11 0
-19 -25 41 37 0
12 23 -4 -46 0
-7 40 44 2 0
-50 -29 9 -48 0
-36 -18 -32 29 0
13 -27 -23 47 0
27 50 4 45 0
-13 -39 -1 14 0
-48 11 -32 7 0
34 -7 -43 -39 0
-8 3 -20 -44 0
41 -19 40 -39 0
15 -34 37 10 0
33 -10 -48 18 0
-35 -50 -18 10 0
-22 -37 -25 -13 0
-28 36 3 41 0
-16 -13 10 -20 0
-33 -42 30 7 0
45 48 -10 -33 0
42 4 -39 -16 0
41 -9 45 1 0
-17 -43 -9 5 0
-18 -40 46 -16 0
-31 11 -48 32 0
10 16 11 -25 0
32 -50 42 -13 0
-36 45 23 -33 0
-7 3 -11 -24 0
-35 11 -28 -3 0
20 49 48 -15 0
8 -13 -34 15 0
-19 -48 -3 44 0
-42 -45 -9 -44 0
8 21 -34 28 0
43 -50 21 -16 0
20 -7 -29 -12 0
-23 -7 43 6 0
21 -16 19 -50 0
-26 34 -27 -11 0
-46 -11 -3 23 0
-48 -40 -24 -6 0
-27 -38 35 9 0
-41 10 43 20 0
14 -18 -38 -8 0
22 6 -45 8 0
-24 -6 29 33 0
-28 -18 -17 -44 0
-48 -31 -18 49 0
-35 -9 -22 26 0
-46 -1 -14 5 0
-1 -18 -3 32 0
1 32 -26 -16 0
-39 25 36 -8 0
-35 -12 30 41 0
-47 9 -21 -16 0
-35 -19 -31 -1 0
36 -38 6 45 0
-26 -41 -50 -7 0
23 -40 13 -37 0
-23 30 34 -26 0
-8 24 -43 -30 0
29 37 -12 -9 0
5 -19 -14 -2 0
42 16 -37 -44 0
-47 -26 34 -9 0
22 -4 -24 43 0
27 -24 33 6 0
-29 23 -50 9 0
-36 -25 -2 -47 0
-4 -31 -43 28 0
-8 -46 -45 -6 0
3 -50 9 -17 0
49 28 22 47 0
33 -41 36 15 0
3 -31 4 -38 0
-45 48 -3 -29 0
-12 49 32 -16 0
-41 2 -24 28 0
7 -6 47 15 0
13 -14 -33 -27 0
46 32 -47 40 0
7 -32 26 -48 0
-42 -46 -12 -31 0
18 -21 -9 -37 0
9 41 25 49 0
-13 -8 18 46 0
3 -10 -1 45 0
-34 46 18 25 0
33 -29 -17 -48 0
30 -42 -24 -7 0
-2 -34 -33 1 0
-16 10 36 -20 0
27 3 29 -15 0
-49 -27 -32 -31 0
-25 29 -15 -48 0
-46 -10 7 18 0
-18 -33 -39 -49 0
34 -23 32 -27 0
11 48 9 12 0
18 -9 -39 13 0
15 11 -38 -28 0
-20 2 -25 -8 0
49 -27 4 47 0
35 16 24 -4 0
-26 -39 -21 5 0
8 7 -18 43 0
12 21 -3 46 0
8 -17 41 23 0
-7 -49 47 -33 0
21 -45 26 10 0
-10 25 -2 -22 0
35 -6 -28 -44 0
32 -42 -18 14 0
-38 -5 3 4 0
-27 12 16 -22 0
-15 -35 -27 -30 0
-23 -7 3 -30 0
-20 42 -10 -44 0
35 -27 4 -40 0
-28 14 2 35 0
12 1 -32 28 0
-16 -15 48 -42 0
45 25 10 -14 0
40 -42 -43 -20 0
21 7 -14 -24 0
6 11 24 8 0
-23 -42 -34 -25 0
-39 -29 -2 34 0
12 -19 -31 8 0
12 -3 49 -4 0
48 -47 19 -17 0
3 -13 26 -30 0
37 -23 -22 14 0
4 29 17 -22 0
-33 -23 -36 -16 0
-22 3 -46 12 0
-48 -10 32 -15 0
-48 -1 -23 -18 0
30 -36 11 -25 0
5 4 45 38 0
26 1 -3 -38 0
31 5 -43 -21 0
-33 4 7 -11 0
-24 35 -36 -25 0
42 -23 5 -3 0
-36 25 29 -37 0
42 17 -25 22 0
2 49 50 -20 0
28 -18 -38 -39 0
-28 -16 -32 45 0
-2 18 27 33 0
41 -50 17 -24 0
-37 -3 41 45 0
25 36 -49 -4 0
25 44 -24 -29 0
39 -20 7 -22 0
30 -27 48 -9 0
14 48 31 -18 0
4 -36 -23 24 0
-21 20 -3 -15 0
-1 -37 -32 10 0
43 21 -3 16 0
-25 31 -15 -30 0
42 -2 32 -35 0
8 20 -9 -14 0
43 35 5 -48 0
32 -5 43 7 0
-10 43 -37 -3 0
-43 -25 -7 -30 0
-40 17 -41 -42 0
-45 -12 37 33 0
-1 29 44 -6 0
-41 -23 7 11 0
-31 34 42 -6 0
-30 23 49 -43 0
-43 26 -28 -21 0
-13 -15 48 -38 0
-43 -27 -12 -45 0
40 -48 -44 27 0
-17 10 8 26 0
-15 -31 -28 22 0
-50 39 -11 45 0
-14 17 49 30 0
-39 49 -19 23 0
23 -49 -21 -26 0
-48 14 31 9 0
-7 -28 -8 -33 0
47 41 -27 -16 0
28 -2 26 -19 0
31 30 23 44 0
19 -15 6 27 0
38 -49 32 -45 0
-50 24 9 -23 0
-8 39 -33 3 0
48 -46 12 44 0
-7 14 -31 40 0
16 5 -42 35 0
-19 17 35 -50 0
27 -28 10 18 0
43 48 2 -28 0
32 -33 -27 -45 0
8 24 -45 -15 0
12 43 30 33 0
-47 -22 16 12 0
41 -44 9 31 0
26 50 -47 -4 0
43 23 -8 -47 0
48 -41 10 -9 0
3 12 -17 -50 0
25 -22 -45 -18 0
-33 9 -28 -12 0
7 -39 1 -45 0
-4 -31 32 -9 0
1 -15 -19 -40 0
2 -35 9 47 0
-28 -19 -23 -39 0
-26 -12 -25 -34 0
-35 -40 -34 20 0
12 2 39 -11 0
43 19 -42 -35 0
2 -43 -14 25 0
29 -9 41 -27 0
17 -14 -7 -29 0
-29 48 10 -44 0
-48 20 -16 14 0
33 18 -27 -37 0
47 3 -39 12 0
-36 12 29 -23 0
-50 45 11 27 0
-26 43 20 -45 0
14 38 13 50 0
25 -47 43 -13 0
50 -26 2 18 0
16 44 -45 -22 0
5 23 24 26 0
3 -16 -10 5 0
-5 24 -15 -17 0
38 12 48 44 0
-33 31 34 -36 0
-42 48 16 -1 0
-28 -23 -12 39 0
46 -22 -30 9 0
-32 -34 -21 -2 0
44 -27 34 -26 0
-4 -34 -8 31 0
1 18 5 -32 0
23 12 -10 -32 0
-1 -24 25 41 0
-34 16 18 5 0
-26 3 32 16 0
17 18 16 2 0
-50 49 36 -7 0
-22 -30 -10 -32 0
39 45 6 -37 0
-30 40 35 21 0
25 -7 -47 -6 0
18 11 -34 12 0
3 -7 27 -39 0
31 -7 -44 -22 0
-7 -33 44 28 0
-25 -20 37 26 0
36 22 39 17 0
-20 -26 -25 -21 0
48 -13 23 46 0
8 12 50 35 0
-11 -46 -7 -27 0
15 21 41 -10 0
-39 -25 -16 -2 0
-8 9 35 -46 0
48 -9 28 -34 0
-43 -49 39 -30 0
36 8 33 38 0
38 35 -28 -14 0
32 -6 -30 11 0
47 -13 -41 11 0
-38 -8 44 -19 0
28 49 -40 44 0
41 -9 37 48 0
9 13 42 -36 0
7 -15 -24 13 0
-48 2 -33 24 0
27 48 29 42 0
30 -16 19 -9 0
-39 42 -16 29 0
19 41 -43 2 0
-2 -4 22 -46 0
-7 -49 -31 -14 0
43 21 24 -29 0
-27 43 -9 35 0
-19 36 -47 -34 0
26 37 -2 13 0
7 46 26 47 0
-31 -36 -46 -40 0
-47 -10 -50 17 0
-9 -20 -10 -25 0
-3 -35 12 -24 0
28 -3 2 37 0
-36 35 34 26 0
43 -48 -2 -42 0
5 15 -16 -46 0
-49 9 26 23 0
-49 35 42 -1 0
-6 -50 -13 2 0
4 -3 -46 18 0
-23 41 -15 -34 0
13 -14 27 2 0
-38 16 -31 -25 0
-29 -42 12 -50 0
14 22 -50 -20 0
8 -19 33 -46 0
22 -25 -6 9 0
-1 3 -42 -43 0
-42 7 -40 -41 0
8 47 -5 35 0
22 26 17 -50 0
-29 -6 -10 22 0
37 -15 -18 -47 0
-30 45 -3 -1 0
37 -43 14 15 0
29 20 -50 -49 0
35 23 -10 -50 0
26 11 -12 -1 0
-28 -1 -43 -34 0
-38 16 -37 1 0
-33 27 -2 15 0
31 41 -22 47 0
-50 -33 -41 31 0
-19 12 -35 6 0
-40 -21 -33 28 0
20 1 -38 -8 0
35 -13 -40 -11 0
10 46 22 -21 0
-7 6 35 -41 0
38 -2 -40 -29 0
-28 -47 -19 5 0
10 -8 50 -41 0
-28 -36 49 37 0
-27 -49 29 48 0
-11 -8 -23 38 0
29 8 20 39 0
17 -45 -44 -20 0
-32 43 45 -42 0
-31 4 11 -19 0
44 24 -11 -47 0
-39 -8 29 4 0
-45 -50 -34 -17 0
49 -45 -26 19 0
36 37 -13 -8 0
-43 11 33 -20 0
24 -1 20 -14 0
42 4 38 -39 0
17 -47 34 37 0
-9 30 49 41 0
46 24 44 37 0
-48 -30 -32 -47 0
9 -32 45 -49 0
28 -9 -48 -23 0
33 1 24 6 0
-36 -42 -7 -44 0
1 -7 -5 -38 0
-21 1 32 16 0
1 33 20 -44 0
-11 44 -39 28 0
-1 -24 42 45 0
44 13 5 12 0
1 18 -36 -19 0
22 6 17 -43 0
-28 43 -47 18 0
-24 18 -42 -17 0
38 -5 34 44 0
28 22 -24 5 0
-10 -14 46 23 0
26 -35 44 34 0
29 49 35 -6 0
-25 -38 -5 -15 0
12 -29 -4 28 0
-4 11 25 6 0
2 -9 -21 5 0
26 4 24 -8 0
-23 -10 -6 -29 0
-48 -13 4 9 0
-1 -40 15 47 0
48 21 -26 -29 0
-41 -1 -21 -35 0
-47 -45 44 -10 0
-34 -14 -48 30 0
44 33 41 -23 0
48 39 -42 -3 0
23 18 4 -15 0
17 46 -6 -23 0
-19 20 17 23 0
-17 13 37 -43 0
-45 1 -36 -37 0
-37 18 27 15 0
-10 -29 -40 -43 0
37 4 -32 -11 0
49 48 24 -29 0
28 21 -43 30 0
-44 24 -29 -31 0
34 17 47 49 0
-35 -18 -29 26 0
40 -49 25 15 0
42 10 -4 11 0
-16 -49 20 11 0
32 -1 33 -2 0
-19 34 49 -28 0
-7 8 37 -9 0
-15 35 -37 21 0
9 50 -18 10 0
-48 43 -26 41 0
39 27 -46 30 0
-11 34 -42 25 0
-1 -23 -50 27 0
-36 39 32 -41 0
14 -4 50 2 0
11 -41 5 42 0
25 -4 47 5 0
