c family=4-SAT n=60 instance=1 seed=726001144 models=49
c order 7 57 33 56 58 26 41 21 60 43 24 12 42 45 47 34 17 49 2 4 53 59 39 30 14 5 36 35 40 3 31 50 8 25 38 20 23 6 28 37 18 15 55 32 29 11 16 46 22 48 10 44 19 1 9 52 54 13 51 27
c order 34 22 11 36 28 27 8 39 46 15 30 45 52 12 53 56 10 54 58 29 9 37 40 25 50 24 19 13 57 41 23 42 5 6 33 59 4 35 3 20 48 60 17 47 49 1 7 16 38 55 2 44 31 32 21 51 43 26 18 14
c order 54 38 4 30 24 21 19 25 5 8 31 3 41 44 27 9 7 42 36 57 33 13 37 50 10 1 47 11 20 40 28 39 34 43 35 2 23 60 16 49 17 56 48 53 52 32 14 55 18 15 29 46 22 26 6 58 59 51 12 45
c order 52 1 9 43 10 24 22 60 32 30 54 46 34 39 8 41 3 44 35 26 4 50 11 31 29 38 27 42 56 15 18 58 5 37 12 40 28 51 19 14 53 6 20 45 13 49 57 21 25 33 7 16 47 55 36 59 2 17 48 23
c order 13 15 12 56 9 6 60 29 26 14 58 27 55 33 49 7 53 23 16 38 28 57 35 24 18 21 3 54 47 40 52 20 8 25 43 41 17 37 44 50 34 5 39 51 22 48 45 10 11 2 36 31 32 46 19 30 4 59 42 1
c order 32 29 52 7 1 9 17 47 54 48 26 55 40 24 3 10 58 28 15 8 59 43 12 56 51 30 23 49 42 39 41 34 45 20 50 31 44 33 18 35 27 37 25 14 22 11 16 4 60 5 13 21 36 19 57 38 6 46 2 53
c order 52 12 57 60 20 48 56 23 29 45 8 26 34 59 41 18 4 32 14 16 53 10 42 11 50 25 1 58 49 28 5 55 43 46 51 21 6 7 13 27 37 47 9 24 17 54 2 22 36 40 15 39 38 19 35 3 44 31 30 33
c order 20 13 59 50 48 11 6 26 54 25 5 1 58 17 41 14 45 37 23 56 46 42 9 49 60 31 10 39 33 7 57 40 8 19 43 12 32 51 44 22 3 28 30 18 21 16 15 52 4 36 34 29 47 24 53 38 2 27 35 55
c order 32 7 33 43 46 55 28 11 21 54 3 31 18 60 42 2 59 25 13 52 16 12 35 1 29 47 26 58 50 8 14 27 15 56 41 10 30 22 5 19 24 36 6 40 34 45 20 49 17 39 53 9 48 23 51 4 57 44 38 37
c order 5 33 7 4 52 32 24 56 36 26 44 47 54 3 1 31 11 39 13 43 25 22 8 30 15 27 28 57 51 45 35 41 48 9 40 16 18 50 17 19 14 59 2 6 60 46 20 34 12 55 23 37 49 38 29 58 21 53 10 42
p cnf 60 576
-50 28 31 -21 0
-22 58 -12 34 0
-38 47 17 1 0
36 44 45 53 0
-4 -42 23 21 0
1 17 -2 -57 0
-40 27 -57 -5 0
36 -33 -45 44 0
60 -40 46 -6 0
32 -44 22 -53 0
-30 -24 -60 16 0
-1 -46 21 -44 0
-9 -36 -10 8 0
1 -7 12 11 0
-51 -15 -29 25 0
57 -24 -14 -40 0
23 21 -9 -44 0
12 60 4 -43 0
49 13 51 -31 0
10 -35 42 19 0
49 45 11 40 0
-15 -44 -26 -17 0
-37 13 -46 34 0
-57 -59 23 -10 0
-4 33 -11 10 0
1 -16 11 45 0
-42 17 33 -49 0
-29 49 55 -12 0
44 -60 -35 -31 0
-35 -8 3 34 0
3 -19 58 13 0
-45 2 -53 34 0
-52 -47 55 -32 0
-53 -7 43 60 0
-48 26 -39 -25 0
-57 -36 -35 52 0
42 -12 32 -5 0
-43 14 4 41 0
57 47 4 14 0
4 -60 43 -8 0
-57 18 50 34 0
-44 25 10 48 0
-34 36 41 22 0
-35 42 -15 50 0
-15 -12 -4 40 0
53 -29 -36 -59 0
4 -31 35 26 0
30 49 -50 -15 0
45 32 24 -11 0
13 -60 -29 6 0
46 38 -50 -25 0
-11 58 -22 -60 0
43 25 5 -18 0
-14 -44 -50 -40 0
-45 37 -9 -18 0
-35 52 -17 -33 0
27 -42 13 -30 0
-21 18 -5 -47 0
-52 48 -1 30 0
-40 -6 16 -19 0
-59 28 -14 15 0
26 60 -25 22 0
-28 26 -3 -32 0
39 -20 32 -5 0
46 34 -26 36 0
-8 -52 -45 23 0
-58 11 -16 -31 0
43 -12 1 32 0
39 -5 -48 -28 0
-52 48 51 -39 0
16 34 -8 7 0
2 31 47 -46 0
-28 -23 4 22 0
10 37 9 -30 0
1 37 9 -60 0
-39 -47 -17 46 0
46 55 57 8 0
-37 9 53 14 0
51 -36 39 -56 0
-21 -37 -40 -48 0
33 -9 -51 -17 0
57 60 8 -29 0
-5 10 -34 58 0
-24 -29 -38 -40 0
-51 -18 27 45 0
-17 7 -58 55 0
-25 -11 15 -22 0
7 -19 -23 -54 0
14 -24 39 -52 0
-30 -15 -19 31 0
-39 22 49 -48 0
5 12 -16 15 0
-38 -14 -49 -40 0
18 42 30 43 0
-51 -7 60 8 0
-46 45 13 23 0
-54 -43 19 -7 0
-10 50 31 -3 0
-38 10 41 54 0
-39 12 46 11 0
-15 -31 -51 -56 0
-1 40 39 -29 0
25 32 -52 45 0
-6 22 -48 -8 0
-28 8 54 -15 0
13 10 30 39 0
14 13 4 40 0
30 -21 -27 9 0
10 -8 38 -7 0
-52 29 -45 47 0
45 26 -17 -21 0
18 28 25 3 0
-32 57 -38 40 0
9 32 50 -57 0
33 24 -1 -8 0
-10 -31 57 -55 0
-13 -53 2 11 0
-47 17 -21 -50 0
29 24 -16 4 0
57 9 19 4 0
-54 -25 21 -12 0
15 -13 2 -22 0
-53 24 8 -12 0
-35 41 -17 -25 0
-36 -56 -21 20 0
-57 -45 -26 -20 0
32 -18 -31 -57 0
-40 16 43 48 0
-50 -53 -22 -56 0
-31 26 40 -45 0
10 -28 -6 -45 0
-38 45 -56 -52 0
-48 -55 -17 38 0
-42 19 -24 26 0
60 -11 47 55 0
-47 -28 -44 35 0
-17 16 34 54 0
-52 14 -22 -20 0
8 -56 46 -52 0
35 -7 17 38 0
-19 29 49 34 0
13 32 -21 26 0
-51 -48 -49 -21 0
5 58 59 -60 0
34 32 -25 -37 0
-57 -38 9 -47 0
22 -54 -47 -1 0
57 -23 -24 -52 0
-28 -17 -47 -57 0
53 -44 21 52 0
-3 47 -28 49 0
5 36 28 -59 0
-6 -12 -24 -22 0
42 34 -57 -51 0
40 -52 -27 -17 0
45 30 -53 29 0
-24 3 47 37 0
54 -49 -15 -39 0
30 -5 -44 48 0
-32 -24 -42 2 0
21 -22 -49 -24 0
-32 21 -57 -53 0
43 -29 49 -5 0
43 -34 60 -30 0
57 -20 -37 -3 0
26 50 -39 -33 0
-23 -51 28 -27 0
38 -49 -2 -39 0
48 -24 8 17 0
45 -13 37 -60 0
30 28 43 21 0
15 49 -20 3 0
-18 32 -42 -7 0
-15 2 11 -38 0
-24 -12 48 50 0
-14 -33 53 58 0
-17 -21 4 38 0
6 31 -7 -56 0
-16 -4 31 12 0
-48 8 59 27 0
-29 -37 30 18 0
12 20 29 41 0
-25 20 48 -35 0
-3 -9 -30 -10 0
-6 55 51 29 0
55 -48 -50 54 0
-54 -46 -48 7 0
37 13 -28 42 0
-13 -56 -9 -43 0
-50 25 -11 -21 0
-7 5 -16 6 0
24 -30 -26 -20 0
-36 -26 -33 -46 0
-21 -20 17 -4 0
-11 -22 -2 -50 0
-34 37 -36 14 0
-53 -19 28 -9 0
-8 1 23 -7 0
-23 -31 36 41 0
4 -40 15 -51 0
53 58 4 57 0
25 -58 7 11 0
9 -19 -33 20 0
-25 22 -53 -32 0
38 -6 32 7 0
-54 -10 -19 23 0
-34 9 28 -12 0
36 53 8 -40 0
-38 -47 1 39 0
46 -4 3 -35 0
54 -17 -25 -60 0
19 24 59 -31 0
-2 -46 43 42 0
-13 27 -17 -36 0
28 19 10 -32 0
32 -17 -21 1 0
58 -22 -29 -19 0
28 -16 4 29 0
53 -10 -25 -54 0
9 -27 -15 -2 0
18 -23 -53 57 0
20 -10 32 16 0
27 -22 -9 -51 0
-7 -48 22 -24 0
-25 -1 -54 11 0
-38 -43 10 46 0
48 -52 -34 18 0
53 -26 24 -57 0
59 -30 50 -12 0
23 53 -48 4 0
-6 -5 -10 19 0
33 -21 -42 -30 0
-4 -41 -9 -7 0
-17 -58 -19 3 0
-15 -1 2 33 0
-56 -50 -34 58 0
-18 -21 -25 24 0
-34 -52 -15 4 0
-59 30 40 -15 0
11 2 -38 -36 0
-13 -18 -37 46 0
-24 -33 -36 -44 0
-55 -35 -26 -11 0
47 17 -2 -18 0
47 15 -6 9 0
21 49 19 -44 0
2 -29 39 -26 0
-45 -9 -35 -26 0
47 -35 38 -34 0
-29 -47 1 32 0
16 33 55 59 0
44 -3 -28 39 0
28 27 6 20 0
27 -17 -58 18 0
-16 -54 -59 49 0
34 -47 -3 16 0
9 -53 -48 -2 0
-16 -58 60 -1 0
20 24 -54 -22 0
-29 -36 -20 1 0
14 11 -21 57 0
48 43 -58 -49 0
-28 16 39 -49 0
-11 46 -1 47 0
-16 42 -27 -60 0
25 43 60 -37 0
57 54 -11 44 0
-56 18 -42 -38 0
21 -53 -1 -40 0
17 -6 14 9 0
1 2 3 28 0
3 18 14 41 0
5 -16 15 9 0
-6 -39 -1 48 0
53 35 24 15 0
-42 -45 -5 -41 0
11 -22 21 -38 0
49 -34 43 -47 0
-30 19 60 14 0
26 42 20 3 0
51 30 -43 -54 0
13 37 -5 44 0
1 -2 -3 40 0
-27 -6 -33 11 0
-44 -28 -59 -19 0
14 5 -1 25 0
42 -43 -31 33 0
31 -46 -27 4 0
40 -16 -13 -28 0
13 33 12 19 0
40 60 -50 23 0
17 -39 -35 37 0
-28 -44 -33 15 0
-33 -43 -40 -6 0
-27 -5 -12 -36 0
38 10 -5 -3 0
-51 60 43 -49 0
-8 20 47 -50 0
-44 -22 34 -46 0
-8 7 -55 13 0
9 3 -36 -8 0
-43 38 32 -24 0
-59 40 -21 -52 0
12 15 29 -52 0
53 11 56 13 0
-47 16 -28 19 0
57 -40 -30 -27 0
-29 -23 -60 -16 0
51 -12 22 3 0
-31 45 -4 10 0
-32 -54 58 -14 0
-19 47 -44 -54 0
49 -16 50 -39 0
54 -46 14 -50 0
-35 25 -9 -27 0
-41 15 -57 -38 0
-22 3 -50 -46 0
-23 31 25 -47 0
-38 -55 -23 14 0
12 -31 -50 -6 0
-3 -40 8 -10 0
-39 54 26 24 0
-29 21 6 54 0
33 32 -27 20 0
-57 54 43 26 0
-59 -32 -60 24 0
19 -34 57 -3 0
-55 49 -25 47 0
-43 60 30 50 0
16 -35 -25 13 0
-6 -35 -49 -56 0
9 -25 -4 -44 0
39 40 -25 27 0
-52 -23 -16 34 0
-1 -11 -44 51 0
-12 -3 -42 9 0
30 -15 25 14 0
-18 51 29 -34 0
-17 10 46 -49 0
33 10 -28 -19 0
30 -23 32 3 0
11 -43 54 -57 0
6 -55 -54 -53 0
-45 -32 8 -17 0
-22 -15 6 -14 0
-5 -2 -23 36 0
-30 -44 -13 21 0
-26 -50 -3 52 0
54 20 -24 -27 0
-31 25 -51 -29 0
7 -29 14 58 0
-6 -58 27 -17 0
-51 50 55 -43 0
-15 55 -11 -13 0
8 -11 -38 32 0
45 28 -35 41 0
-32 34 43 22 0
10 60 47 -50 0
-59 31 -2 -12 0
-7 30 58 18 0
-46 47 -57 -50 0
-5 -50 -23 9 0
8 12 -27 -33 0
-32 7 6 -59 0
55 -8 38 -11 0
13 -56 -60 38 0
35 11 39 50 0
10 19 -27 42 0
50 4 -36 5 0
17 21 -49 58 0
-45 28 -22 55 0
-23 55 -52 30 0
-45 -20 -15 -7 0
1 -38 -44 34 0
-14 -7 52 39 0
-58 36 45 -22 0
-9 -37 -19 21 0
-45 56 -25 37 0
-39 -16 -50 14 0
-25 -53 23 -7 0
30 -9 -53 -38 0
-31 4 -8 15 0
34 37 29 55 0
26 -36 3 -20 0
33 -39 -15 -11 0
-33 -58 -32 22 0
-3 20 -16 -8 0
27 -60 59 32 0
40 -50 -13 9 0
-33 -46 -43 -57 0
3 40 49 -32 0
30 -36 13 28 0
-57 -33 -10 -58 0
-8 -57 17 -2 0
-57 22 -38 -23 0
28 38 -18 11 0
-43 34 -60 -3 0
50 -33 56 29 0
25 21 -11 -32 0
27 -32 -8 -49 0
36 -15 48 21 0
-32 -29 -10 -24 0
32 -15 -28 8 0
10 20 5 -26 0
-40 31 19 35 0
-47 42 11 56 0
-30 23 34 24 0
-2 -30 54 55 0
21 -33 58 11 0
48 27 19 32 0
-17 28 39 -34 0
19 -4 59 -42 0
-22 18 47 -40 0
-55 -45 -49 47 0
14 -12 28 15 0
56 38 3 -37 0
-13 -23 -1 -47 0
30 -48 12 60 0
-4 44 26 -19 0
57 -16 -26 42 0
-54 -44 -49 -51 0
-11 16 48 -18 0
-38 -17 -7 -3 0
-29 -3 -27 12 0
-20 10 48 -25 0
-33 42 -43 48 0
55 43 -50 28 0
49 33 11 -8 0
-57 -58 -2 15 0
-2 5 -36 -8 0
17 -12 -34 -46 0
-4 -13 -43 -59 0
57 14 45 -11 0
-50 -41 20 -21 0
28 -3 -31 -39 0
42 10 -48 -31 0
14 15 -51 8 0
-20 -37 6 33 0
-31 55 36 52 0
10 -28 -38 -45 0
37 14 -60 5 0
41 22 49 -4 0
50 -28 -19 35 0
-4 37 -42 51 0
-25 46 47 -50 0
4 -34 -36 -44 0
53 36 -15 -29 0
3 40 28 -59 0
-41 -19 15 52 0
-8 -14 -60 13 0
43 -7 30 -36 0
-33 -57 -15 55 0
20 52 -23 -22 0
46 16 48 -10 0
-28 -37 22 40 0
34 35 -15 -48 0
36 -60 -15 -6 0
43 11 -5 -58 0
43 40 -35 2 0
-17 44 -34 -13 0
49 -40 9 22 0
-54 -8 -5 14 0
-26 -14 -13 -32 0
9 -37 -55 -36 0
-59 -10 39 37 0
40 -43 -10 -60 0
34 25 -60 -36 0
-41 -60 -45 -56 0
3 51 10 -37 0
-30 13 -25 28 0
-31 -5 29 -55 0
33 -2 17 -42 0
-48 56 -28 -50 0
52 11 -7 -12 0
-53 -1 3 -18 0
-4 -14 -1 23 0
30 32 47 36 0
-53 -41 -29 59 0
18 3 -31 1 0
59 -57 30 37 0
49 16 -29 -45 0
-3 -48 -38 36 0
41 48 58 -15 0
9 -34 19 -59 0
-39 -1 -54 58 0
-39 -54 57 13 0
-15 -26 14 -52 0
-38 -28 -35 -29 0
-1 34 -33 21 0
-53 -1 60 -48 0
55 22 56 20 0
53 16 40 55 0
-56 30 46 15 0
7 -25 -54 -15 0
-24 56 20 -40 0
-25 58 -51 -29 0
52 9 28 -36 0
-19 43 -17 -26 0
37 50 60 -18 0
-39 -13 8 -19 0
-52 12 49 20 0
-11 47 -3 -10 0
20 40 51 30 0
40 -7 14 -31 0
47 60 57 12 0
-17 33 -41 58 0
19 -7 11 -45 0
-48 33 23 13 0
7 28 36 -10 0
-50 -5 49 27 0
-33 3 -26 43 0
-17 53 2 -47 0
48 6 -47 -51 0
-45 -19 -10 1 0
-45 -24 -19 35 0
53 -16 -13 -38 0
-54 -43 47 -32 0
22 38 52 56 0
58 -32 38 -29 0
10 2 -31 49 0
28 15 -52 -21 0
-59 -53 -48 -55 0
46 -17 6 51 0
-2 -59 -14 -5 0
-41 -20 -34 -57 0
54 59 22 9 0
57 -4 -21 32 0
-53 43 -35 37 0
57 -50 -47 33 0
-2 -20 18 60 0
47 -26 1 52 0
-18 32 47 15 0
-35 -15 -38 -6 0
-2 7 31 28 0
-32 -27 -38 -41 0
-40 12 -36 13 0
18 -15 13 16 0
19 -22 -35 58 0
51 -53 20 -32 0
5 -45 50 -39 0
11 28 -59 40 0
5 32 -7 22 0
-43 -4 -26 19 0
16 -19 1 -8 0
-58 -60 -26 -54 0
-4 34 41 -11 0
-14 40 38 -11 0
1 42 -9 -39 0
27 -6 -36 60 0
-33 4 17 45 0
-29 -31 -46 -53 0
-24 -15 16 44 0
-31 -41 48 59 0
-50 -56 54 -57 0
-51 59 -9 -15 0
-42 -26 58 -46 0
31 55 22 33 0
52 -21 -38 36 0
34 41 9 6 0
-26 -8 40 17 0
50 -28 44 59 0
-53 -1 -41 14 0
-55 -53 -22 15 0
-42 11 -52 56 0
28 -21 60 36 0
-14 1 -10 11 0
-8 -2 -55 -35 0
-31 54 -27 -53 0
-42 41 -53 -28 0
20 -29 31 3 0
41 14 54 59 0
35 36 -51 38 0
13 4 51 9 0
-48 5 46 -34 0
-12 -41 -27 55 0
54 -15 -5 -49 0
