c family=4-SAT n=60 instance=9 seed=726001144 models=9
c order 41 34 42 1 40 8 28 47 53 48 29 12 32 6 52 50 10 23 5 36 51 18 60 35 43 57 38 45 59 16 22 37 31 19 4 7 26 2 14 13 24 46 56 3 55 30 20 17 9 27 21 11 15 54 49 39 25 58 33 44
c order 13 12 42 33 6 26 2 18 24 35 4 29 28 11 17 19 55 30 43 45 27 56 10 48 54 37 60 32 53 44 5 15 52 31 36 8 41 46 1 7 49 9 38 58 25 59 14 22 39 20 23 47 57 16 40 50 3 21 51 34
c order 52 12 28 29 51 57 20 48 19 7 42 5 22 33 38 26 45 47 60 53 25 34 3 56 36 54 27 2 31 43 10 4 11 58 37 35 50 16 21 1 32 49 59 6 55 13 46 9 41 44 30 18 8 17 14 15 23 40 39 24
c order 28 55 12 35 13 51 6 39 10 30 22 47 60 24 29 14 11 41 16 21 3 15 1 48 25 53 31 42 17 7 52 44 43 33 32 19 56 5 8 18 2 46 4 38 54 36 9 49 59 58 40 20 50 26 37 45 23 57 34 27
c order 27 28 52 45 40 32 13 48 1 4 21 42 49 8 9 19 30 39 11 50 5 7 54 3 25 22 56 59 24 17 31 10 23 33 55 46 15 43 18 37 34 12 38 58 36 53 57 47 20 16 14 51 2 6 29 41 44 35 60 26
c order 22 21 41 1 28 11 40 36 5 18 13 51 32 45 39 8 33 29 43 23 4 35 27 17 50 24 37 19 10 6 55 2 53 47 48 20 7 56 44 42 16 38 9 57 54 12 30 3 58 26 49 46 14 52 59 25 15 34 60 31
c order 28 14 55 43 56 21 25 4 59 57 19 31 40 41 3 50 8 51 54 39 13 46 29 45 38 15 53 58 33 1 9 35 16 12 11 24 36 32 6 22 23 49 27 2 42 60 10 20 47 30 5 17 26 52 18 48 37 44 34 7
c order 48 9 30 25 5 50 32 1 35 13 8 56 4 40 3 36 28 41 47 46 53 59 29 24 20 16 37 58 31 6 33 39 43 12 42 2 14 26 15 60 49 38 21 18 51 45 7 17 54 55 10 27 52 22 34 11 57 44 19 23
c order 57 1 33 21 15 52 16 32 43 11 36 12 7 38 9 29 24 40 37 44 46 13 31 25 30 48 18 58 51 8 10 5 41 54 53 49 56 17 34 20 42 35 6 23 27 59 47 14 3 26 2 60 50 28 19 45 22 4 55 39
c order 47 10 58 17 53 9 42 46 20 27 41 28 55 43 13 48 36 51 18 54 29 57 15 25 6 11 52 45 8 32 2 35 31 39 24 33 14 16 22 21 7 1 26 23 5 12 30 44 38 60 37 4 19 59 56 3 40 50 49 34
p cnf 60 576
-47 -58 10 55 0
-16 38 -57 50 0
-60 -46 29 -51 0
-56 -43 46 32 0
6 2 30 59 0
-29 15 24 48 0
32 -43 36 -51 0
23 -12 46 -40 0
17 27 37 -56 0
57 -6 -34 -53 0
-3 55 46 -8 0
33 21 -31 -45 0
10 28 7 -14 0
31 -59 -10 -39 0
31 -56 -47 43 0
17 49 -40 -9 0
47 17 -60 58 0
4 -1 -19 -58 0
-44 46 -33 1 0
48 -37 55 -36 0
17 53 -28 55 0
-45 23 -42 57 0
-52 31 54 -32 0
-1 8 -20 -46 0
-20 46 31 -57 0
-37 -32 -23 29 0
-43 33 -46 45 0
16 41 47 -30 0
47 8 41 -57 0
18 56 41 54 0
-51 23 -29 17 0
-26 45 58 -7 0
-26 15 -53 43 0
-36 28 -55 -60 0
-42 -2 28 55 0
-43 -7 -5 24 0
50 -46 -26 -56 0
-50 19 20 31 0
-53 -22 -12 35 0
-10 36 -30 12 0
52 9 -44 -22 0
8 48 43 -9 0
-47 39 42 -34 0
-8 -34 58 26 0
22 56 20 -53 0
-39 -55 25 24 0
27 -45 -35 -57 0
25 1 30 -50 0
59 17 -5 45 0
-30 2 -17 -39 0
-32 -37 -56 -9 0
-42 3 18 -39 0
-47 -28 51 -38 0
8 -55 -41 -39 0
7 40 -42 4 0
-28 32 -26 59 0
9 -51 4 -24 0
-3 -40 23 5 0
22 7 -42 -17 0
-14 -21 9 46 0
31 22 -6 20 0
6 39 -4 8 0
-42 -52 43 49 0
29 -58 50 -19 0
49 -6 4 56 0
2 -27 -53 52 0
14 27 -59 -50 0
-35 -38 16 47 0
30 -1 17 16 0
12 -18 19 40 0
-14 -5 -42 -11 0
39 -14 -31 49 0
53 18 -43 -28 0
-6 -17 30 8 0
58 16 8 2 0
40 59 57 12 0
11 -54 35 16 0
-50 45 -44 -55 0
-33 7 56 29 0
23 -10 -49 7 0
16 35 37 2 0
34 -55 1 23 0
17 45 15 -47 0
-24 -1 -14 59 0
18 55 45 2 0
49 11 53 42 0
28 53 9 55 0
-14 -8 -22 56 0
17 -47 38 -19 0
-46 51 -12 -57 0
-40 27 -26 -2 0
35 -23 56 11 0
-8 -7 -56 -58 0
-33 51 44 -2 0
-57 -38 -14 58 0
60 -49 -33 54 0
-33 -9 -21 11 0
-25 -10 52 -3 0
-15 18 11 -14 0
26 16 -3 -59 0
-42 24 -8 -26 0
-27 -11 56 -9 0
-10 23 -53 -3 0
45 -2 -18 -5 0
-28 36 10 -27 0
28 36 -17 21 0
-32 -28 21 -6 0
51 7 52 -38 0
4 -31 -44 47 0
-27 -22 -20 16 0
42 -12 -11 39 0
-10 30 -16 -7 0
12 -24 5 14 0
53 -25 47 -37 0
-56 -43 -35 54 0
21 -57 26 -55 0
-42 -43 12 50 0
-41 -46 56 -6 0
-50 35 -24 -41 0
-45 -56 -28 51 0
-53 40 -21 -22 0
-16 -25 -30 54 0
-17 19 -31 -37 0
14 -3 12 32 0
-40 -42 49 -48 0
-21 20 22 -15 0
-1 -54 -57 -48 0
-48 55 18 56 0
-26 42 -50 1 0
-31 -12 27 30 0
-25 43 20 -23 0
-8 -4 47 45 0
-60 -6 36 -40 0
29 -22 20 -58 0
14 52 1 -2 0
-8 3 -20 17 0
-40 33 25 -52 0
9 -49 -37 -5 0
28 -12 -55 22 0
56 -6 -12 -19 0
-19 14 27 13 0
-2 -51 -31 -54 0
55 -29 -41 -28 0
60 -1 -33 -43 0
46 33 -28 41 0
-51 -32 12 -13 0
-33 14 16 37 0
1 -16 -59 -42 0
50 57 12 18 0
26 6 23 9 0
40 -59 -16 -5 0
-34 19 -28 6 0
40 -35 41 57 0
-49 34 16 44 0
-32 -57 48 -46 0
41 10 -12 -34 0
-17 -15 11 37 0
55 -54 23 -2 0
60 -18 53 -6 0
-31 49 -58 18 0
-12 -28 40 13 0
-37 -40 42 -6 0
-9 -50 25 -42 0
45 -35 56 60 0
-57 -12 -37 -30 0
-13 17 12 -11 0
42 -29 54 -30 0
57 6 -30 -44 0
15 54 -26 38 0
-7 56 -37 -21 0
-27 -44 5 -43 0
31 48 -44 -32 0
-43 34 45 16 0
-20 -9 -57 -34 0
10 41 43 40 0
14 -7 41 -45 0
-4 -33 -40 12 0
2 -25 -51 -56 0
-21 -47 -11 10 0
-40 -31 53 -30 0
-36 46 -55 13 0
60 2 6 54 0
21 23 50 -48 0
30 13 54 14 0
1 53 31 54 0
60 15 35 -4 0
55 9 39 32 0
8 -57 53 -21 0
49 -21 17 5 0
-4 13 -36 49 0
-20 31 -24 -23 0
-18 34 -4 -32 0
-52 59 36 53 0
-2 4 -53 24 0
-2 11 18 10 0
-25 52 49 -34 0
-10 31 3 -13 0
60 -48 51 -44 0
23 8 44 -45 0
-54 46 -12 -16 0
-28 -30 17 16 0
-56 29 38 57 0
-1 -12 -43 52 0
33 -54 -49 -59 0
45 -42 29 -43 0
-29 -7 58 -41 0
41 -11 -30 49 0
-46 35 15 7 0
28 33 19 34 0
-27 -4 -54 -38 0
-58 -17 -12 -50 0
1 -58 21 50 0
-46 36 -39 4 0
-4 -19 39 -1 0
-17 -8 -38 -14 0
-11 -52 -25 12 0
40 14 22 -17 0
38 -49 14 -35 0
36 -33 18 1 0
-26 50 5 -52 0
-29 47 8 -31 0
11 13 2 21 0
-27 -2 15 6 0
-51 -40 -3 -38 0
26 18 -42 -3 0
32 22 -30 -19 0
25 55 32 8 0
7 33 -4 -11 0
-35 -13 31 -21 0
-57 13 -39 -59 0
30 4 -41 -58 0
19 -5 11 35 0
-60 54 1 26 0
-40 27 -47 11 0
44 16 -42 -22 0
26 47 -60 19 0
-2 -43 -26 22 0
-35 -59 31 -50 0
32 35 27 49 0
-14 -27 -2 -49 0
-26 -32 44 -50 0
39 -31 58 37 0
-15 -4 28 2 0
5 -45 34 -60 0
18 -15 60 54 0
-43 22 24 -52 0
37 45 16 1 0
37 -56 -7 55 0
-1 -38 -60 8 0
45 55 47 -39 0
43 30 57 13 0
58 12 -20 36 0
-30 54 48 24 0
46 43 -54 -15 0
-59 -3 15 -9 0
-47 49 -39 26 0
-54 -48 -38 -53 0
-9 -21 29 46 0
-37 15 44 -47 0
-25 56 -18 40 0
19 55 -13 -53 0
50 14 16 24 0
-24 -17 31 46 0
-42 45 -54 3 0
-57 7 -5 19 0
33 52 -28 43 0
50 5 -19 -48 0
37 -31 -5 -17 0
-53 19 -31 34 0
-31 53 54 21 0
60 -42 16 -13 0
-41 43 -17 15 0
15 57 -24 55 0
-57 41 35 20 0
-33 12 -40 -31 0
9 37 -34 -56 0
-55 -56 50 -36 0
-1 37 -7 12 0
-20 -34 16 55 0
16 -22 50 -29 0
-25 44 -9 -38 0
16 35 -7 30 0
-32 13 -40 -20 0
-40 -19 -48 -5 0
-17 16 -15 -24 0
-13 15 -1 29 0
55 -49 9 3 0
54 -26 24 3 0
47 26 -54 -58 0
16 55 31 -9 0
-4 41 -44 -11 0
9 -7 -39 -38 0
-56 23 -9 55 0
17 55 -12 -15 0
-9 -53 14 -37 0
-6 -26 3 48 0
54 -17 50 31 0
44 47 -51 27 0
34 22 38 -23 0
26 44 57 -35 0
14 32 -22 -11 0
16 39 15 -2 0
8 -23 -31 -17 0
38 49 -53 3 0
17 53 -48 35 0
-28 -49 27 -20 0
19 3 42 23 0
-24 45 -53 -49 0
-37 -2 21 22 0
-23 35 49 13 0
7 -5 -49 10 0
-37 17 -40 -29 0
-26 29 52 -6 0
-35 38 -14 -7 0
-31 41 49 8 0
-26 -23 -22 -1 0
-29 35 -54 19 0
35 -10 -52 34 0
-12 -52 -1 17 0
43 22 -36 39 0
-54 46 29 -7 0
-45 -60 -57 16 0
-16 -51 57 -15 0
31 -27 -56 48 0
-26 4 24 35 0
-3 15 58 -42 0
-34 14 -23 -21 0
29 -12 18 26 0
57 27 59 55 0
-40 -13 -7 57 0
-4 20 -35 -26 0
38 36 46 -48 0
16 58 -53 34 0
2 34 42 18 0
-48 -26 -5 25 0
-14 18 -24 59 0
4 -3 -57 16 0
-26 -14 -55 59 0
-48 21 1 -47 0
-44 51 -35 33 0
-59 51 5 9 0
43 -1 -28 -38 0
-14 43 -55 19 0
52 27 16 57 0
-9 51 -39 -21 0
11 -57 -42 -5 0
-38 -3 26 -20 0
57 50 18 -11 0
34 -60 -7 10 0
54 11 -12 -20 0
-20 32 -42 36 0
29 -5 -39 -4 0
-60 -22 -58 -59 0
-1 32 -52 4 0
-56 -59 -28 2 0
-12 -36 -40 -32 0
28 -16 -6 12 0
5 -31 -18 58 0
-42 60 58 30 0
18 37 27 -39 0
-12 32 45 7 0
-15 42 -11 37 0
1 -30 -22 53 0
-37 1 7 20 0
-17 13 -38 -35 0
-10 -58 -2 -12 0
26 -34 42 -5 0
-8 12 -9 -40 0
-4 23 -41 18 0
8 -12 -38 44 0
-18 45 -38 -14 0
39 52 -5 47 0
2 13 43 -47 0
56 -31 -19 12 0
-20 41 -7 50 0
-58 -34 41 28 0
16 33 -22 -55 0
19 -43 -44 -37 0
32 22 -56 33 0
15 -43 52 29 0
-7 60 -2 9 0
-40 1 -16 12 0
-16 47 20 -41 0
54 -58 -20 -19 0
-12 -39 57 34 0
43 -17 46 5 0
-12 -22 7 -24 0
8 -25 38 15 0
-1 42 -36 35 0
22 44 -35 -43 0
-7 -52 31 -26 0
30 -38 -20 -35 0
-5 -3 28 -44 0
-50 -1 46 -16 0
-4 26 25 3 0
-20 49 -52 -11 0
17 24 58 15 0
43 -59 -2 12 0
-55 -32 48 41 0
-46 -45 -9 57 0
-1 -32 19 -56 0
-23 -33 20 -35 0
18 -37 16 -46 0
41 -28 4 -43 0
-27 34 10 53 0
-14 -23 26 49 0
-55 36 -12 50 0
-55 10 -19 40 0
-15 -1 21 20 0
39 26 13 -6 0
-43 53 -39 -47 0
-11 3 -39 -42 0
-24 -21 -45 -39 0
-40 -2 -41 -25 0
-28 20 -14 31 0
31 37 -7 -3 0
26 57 -50 58 0
3 -45 -8 29 0
5 41 55 -21 0
-34 -42 -20 -11 0
21 -60 17 -28 0
-32 55 4 -28 0
-35 36 -50 -53 0
-17 -5 15 21 0
29 -1 42 33 0
-48 58 52 -56 0
30 58 39 21 0
-50 -54 -29 -5 0
49 -43 -60 -16 0
52 3 -50 17 0
22 -37 45 50 0
17 39 8 -36 0
-31 -39 -57 -10 0
-54 24 12 22 0
-12 -17 22 -50 0
42 -60 -51 17 0
53 25 -6 -26 0
50 35 1 43 0
23 15 -12 -22 0
14 17 -15 25 0
-8 -13 -48 -21 0
-51 -28 41 45 0
-43 -22 -44 60 0
11 44 47 -38 0
36 33 55 54 0
59 -47 -31 50 0
-14 -12 -29 42 0
23 -43 -5 24 0
58 15 -26 -14 0
-44 -1 -41 48 0
-3 41 2 8 0
-30 -49 14 16 0
33 -58 46 -30 0
-51 16 -38 40 0
38 -41 -50 3 0
-52 49 36 32 0
-55 -5 -39 -18 0
-49 -9 -48 3 0
-41 -23 20 -32 0
-34 40 -55 -19 0
-8 34 44 38 0
-36 -18 -4 27 0
14 59 -10 16 0
39 15 11 -35 0
52 2 25 -19 0
31 43 51 59 0
32 -5 -21 -45 0
8 -39 26 9 0
45 -41 -49 -9 0
-40 2 -60 -18 0
-12 -60 -30 5 0
-21 26 -55 -39 0
-8 57 11 12 0
-44 -34 39 -59 0
-28 -44 -18 -2 0
-12 48 -14 -26 0
-36 31 -18 -37 0
39 53 -36 2 0
-30 -25 -4 -52 0
-33 -11 -30 43 0
32 -39 -60 -23 0
32 7 -30 -55 0
-29 -26 45 -56 0
-30 -29 -20 -19 0
52 -9 -14 -31 0
-2 50 8 54 0
32 -27 51 -5 0
-36 56 -9 -23 0
56 -34 11 59 0
-11 29 -50 44 0
-20 -11 2 -7 0
19 -56 -38 13 0
-13 -45 15 -43 0
-51 -20 -21 25 0
-19 12 56 -2 0
-16 -45 35 38 0
10 -1 -29 -52 0
-31 41 -9 -35 0
-19 -51 -23 -45 0
55 36 -45 11 0
-46 35 -19 34 0
-21 49 -46 6 0
-51 50 32 -7 0
-40 -18 -31 58 0
-5 -4 7 -6 0
7 -53 -28 41 0
-33 -14 -6 27 0
-3 27 42 16 0
-42 -35 -5 29 0
5 9 -25 -14 0
-49 -28 -55 10 0
21 53 -6 58 0
51 -3 6 -50 0
60 44 -10 4 0
-56 32 -39 -24 0
18 10 28 -39 0
-28 -16 4 -20 0
44 -33 17 23 0
-58 2 15 1 0
-13 -48 -23 -31 0
-39 -42 -52 43 0
52 -5 -56 -1 0
-55 25 11 -9 0
-43 34 -51 58 0
-15 30 -26 -55 0
23 -52 54 -16 0
7 -47 8 3 0
-60 36 -29 -32 0
22 -50 4 10 0
-6 10 29 -43 0
-22 44 34 -53 0
-40 -36 -16 -25 0
13 20 -33 36 0
-12 21 2 -3 0
-22 -48 35 25 0
-14 -56 44 -29 0
-30 -39 4 -8 0
-59 57 -31 10 0
5 -37 47 -15 0
-9 -51 -8 -29 0
-10 28 17 6 0
-46 -1 -25 55 0
57 27 -46 1 0
52 29 -53 -7 0
51 59 19 1 0
-7 47 -2 -30 0
5 21 -54 -20 0
-44 53 28 3 0
56 16 -28 -11 0
2 46 41 -51 0
14 -18 -13 49 0
41 -60 9 29 0
-11 55 -18 -51 0
41 -50 30 -38 0
-52 49 -30 22 0
59 -15 -3 1 0
-11 13 44 53 0
40 57 39 14 0
-38 9 48 41 0
-29 45 -3 13 0
-19 -17 39 -8 0
-56 28 -16 14 0
20 -53 -30 -41 0
-13 56 50 16 0
35 46 42 -15 0
49 41 39 -3 0
26 38 -59 -41 0
14 -31 -43 -28 0
-21 -59 56 -20 0
-41 -49 -31 -44 0
56 60 -52 13 0
23 -48 27 30 0
48 -36 32 -1 0
-43 51 -5 -16 0
-29 21 -35 -34 0
-35 -53 -1 28 0
