c family=4-SAT n=60 instance=5 seed=726001144 models=46
c order 51 30 42 43 48 55 25 39 50 27 26 1 9 59 24 45 23 29 58 41 11 16 54 5 13 34 53 32 33 49 2 44 52 18 31 60 12 56 36 3 37 6 20 47 21 28 8 22 14 7 38 17 40 15 46 57 35 4 10 19
c order 48 16 43 24 4 37 1 33 49 41 31 54 18 55 8 52 36 5 10 27 26 22 40 12 57 20 19 9 3 23 15 6 56 7 21 13 53 46 28 39 11 2 25 47 59 44 50 42 14 17 34 35 32 51 38 45 29 60 30 58
c order 24 29 14 34 36 38 11 50 12 17 28 59 9 43 53 51 42 45 3 54 18 5 33 46 21 31 56 19 8 7 13 57 48 47 26 58 16 23 6 60 44 22 30 39 27 1 41 10 35 55 15 25 37 52 49 20 32 40 4 2
c order 28 11 56 13 40 22 25 1 42 24 4 32 36 48 10 15 7 9 27 44 37 43 59 51 17 54 38 41 50 55 19 39 5 20 33 53 47 23 35 31 52 18 6 60 14 46 16 2 30 34 26 45 21 57 58 8 3 49 29 12
c order 47 54 12 11 22 23 9 37 7 55 58 36 16 24 46 1 15 27 50 60 5 48 25 6 13 42 51 57 44 4 18 56 41 28 40 33 34 29 30 8 45 19 43 49 31 17 53 20 21 35 26 14 59 32 39 2 38 52 10 3
c order 16 53 41 29 45 12 23 37 25 35 5 9 26 42 44 17 18 3 46 40 13 10 48 49 4 36 50 24 30 19 2 28 15 38 6 43 32 22 39 33 8 58 54 11 51 20 14 57 34 52 31 27 21 56 7 59 1 55 47 60
c order 21 54 25 14 4 44 15 58 24 34 50 2 3 48 56 29 32 9 33 52 10 1 36 49 55 18 6 45 23 20 30 39 7 26 37 8 41 53 38 59 42 40 35 27 17 51 19 31 46 28 22 16 5 60 57 43 11 12 47 13
c order 23 27 5 24 26 34 3 19 58 45 52 15 20 56 49 35 16 41 28 40 47 33 30 39 59 32 54 22 10 31 11 37 21 7 53 55 60 50 42 44 25 48 18 57 38 6 9 17 8 46 43 2 51 29 36 13 1 14 4 12
c order 30 52 29 9 33 1 11 55 8 57 40 16 53 26 20 46 25 19 43 31 22 18 37 58 41 48 21 24 51 54 56 35 17 13 12 47 15 7 36 3 38 10 60 45 39 42 14 50 34 44 2 4 6 49 32 59 27 23 5 28
c order 28 6 55 52 27 57 37 12 15 11 54 9 47 5 26 46 35 31 36 38 22 25 19 4 33 24 8 53 3 40 41 48 32 10 20 21 44 29 58 30 39 14 45 60 17 56 43 51 34 2 23 16 7 13 1 42 18 59 50 49
p cnf 60 576
-46 38 30 -41 0
32 -25 -13 -14 0
-48 -7 49 -2 0
-26 48 16 51 0
49 -44 35 23 0
-45 -37 -49 -38 0
-36 43 -28 -50 0
35 43 -42 14 0
37 -41 50 -31 0
56 -3 52 11 0
-43 -4 45 -55 0
-2 -44 21 54 0
41 59 57 -21 0
-37 -51 -52 -22 0
49 42 -10 58 0
2 -7 -34 45 0
14 -9 25 -24 0
-41 -45 42 23 0
-21 -41 -13 16 0
41 24 -46 5 0
41 50 49 -27 0
-12 -3 -18 21 0
3 -27 8 60 0
52 38 5 45 0
-8 16 53 29 0
27 24 -8 42 0
53 14 -23 31 0
-24 -18 -11 14 0
-6 -40 -3 60 0
-7 -10 31 60 0
47 -9 30 -10 0
36 29 48 -54 0
-9 -59 -7 50 0
2 -16 56 -42 0
13 46 -11 -41 0
33 -12 -47 58 0
58 43 1 -23 0
13 -16 -2 41 0
36 6 -23 -10 0
2 17 34 -20 0
-28 -4 -38 29 0
33 11 -30 -46 0
-21 -20 48 -50 0
58 51 -54 -9 0
-12 1 60 -58 0
55 52 20 39 0
-46 -33 36 19 0
-1 36 -28 60 0
-25 31 -37 38 0
50 -4 -36 20 0
-33 22 -59 52 0
15 -50 -6 29 0
-9 -18 16 -29 0
41 42 -2 56 0
-38 25 54 6 0
-8 -39 41 21 0
37 -28 35 -15 0
25 -41 -6 43 0
17 49 -4 26 0
38 -40 -41 -46 0
-11 20 -17 57 0
46 37 10 17 0
8 -40 58 26 0
-48 -19 10 -6 0
39 -3 45 2 0
-34 5 -7 -3 0
36 30 48 -31 0
54 -4 -55 16 0
-17 -1 14 -16 0
-55 -4 37 44 0
-23 -46 -58 -41 0
-12 41 22 23 0
41 -28 -52 10 0
53 15 39 48 0
-23 -11 16 48 0
27 37 30 29 0
-12 37 -43 -5 0
-33 40 44 -54 0
8 -14 15 -40 0
-14 47 -7 -27 0
34 26 -44 -51 0
-27 -40 52 -33 0
-35 -30 -37 55 0
5 -8 3 32 0
31 -2 -20 -30 0
47 -10 -30 -29 0
-15 30 16 12 0
-18 1 -49 -42 0
-12 47 -14 52 0
-21 -18 54 41 0
8 -31 -41 -52 0
19 21 13 34 0
26 5 -12 47 0
-33 -28 23 -27 0
-22 -20 14 29 0
-35 -59 -33 23 0
6 -18 24 -43 0
6 59 -22 51 0
20 41 18 25 0
9 -21 58 -19 0
-42 -55 -34 -58 0
31 53 -24 25 0
6 -39 -51 -13 0
32 -51 -15 19 0
32 25 31 -11 0
31 -41 39 -59 0
-14 35 25 -52 0
26 37 35 -30 0
-30 50 60 -37 0
-8 -30 -7 -31 0
-28 -1 -4 56 0
-36 20 -18 32 0
1 51 17 -19 0
16 -45 9 -5 0
24 -10 5 -12 0
-8 20 -5 16 0
38 -26 -21 -33 0
13 -39 -47 24 0
26 55 1 5 0
-50 -15 19 36 0
31 -44 -24 4 0
17 -40 -2 47 0
-19 40 -45 -17 0
-32 58 -23 -51 0
49 -18 54 -41 0
53 10 20 -55 0
-3 49 -52 5 0
59 8 -5 -46 0
-19 52 28 -60 0
-60 -51 -34 -1 0
-12 8 52 6 0
-13 32 49 37 0
-60 -57 -1 25 0
58 16 52 44 0
20 55 34 -36 0
4 27 -34 -9 0
26 -50 17 -35 0
-27 12 21 -22 0
-50 -3 -33 21 0
-20 -56 26 -46 0
-40 45 32 -20 0
-47 -22 -35 44 0
25 42 58 54 0
57 -19 -53 -49 0
-22 -46 20 -3 0
46 -60 -33 28 0
-7 -4 37 -16 0
22 23 -56 -51 0
33 48 -58 -60 0
48 23 -19 -47 0
56 23 -44 8 0
-40 18 26 -22 0
-24 -42 18 3 0
47 13 -26 53 0
-33 6 -31 -59 0
-8 -55 57 24 0
-58 -31 20 -28 0
-41 60 29 57 0
21 20 -54 -41 0
-11 14 -34 -31 0
52 -17 20 18 0
52 -21 29 -55 0
15 46 54 -12 0
-9 13 -28 34 0
13 45 37 26 0
53 -26 19 -14 0
-6 -58 50 8 0
-42 59 60 35 0
57 -21 -45 12 0
12 -20 -25 52 0
52 -1 48 -54 0
-60 -59 -45 55 0
41 42 56 -22 0
18 60 41 -11 0
47 24 -41 15 0
55 -24 -33 16 0
-26 -10 11 58 0
-25 15 2 31 0
25 9 -26 39 0
-40 13 38 -45 0
-32 -57 -53 -9 0
50 -10 27 3 0
28 58 -60 55 0
-36 28 7 -60 0
20 -53 -4 52 0
-49 12 53 -31 0
5 -44 -30 60 0
-50 -3 -17 26 0
52 37 10 5 0
53 -57 42 18 0
15 60 43 -2 0
22 -3 31 6 0
-4 20 -12 48 0
44 -27 16 -20 0
52 48 -21 41 0
-49 -29 -15 22 0
-12 29 -44 59 0
28 24 -45 -53 0
-49 -56 40 7 0
-56 -16 -49 20 0
2 53 22 -5 0
13 -36 6 49 0
50 3 -15 -8 0
47 55 28 -33 0
-54 38 -30 -34 0
50 57 27 -35 0
8 42 40 -52 0
58 -38 -40 23 0
-40 8 -10 47 0
51 -24 -46 -56 0
-15 59 -55 47 0
41 39 29 -16 0
11 -8 -15 -43 0
57 30 45 52 0
-20 52 7 -30 0
1 21 50 -46 0
26 -41 -58 -30 0
-60 -44 18 -5 0
25 -15 -12 -22 0
23 53 35 8 0
-7 -51 -15 56 0
44 -40 25 -12 0
-41 33 55 51 0
-41 -9 -33 -45 0
-2 56 21 8 0
-12 -1 59 -6 0
-44 -51 55 36 0
-55 25 12 -10 0
-1 -49 -11 -48 0
-54 7 50 -41 0
-51 -50 35 -37 0
-29 -45 -3 -18 0
-38 -45 49 12 0
-56 42 46 -45 0
30 -58 56 18 0
25 -18 -14 45 0
-16 8 53 -52 0
46 -9 26 -35 0
-44 -3 -8 26 0
30 49 -28 -41 0
-44 -11 33 37 0
48 53 -2 15 0
39 -46 12 -55 0
-12 20 -48 16 0
-4 29 -44 -55 0
2 -46 -48 36 0
-59 10 -17 -19 0
60 -50 -1 -44 0
36 38 29 40 0
9 22 39 -56 0
23 54 -24 -6 0
21 45 -35 11 0
-24 16 18 -9 0
8 46 -39 -59 0
-12 -45 11 -51 0
30 6 42 33 0
2 10 39 50 0
4 26 41 58 0
-60 -49 42 30 0
-15 59 56 -54 0
58 30 56 -11 0
-55 46 -15 52 0
-36 19 50 -52 0
-43 -32 -16 -4 0
-27 49 19 -33 0
30 -2 -39 -29 0
-1 -44 -51 -49 0
-24 -44 -55 -38 0
-18 16 28 55 0
-16 29 40 39 0
-11 41 -36 17 0
-22 -16 -51 9 0
-6 -31 -50 18 0
12 4 52 6 0
-55 -54 28 50 0
52 -50 26 54 0
17 40 25 -58 0
-58 47 -57 26 0
47 50 29 4 0
-27 -48 36 -2 0
32 57 51 -29 0
-55 -14 45 -4 0
4 -20 -27 -49 0
16 -39 38 -32 0
46 54 -14 -50 0
-56 -14 37 42 0
4 15 35 6 0
40 43 52 37 0
52 -47 24 10 0
-40 25 -14 -33 0
14 -8 -30 -24 0
44 -21 -53 50 0
-3 -7 23 43 0
-23 32 1 -18 0
9 -31 7 48 0
-9 -15 55 40 0
41 46 36 -51 0
17 -24 -46 38 0
40 55 7 -45 0
-23 -15 -59 -11 0
28 40 32 54 0
-60 36 47 23 0
20 56 -52 -35 0
48 42 59 11 0
-53 29 44 -5 0
-23 1 -7 59 0
-8 1 -28 -56 0
28 -49 54 42 0
-38 57 9 32 0
4 46 48 55 0
-57 19 7 -36 0
29 22 57 -28 0
-21 -2 -60 -30 0
4 -26 -10 28 0
41 -20 -23 -28 0
20 55 -54 -59 0
6 -51 36 -12 0
-18 -2 -4 23 0
-46 -34 8 -15 0
12 21 28 32 0
-15 59 -27 49 0
-17 -52 38 3 0
57 -19 53 50 0
-6 -32 50 -43 0
56 -4 3 -35 0
-10 39 53 -49 0
51 14 19 -25 0
44 -46 15 -38 0
17 -15 53 22 0
60 -48 -29 -19 0
-24 13 -43 15 0
42 -16 6 -27 0
-8 -24 46 -17 0
-41 -9 -28 -57 0
-1 -50 -46 -9 0
36 -12 24 -34 0
-6 -52 -16 24 0
44 -5 -18 19 0
-59 -28 -26 22 0
-24 -30 -13 -19 0
37 -49 -58 -35 0
18 8 30 -57 0
-58 3 17 28 0
13 33 18 -42 0
-48 28 13 29 0
12 -27 47 34 0
-58 30 -12 38 0
15 42 -33 27 0
-7 40 6 54 0
24 30 -50 -44 0
-23 44 59 21 0
-24 -4 6 -32 0
29 4 -3 6 0
6 -48 -20 30 0
53 10 14 8 0
-46 -38 -51 57 0
-26 24 9 -37 0
-11 49 -19 48 0
-58 -6 44 -59 0
54 58 14 -35 0
32 46 -37 -56 0
-9 2 12 7 0
-34 -47 -59 -49 0
33 -52 -14 -18 0
-24 -33 15 -50 0
58 -42 18 57 0
21 56 3 -26 0
-4 8 -13 -15 0
-57 39 15 37 0
-44 54 53 -48 0
-9 59 14 -5 0
22 -50 48 -35 0
-7 -18 -9 20 0
-53 36 39 41 0
36 33 -43 -10 0
-35 20 41 -55 0
29 -13 -6 1 0
13 -20 -9 11 0
21 20 37 51 0
56 -4 -30 59 0
30 7 -32 2 0
-29 -31 3 58 0
-3 -15 39 -36 0
-45 56 -44 34 0
-60 -21 -16 55 0
-43 -22 -40 -27 0
60 39 33 5 0
31 -45 -51 -33 0
-19 -22 -49 11 0
55 -35 -49 3 0
28 -59 -54 -1 0
50 -60 -20 -58 0
6 -31 -36 33 0
-28 -46 -16 -34 0
-60 4 55 -22 0
-8 4 -38 21 0
1 -34 -29 -8 0
-29 -26 -51 2 0
35 -25 -40 16 0
-34 -56 26 -20 0
9 -59 -27 -53 0
2 -16 51 19 0
27 -1 60 31 0
-44 -55 -14 42 0
17 33 -39 59 0
-19 47 -43 -57 0
34 -19 59 5 0
25 11 13 42 0
47 40 -18 54 0
14 -23 -48 26 0
-12 -41 1 21 0
-8 7 53 -14 0
-5 -27 10 -42 0
35 18 8 -4 0
5 -7 -60 -36 0
-42 37 -56 45 0
16 -60 52 -54 0
50 -40 -24 34 0
5 -32 -27 24 0
-13 -4 -48 -5 0
9 -8 18 37 0
-15 -12 -47 -2 0
-14 7 -22 -45 0
-55 1 33 21 0
-23 18 47 17 0
19 4 33 57 0
27 2 42 53 0
29 15 -31 16 0
40 -38 -29 14 0
-2 58 -10 24 0
43 12 -41 -22 0
-42 31 -5 -30 0
35 7 -40 -56 0
-39 22 24 3 0
50 16 -54 -4 0
-60 32 1 -18 0
-22 10 50 -3 0
42 27 -51 -47 0
-33 14 -34 -20 0
57 -20 -5 30 0
-44 -30 -51 20 0
-10 16 -30 -2 0
49 -52 -38 -12 0
-54 -47 20 41 0
26 7 53 29 0
-54 -46 -37 -18 0
11 44 -55 -6 0
-39 22 -42 -38 0
-39 -29 -52 -33 0
-9 15 -21 1 0
-10 -19 -28 3 0
1 59 -19 -35 0
-54 -59 -60 -36 0
-40 -3 -33 28 0
-46 -39 -21 18 0
-35 53 -9 14 0
12 58 27 57 0
59 17 26 -19 0
55 11 38 -24 0
-21 22 52 60 0
-50 58 -12 15 0
-8 -39 -5 -17 0
-16 -43 37 -18 0
48 -31 -52 -53 0
31 -37 20 -22 0
-48 -24 14 -8 0
-19 2 -31 -10 0
28 13 -45 -9 0
-14 52 43 59 0
-33 9 -51 15 0
-53 57 -28 -36 0
-38 -11 -16 14 0
29 -44 33 -23 0
-42 51 -47 52 0
-54 -48 -46 -26 0
-14 31 -13 15 0
8 -13 -31 9 0
54 3 -16 -37 0
-32 -20 45 4 0
-24 -52 3 -19 0
42 15 59 -9 0
51 -40 -44 -39 0
22 55 19 28 0
-35 24 2 42 0
-58 -3 -45 52 0
-47 -3 -7 14 0
-32 28 17 15 0
-39 34 21 19 0
23 25 -51 45 0
51 50 -37 44 0
34 14 -1 -15 0
34 11 60 18 0
5 -15 8 -2 0
-23 10 27 58 0
55 13 51 58 0
33 -1 42 -43 0
-11 -40 19 45 0
-39 1 -23 24 0
56 12 19 -18 0
-49 26 -59 -41 0
-3 39 -41 -42 0
33 -51 27 6 0
22 -51 -56 7 0
35 -6 28 24 0
51 -25 50 -35 0
-34 54 -53 -37 0
51 47 50 -49 0
-25 22 -26 45 0
1 -44 25 23 0
50 31 -54 -56 0
-9 22 3 -52 0
48 -49 51 -59 0
39 7 -15 -49 0
-7 -46 -27 33 0
-25 -44 40 11 0
-29 -10 40 24 0
54 31 13 -30 0
60 -49 55 -28 0
23 24 -60 59 0
17 -58 -47 -42 0
42 11 6 -3 0
-6 -50 -45 -27 0
56 39 -40 -50 0
45 -5 18 -17 0
-44 60 -37 -34 0
-32 35 -52 -33 0
11 2 -42 -51 0
-27 57 -38 -42 0
-19 16 11 58 0
47 -46 -54 29 0
37 -11 3 23 0
-19 26 52 -11 0
32 -46 -4 44 0
38 -33 -25 58 0
6 -10 25 48 0
-1 47 45 -24 0
-52 -5 4 -31 0
-39 28 -18 -31 0
-52 -47 19 35 0
-34 10 41 -45 0
-3 15 4 34 0
-35 50 -30 -6 0
-44 20 7 -11 0
45 -43 8 -39 0
-15 -59 22 -43 0
59 55 -15 -11 0
27 -39 -22 18 0
60 -24 14 -7 0
-49 39 -44 -48 0
9 -26 -6 -24 0
-57 -59 48 -60 0
16 -48 56 5 0
-21 34 27 52 0
21 -32 -1 -10 0
-38 -23 -58 8 0
55 8 31 -60 0
9 -48 25 3 0
7 21 -33 9 0
40 2 -30 9 0
22 -25 -38 28 0
-12 16 42 -54 0
-12 -27 19 -20 0
-59 -46 -49 34 0
-33 -32 43 29 0
-56 -7 58 -47 0
54 -3 -43 -39 0
-48 13 18 41 0
50 55 33 13 0
19 40 30 -4 0
-28 -45 52 -19 0
-54 8 -56 -51 0
46 50 -19 16 0
32 58 24 53 0
-6 -60 -39 -58 0
46 7 29 -6 0
-57 31 -14 -59 0
