c family=4-SAT n=60 instance=7 seed=726001144 models=230
c order 38 60 21 16 23 20 33 59 40 37 58 26 39 34 30 24 29 45 50 27 44 25 51 18 17 42 53 13 43 2 4 14 8 57 56 55 12 7 22 32 36 3 49 19 11 1 48 5 47 52 15 10 6 46 9 54 41 31 28 35
c order 37 46 29 43 5 2 30 15 39 50 16 59 24 3 27 42 9 36 12 40 19 31 6 41 7 51 32 4 53 22 13 55 11 44 25 57 33 18 10 20 56 26 38 45 52 54 14 60 28 49 47 17 48 8 1 35 34 58 21 23
c order 40 5 14 48 60 7 51 39 30 41 54 43 22 46 23 24 34 20 37 15 36 3 29 25 52 4 6 38 26 42 35 31 21 28 1 19 44 11 2 47 17 50 13 33 12 59 55 45 32 56 27 57 53 16 9 8 49 18 58 10
c order 15 23 20 9 38 18 55 30 50 3 28 6 29 21 13 16 22 32 48 43 24 14 44 37 1 25 5 42 49 60 36 47 39 4 35 7 45 40 8 27 59 46 31 34 58 11 56 12 57 19 52 2 54 17 41 51 10 26 33 53
c order 46 7 45 28 29 50 27 47 37 49 39 30 31 9 23 20 48 26 11 12 53 32 57 6 1 42 21 24 19 38 59 60 54 56 25 44 16 40 22 3 10 18 41 5 15 36 8 17 2 35 13 34 52 55 51 43 33 14 58 4
c order 53 11 57 28 22 40 59 3 34 60 2 4 7 55 41 30 37 8 24 26 49 15 21 20 6 12 38 29 23 36 46 43 13 47 58 39 32 1 52 42 45 10 18 17 14 50 56 27 48 33 16 35 25 51 5 44 54 31 19 9
c order 32 45 9 49 41 18 21 12 15 26 51 22 14 31 58 55 52 23 17 60 34 3 40 1 46 7 5 56 28 10 43 24 25 6 19 59 8 50 29 13 36 27 53 35 37 42 20 30 2 4 54 16 39 11 48 33 38 57 47 44
c order 15 20 43 53 56 29 31 7 60 27 57 49 5 1 45 48 58 12 38 40 46 19 22 23 30 2 36 54 4 21 28 10 18 14 37 55 50 9 39 41 24 3 47 8 33 11 34 16 51 52 26 59 44 42 13 32 35 25 6 17
c order 8 24 45 13 9 25 59 32 58 60 56 40 20 43 54 34 27 31 36 48 41 22 14 18 52 10 30 50 44 53 17 26 16 21 39 4 46 37 55 28 3 15 33 57 29 35 5 2 7 49 19 51 11 38 6 12 47 23 1 42
c order 24 35 34 45 53 49 58 31 57 6 47 36 30 2 43 12 33 23 32 16 25 3 46 10 50 1 13 27 40 39 42 52 19 18 41 37 14 22 29 20 17 9 55 8 7 60 5 54 44 51 26 38 28 4 48 15 21 59 11 56
p cnf 60 576
-42 -46 -32 -49 0
-27 -28 -56 35 0
17 -41 7 40 0
47 -41 -28 -42 0
15 -6 14 -16 0
-30 -9 1 36 0
-46 9 -60 -55 0
13 -11 14 54 0
46 -55 -29 27 0
27 49 21 -17 0
49 -31 37 9 0
14 9 -5 11 0
-45 14 -11 39 0
-23 5 21 43 0
10 -14 -48 6 0
-37 16 -7 35 0
59 36 9 -4 0
47 -9 12 -38 0
-8 26 40 44 0
3 13 54 -28 0
58 22 -47 20 0
-49 9 4 -42 0
18 57 56 60 0
-59 -54 -12 -56 0
55 -16 60 35 0
-19 -54 -42 -60 0
14 -39 28 56 0
-16 2 43 27 0
36 25 -13 7 0
48 27 -7 -14 0
44 36 -13 38 0
2 48 12 1 0
-43 -39 -23 34 0
31 28 4 34 0
-2 -6 47 28 0
-24 -11 31 55 0
44 -1 -29 -43 0
10 30 -12 6 0
22 34 31 -40 0
-51 -18 52 -57 0
29 22 -3 -54 0
35 53 27 17 0
35 -3 9 -48 0
27 -49 48 -22 0
-17 4 52 40 0
15 32 55 26 0
49 -10 41 -17 0
20 -28 27 4 0
-48 35 45 24 0
59 -51 -48 44 0
-58 -33 -30 -59 0
-20 51 13 38 0
43 -54 -59 37 0
43 32 -22 -53 0
-53 -35 58 33 0
-52 29 -36 -18 0
54 -34 51 -58 0
58 37 -39 24 0
50 -16 12 47 0
-9 30 36 -20 0
-4 -32 28 23 0
-45 -41 44 37 0
16 49 15 -21 0
-21 -60 -8 -16 0
17 -14 -51 -30 0
7 -20 -57 -10 0
32 28 51 43 0
-7 49 -35 53 0
18 -42 -37 -19 0
54 5 -53 -57 0
31 60 25 -39 0
55 -43 -60 -16 0
51 -41 27 22 0
-56 27 -48 13 0
-29 27 43 -32 0
13 52 -17 50 0
29 41 -16 -26 0
-42 -25 22 -10 0
-14 -7 60 13 0
-8 57 23 55 0
-45 25 -58 -17 0
40 -24 1 -26 0
54 -46 -6 -20 0
15 55 -13 38 0
-57 -48 -40 22 0
19 23 54 -60 0
46 59 -18 -22 0
-21 -8 20 -45 0
24 29 -59 -43 0
-23 30 55 -28 0
14 -60 -57 -56 0
52 -13 11 -42 0
-28 -38 37 27 0
-21 -60 -13 55 0
26 17 5 -52 0
57 20 -4 -35 0
18 53 33 -29 0
4 13 -45 16 0
21 -34 15 23 0
4 39 -33 19 0
52 -60 -1 -27 0
-27 44 -13 22 0
3 -56 -40 2 0
59 -40 49 55 0
27 8 -12 -2 0
45 -1 -13 8 0
-60 -12 43 16 0
-38 -49 36 12 0
7 8 50 -16 0
-5 -48 -25 -24 0
-24 53 -60 37 0
40 -34 4 45 0
-37 -39 1 46 0
60 -56 41 52 0
-36 5 -6 -35 0
40 -52 33 -35 0
4 51 27 -37 0
-30 59 -32 -15 0
-57 -21 24 -29 0
-2 19 -13 -33 0
-32 -17 -27 -38 0
-36 57 -48 25 0
55 -8 -35 41 0
7 26 53 25 0
-51 -30 19 -35 0
-53 47 35 -54 0
38 -52 -39 28 0
-26 -55 42 -32 0
23 35 -54 41 0
56 36 -58 -33 0
-42 1 -9 -8 0
-11 21 27 16 0
4 -22 -54 3 0
22 43 33 50 0
13 -2 34 36 0
49 -3 33 -59 0
20 21 22 33 0
20 -3 38 -53 0
43 -59 3 -51 0
-57 22 43 -29 0
17 57 -38 -52 0
44 -53 54 1 0
60 29 4 -8 0
-12 -53 14 27 0
-53 -30 49 38 0
-47 40 54 19 0
54 47 38 7 0
32 48 17 53 0
25 -20 9 31 0
-52 27 -41 26 0
17 50 57 41 0
-2 -17 -43 -7 0
47 -8 22 37 0
40 58 13 -28 0
20 15 -39 -21 0
32 -14 -10 -11 0
-47 -54 -29 -4 0
-44 -5 -42 -21 0
-27 -33 -40 -54 0
42 8 -18 -21 0
-4 -23 -45 32 0
24 2 3 50 0
11 49 37 -23 0
24 35 -43 55 0
60 15 -17 55 0
14 29 -13 -12 0
-5 44 12 -14 0
-17 35 -1 -54 0
-9 23 30 42 0
-30 -51 2 45 0
-8 18 42 -44 0
-48 54 -59 -52 0
2 -43 -6 47 0
40 24 -12 58 0
36 28 -48 38 0
-52 30 -49 7 0
56 39 -55 19 0
7 -37 -11 -50 0
-23 14 49 29 0
40 18 59 15 0
-17 -10 50 -51 0
-3 -46 39 -56 0
46 -3 44 -27 0
54 5 -37 -57 0
34 21 7 -45 0
23 9 -44 -35 0
-37 19 33 36 0
-49 -45 18 27 0
-4 8 28 -26 0
34 -11 -26 41 0
33 -25 58 21 0
58 51 60 40 0
31 -11 -22 -33 0
-1 -53 -40 -18 0
19 -5 21 16 0
-55 -2 -11 20 0
-32 -46 3 26 0
-55 -48 -42 -45 0
-49 11 1 19 0
51 10 -44 9 0
30 33 -18 14 0
-29 40 -35 -60 0
-30 6 -41 -50 0
25 -47 -17 24 0
33 -35 -14 -44 0
-33 -19 -32 14 0
-34 -5 6 22 0
-33 17 6 4 0
-11 56 12 1 0
-27 47 57 -16 0
3 37 40 15 0
60 1 30 34 0
-33 -18 -27 -8 0
-38 -39 22 -1 0
-43 36 -46 -51 0
42 8 39 -56 0
-51 -59 54 8 0
44 -11 43 -51 0
2 37 -56 -30 0
-10 -26 52 -44 0
-1 -41 60 -24 0
6 -58 -52 -1 0
5 1 16 57 0
-41 -43 7 31 0
53 3 51 23 0
36 -54 -56 47 0
-40 55 49 33 0
26 -34 -45 5 0
-55 -23 16 -19 0
53 -23 -4 1 0
37 -23 -40 32 0
35 43 -45 -9 0
-3 21 -54 48 0
55 20 -24 21 0
24 34 -59 9 0
6 14 33 16 0
4 51 -5 59 0
-55 30 -44 -25 0
-13 -23 8 -34 0
-8 -5 53 -54 0
-9 34 12 30 0
15 33 -48 14 0
-36 41 23 1 0
7 9 41 38 0
-19 46 -17 52 0
-26 6 22 9 0
-18 -44 -20 3 0
-48 -9 42 20 0
-59 -54 17 60 0
-50 46 59 15 0
32 40 -51 -34 0
-17 48 -7 -46 0
-2 41 -20 44 0
-37 23 20 47 0
-49 32 16 -44 0
-50 35 18 44 0
-34 -46 24 -1 0
-13 22 -38 1 0
33 48 -36 12 0
5 19 -58 7 0
27 -15 -51 12 0
20 43 41 8 0
10 33 -21 -45 0
11 33 -25 -31 0
-15 -11 5 47 0
60 6 -54 39 0
4 -14 -35 -23 0
7 41 -46 -18 0
-8 12 49 -32 0
49 31 43 28 0
-18 -2 13 14 0
3 1 7 19 0
-3 50 31 29 0
15 -30 -22 -47 0
-21 -55 -48 -47 0
-42 -10 -16 -29 0
-23 -8 51 25 0
25 -17 -12 -41 0
-55 30 47 -10 0
17 6 -54 -26 0
48 25 -46 49 0
24 10 57 19 0
31 28 23 -50 0
53 -41 -22 12 0
42 32 22 55 0
25 -46 44 -34 0
-58 -60 -21 57 0
44 -56 59 54 0
-44 14 -22 26 0
-52 22 44 -33 0
56 35 -17 45 0
17 -11 -41 57 0
42 -50 -27 -23 0
44 40 28 35 0
15 -53 -3 13 0
-52 59 54 -18 0
-42 -24 -57 22 0
51 12 49 -25 0
-12 -51 -6 -20 0
31 48 55 3 0
36 47 -9 -33 0
43 26 16 11 0
54 -31 41 -15 0
49 -34 -40 47 0
19 -20 38 -21 0
-2 57 -46 -4 0
49 4 -30 -60 0
16 -58 -51 -30 0
40 -36 15 -43 0
32 22 7 -52 0
26 36 2 10 0
38 30 55 -44 0
58 31 28 18 0
-9 1 14 -6 0
-12 -22 5 -46 0
-60 -14 -33 53 0
-34 -29 25 -26 0
-45 35 -17 20 0
-20 44 -58 9 0
-16 -6 25 -56 0
-9 6 -45 31 0
-26 -46 37 5 0
-39 50 52 -5 0
50 -51 31 -2 0
27 14 12 -5 0
22 -15 -12 37 0
-3 35 -60 -40 0
-4 29 11 26 0
28 57 14 -53 0
51 -47 13 33 0
-4 26 1 -13 0
43 -4 -26 20 0
27 2 -57 32 0
59 -7 -41 -36 0
38 -49 -2 19 0
-6 -53 -39 45 0
44 -6 -7 25 0
51 -18 2 -52 0
24 -53 38 58 0
37 -54 16 51 0
57 -47 49 -14 0
-6 -40 -60 -51 0
58 55 59 -56 0
-52 -39 -44 -15 0
-21 -4 60 -6 0
-57 53 -18 -58 0
-26 -50 -49 -32 0
22 53 -41 -36 0
15 -3 40 -24 0
-21 45 -19 43 0
-1 5 57 -47 0
-11 -18 -42 -53 0
41 44 27 -38 0
-26 23 29 -32 0
-23 -9 -10 -2 0
-12 -36 44 51 0
19 17 20 -30 0
-18 14 -43 -3 0
-45 42 21 6 0
5 -7 21 -34 0
-59 24 46 -25 0
-16 -55 -38 18 0
-46 -7 -55 24 0
49 -29 -37 16 0
-20 -34 48 -30 0
54 -31 53 42 0
34 -39 -8 -17 0
34 -30 4 2 0
-28 20 -9 -10 0
-55 -39 -4 11 0
-48 44 -2 -47 0
6 21 51 -7 0
23 38 -54 -39 0
1 -37 -34 38 0
-52 -18 1 35 0
50 26 -32 -48 0
-44 50 46 -2 0
-37 10 46 -6 0
43 8 16 -46 0
-15 -27 -53 29 0
3 -54 -35 -55 0
17 -9 58 1 0
-43 4 53 28 0
-22 8 47 11 0
22 -16 -15 52 0
-26 -46 -56 -49 0
-57 51 -9 11 0
50 54 -37 -46 0
5 47 49 -53 0
26 1 -14 22 0
-59 60 -18 -4 0
2 -4 45 -51 0
-45 -52 -32 -23 0
21 5 28 -3 0
-58 9 -41 -34 0
49 15 56 -1 0
-52 13 -57 22 0
40 -39 -43 29 0
-4 -18 -51 -57 0
30 58 -37 33 0
-27 43 28 -7 0
16 -42 -12 15 0
-21 4 -41 11 0
-1 -32 -43 8 0
41 26 57 34 0
-46 24 59 -45 0
57 -28 21 -5 0
1 44 13 -28 0
54 52 13 -40 0
19 20 -15 29 0
46 23 41 -37 0
-59 23 7 16 0
-9 10 -1 42 0
-19 -58 25 3 0
2 6 -37 -12 0
-44 9 52 41 0
52 -56 -22 -39 0
-10 45 -31 -44 0
-48 -60 15 -27 0
-1 -23 21 -31 0
-48 44 25 -45 0
59 -58 -25 43 0
21 -1 3 -41 0
-49 -55 27 -19 0
-46 22 -53 15 0
31 -2 56 -41 0
-46 17 -10 38 0
35 18 21 30 0
45 -11 49 59 0
45 -33 -10 -18 0
-41 -46 3 54 0
32 -18 29 10 0
-48 -19 2 -45 0
23 -2 42 -58 0
27 -13 -56 23 0
-6 17 58 -13 0
4 -27 9 -44 0
55 1 -54 -16 0
51 30 -54 2 0
29 58 -37 39 0
-25 8 47 -2 0
54 -27 60 -1 0
-33 -24 4 51 0
22 40 -15 46 0
-35 -55 -24 -60 0
5 -6 54 -58 0
-32 50 19 22 0
11 1 -19 55 0
31 17 24 -12 0
-35 -26 29 -14 0
-36 35 46 56 0
40 -58 1 -11 0
-58 22 -7 -53 0
-44 -30 -12 -1 0
41 -25 -50 55 0
28 20 6 14 0
58 -16 51 -37 0
-54 -41 -47 -33 0
1 -52 13 32 0
57 20 8 -22 0
19 22 -54 51 0
55 59 -2 5 0
34 55 51 40 0
-18 -7 -43 40 0
27 -56 8 -42 0
-35 -34 38 -43 0
33 11 59 -47 0
-13 6 29 -35 0
-1 -25 57 -11 0
14 -46 51 -27 0
-16 2 -7 -53 0
54 44 -30 58 0
-60 -13 -23 -20 0
-37 -60 35 42 0
-36 -42 -49 -26 0
59 51 -19 2 0
24 22 -2 -26 0
-7 -27 -25 10 0
47 45 -1 36 0
58 9 -54 39 0
18 -35 -11 41 0
-13 -3 -17 26 0
40 33 -27 -4 0
-58 -16 -26 13 0
1 7 57 49 0
34 -23 10 58 0
59 -45 5 -56 0
47 -7 46 50 0
9 -38 -1 42 0
-57 40 -35 2 0
45 57 -28 -2 0
-48 -25 -40 -38 0
-22 -4 21 52 0
45 -8 58 51 0
-20 -11 51 -4 0
45 21 -1 -44 0
36 43 25 20 0
-8 26 24 18 0
7 40 46 26 0
-28 54 -25 55 0
25 56 12 -49 0
-51 -19 -38 -34 0
-42 3 -31 -27 0
-53 47 35 51 0
6 18 -24 -11 0
-9 57 27 -45 0
-39 37 -17 55 0
-35 -2 32 -12 0
8 11 29 -56 0
59 -31 28 -43 0
60 9 58 -46 0
-18 17 60 -20 0
38 -44 20 -46 0
-32 -15 2 -51 0
37 -46 -17 -58 0
46 16 -3 -40 0
-21 -29 51 -14 0
-58 9 25 -42 0
50 55 44 -20 0
48 50 31 -30 0
-1 -11 10 -34 0
-18 -19 56 37 0
14 -54 -55 -47 0
-60 1 2 15 0
32 -40 60 -47 0
-16 11 -5 -54 0
-49 56 -6 -45 0
-46 -5 -27 41 0
-25 44 22 43 0
39 29 34 -28 0
-36 -51 7 49 0
13 -16 33 23 0
-31 20 45 -35 0
32 21 -4 57 0
4 11 -46 -57 0
-56 -7 -47 20 0
-51 -42 7 31 0
-59 15 18 -47 0
-16 -55 -54 -45 0
-25 -22 6 58 0
29 12 43 42 0
-52 51 1 10 0
-46 51 5 56 0
-38 -47 -42 27 0
15 -47 16 25 0
-44 1 -17 43 0
50 49 45 8 0
-60 -29 -4 -54 0
-49 38 -56 6 0
-2 -57 46 10 0
-28 17 -3 -54 0
-10 -48 -6 -32 0
22 -34 8 46 0
-33 -3 -30 -31 0
-42 59 -12 52 0
-16 -19 -23 4 0
-48 -39 34 36 0
-54 6 35 -52 0
-38 17 31 -16 0
-46 -27 60 -35 0
-22 -27 12 13 0
28 53 45 -32 0
-28 -30 10 59 0
-53 -48 7 5 0
-59 -35 -18 -4 0
-11 -16 56 -8 0
36 -31 3 57 0
9 -6 -34 -32 0
16 -57 21 10 0
-21 -22 11 -30 0
-25 -55 -30 15 0
-59 41 -55 38 0
-23 27 25 -1 0
-28 -40 -18 6 0
13 -47 55 2 0
-8 59 -55 -9 0
