c family=4-SAT n=60 instance=8 seed=726001144 models=68
c order 48 31 60 53 57 18 17 27 37 52 54 19 7 47 24 4 50 9 35 30 40 26 29 39 13 32 10 12 51 3 59 5 34 23 46 25 15 8 41 58 38 2 11 20 28 16 42 1 21 36 55 45 49 33 6 56 43 44 14 22
c order 39 4 59 12 56 7 36 3 8 50 53 33 38 44 31 60 40 17 48 19 55 23 26 28 43 49 5 1 29 10 42 21 30 51 15 22 16 34 27 2 52 41 57 37 14 35 11 54 18 58 20 13 46 47 6 45 9 25 32 24
c order 47 18 41 36 48 35 56 16 5 19 58 29 55 23 17 51 15 45 11 44 4 22 49 10 1 21 25 37 46 33 28 52 40 14 27 39 57 53 20 60 8 24 26 7 32 3 54 31 59 12 13 34 2 50 38 6 42 9 30 43
c order 27 25 30 51 37 9 43 54 15 39 53 40 38 5 28 49 48 59 18 60 58 55 3 57 13 8 4 14 44 31 21 12 36 22 2 32 7 16 11 34 47 17 50 33 23 19 26 52 29 6 56 1 10 45 35 24 20 46 41 42
c order 55 22 49 6 43 24 35 42 4 56 31 41 18 36 45 9 54 27 32 5 7 17 40 34 37 26 47 25 58 44 51 52 48 38 14 33 50 28 10 60 13 57 29 12 23 39 53 21 46 8 15 3 19 2 20 59 16 1 11 30
c order 34 32 45 16 21 56 11 44 41 27 57 31 18 12 28 58 47 5 1 49 35 20 23 60 43 22 39 24 46 2 52 8 33 48 54 7 53 42 9 36 25 6 51 19 26 59 37 10 14 13 17 29 30 3 40 4 50 38 55 15
c order 8 7 11 10 35 58 5 9 36 14 56 32 31 18 12 16 24 42 48 21 57 50 30 40 23 46 13 6 20 49 2 45 29 41 34 17 28 1 54 39 59 3 53 44 38 55 25 43 37 19 51 27 47 60 4 33 15 52 22 26
c order 35 18 45 24 29 49 43 36 1 58 53 13 2 10 16 32 20 27 39 42 59 21 31 26 19 28 38 60 15 56 17 22 14 25 5 41 50 44 52 54 30 4 46 34 33 6 12 11 7 47 55 3 57 51 8 37 40 23 48 9
c order 49 1 51 10 15 24 7 26 21 23 41 55 17 5 12 43 38 58 25 54 6 52 31 50 48 47 14 9 8 60 32 59 30 4 34 37 39 33 28 11 42 2 16 27 19 46 57 45 3 40 22 53 29 35 36 13 20 44 18 56
c order 39 52 16 37 24 25 31 18 50 15 45 59 26 8 36 28 6 21 47 43 53 32 2 56 34 17 13 27 1 35 29 58 33 12 51 22 30 46 40 41 60 38 3 23 20 19 7 5 11 42 54 49 44 57 14 4 9 55 10 48
p cnf 60 576
20 38 57 -36 0
-30 -24 -40 -42 0
-56 25 13 51 0
6 45 -22 -18 0
-45 35 14 -44 0
-1 28 -35 52 0
27 49 22 51 0
49 1 -58 13 0
43 37 49 58 0
-13 10 -30 17 0
59 35 -6 39 0
-51 27 46 18 0
-35 6 22 -49 0
-1 5 -39 -25 0
19 45 20 12 0
-29 58 41 34 0
-52 38 49 -57 0
59 57 56 -35 0
28 19 -15 -44 0
-22 -23 -18 -46 0
10 43 -50 52 0
2 44 18 51 0
-38 -18 37 -21 0
-21 57 37 -13 0
-10 18 -52 -16 0
-41 10 1 8 0
-18 -32 -6 4 0
-38 -18 -35 -55 0
-57 34 50 -20 0
-6 -30 -20 -38 0
9 28 33 -44 0
14 15 -31 -59 0
35 18 40 48 0
12 27 54 -52 0
22 33 -43 2 0
-38 -20 -54 60 0
-30 37 34 -55 0
-42 -11 -45 -23 0
48 -14 -36 18 0
-23 -29 -50 25 0
-38 12 59 26 0
36 2 -50 -37 0
-58 -48 -46 -13 0
-42 23 20 -40 0
-38 19 46 -10 0
-54 3 21 -8 0
-46 -25 -30 57 0
-28 -18 -8 -34 0
23 35 56 58 0
59 48 -41 -21 0
35 -24 12 -51 0
37 -8 59 -47 0
1 6 -48 -56 0
29 8 33 -6 0
14 49 -50 46 0
-37 -27 -51 30 0
3 -11 -14 60 0
1 7 -38 -41 0
-48 -52 30 14 0
3 52 -58 -14 0
43 50 -54 -9 0
20 -32 -45 39 0
-8 5 3 -33 0
-18 -20 60 38 0
-25 -19 -48 -36 0
-60 -59 -52 -34 0
11 -50 -54 -40 0
43 19 -52 12 0
-50 -46 55 40 0
-5 34 6 -29 0
19 -57 40 9 0
-43 44 10 -60 0
-13 -8 50 -5 0
-33 -49 18 57 0
-48 10 55 -12 0
-28 -41 -56 40 0
-45 -53 25 51 0
-43 2 -1 9 0
-31 -43 -53 -46 0
57 52 13 -28 0
40 -46 7 15 0
-46 -43 11 -50 0
-41 -22 6 -32 0
-43 32 25 13 0
-60 -5 14 1 0
-17 -27 -28 -19 0
25 -29 59 -39 0
-59 22 17 4 0
-37 53 16 -17 0
-34 13 36 10 0
51 -42 56 46 0
21 -19 -10 35 0
-22 17 -11 -30 0
13 -22 -21 25 0
28 -58 -43 10 0
43 -50 17 39 0
39 -22 36 15 0
54 47 11 52 0
15 -20 -4 32 0
37 59 28 42 0
36 -56 -57 50 0
-5 48 -6 -59 0
-20 31 18 5 0
31 29 -36 18 0
52 6 16 -21 0
-46 12 21 -14 0
56 -44 -51 18 0
7 50 -48 5 0
-21 -16 -10 -2 0
-28 27 -9 40 0
-10 60 -3 -4 0
-51 -44 -9 -49 0
-20 54 -49 48 0
-36 27 -35 26 0
38 23 -4 -48 0
-40 -42 17 52 0
30 -44 38 3 0
2 21 -48 -23 0
7 36 35 42 0
-5 -17 -19 -16 0
-45 -41 43 19 0
-23 -50 18 9 0
51 6 -52 -16 0
41 -22 16 54 0
-9 -36 -38 -47 0
-31 -42 -21 16 0
-5 23 -56 -30 0
27 18 -24 -34 0
20 13 -33 -55 0
-2 33 30 -40 0
-53 38 19 -15 0
-17 5 43 59 0
39 32 -60 -42 0
29 53 34 10 0
50 58 -46 59 0
8 50 47 4 0
5 25 56 -50 0
-11 -12 -9 43 0
-46 38 51 -35 0
3 -55 20 24 0
29 -42 54 8 0
-8 -45 41 53 0
30 -21 16 -47 0
-37 2 -38 -7 0
32 -55 -37 35 0
-36 -29 39 51 0
53 -20 11 -6 0
31 -6 33 27 0
-55 3 60 -1 0
-36 -32 6 -58 0
49 -44 -2 34 0
51 57 3 -20 0
58 -48 -15 11 0
14 3 -18 48 0
1 -29 -23 57 0
-54 26 5 -9 0
5 54 38 29 0
-2 -31 -46 59 0
-11 -40 3 -21 0
-53 -35 -39 -6 0
-7 -60 54 -18 0
-41 -32 -4 -58 0
-25 45 33 -44 0
-35 -20 -2 -10 0
52 28 2 32 0
-4 -21 18 -2 0
-42 -52 4 -8 0
-2 8 6 12 0
4 60 -39 -54 0
49 54 -53 4 0
-10 9 -58 56 0
47 -45 -40 22 0
-50 2 47 -6 0
-46 5 -25 -50 0
14 -19 54 16 0
42 -43 35 14 0
-37 28 -52 27 0
9 -48 -51 -27 0
-59 17 22 -42 0
-3 41 -46 -42 0
39 -35 50 -10 0
11 -8 -35 -56 0
-8 7 58 55 0
-12 -19 -37 8 0
26 1 -44 -55 0
-51 27 57 -56 0
-17 -27 60 33 0
32 44 54 -53 0
-57 27 -44 45 0
5 24 21 53 0
21 34 -37 11 0
-58 2 -49 -15 0
59 42 -33 10 0
3 45 -32 53 0
25 41 1 32 0
46 35 38 29 0
-29 -51 -8 35 0
14 53 50 -27 0
-45 -2 -21 -42 0
43 -26 -11 -51 0
23 -3 8 -50 0
-20 58 -55 -35 0
-20 35 27 47 0
-8 -2 56 24 0
-54 -26 -47 25 0
8 5 -20 -49 0
14 19 -25 -15 0
30 42 -59 1 0
-30 51 46 18 0
-19 -46 47 13 0
11 39 58 -6 0
-35 -8 11 18 0
40 43 29 11 0
55 10 30 -6 0
45 -46 56 -14 0
2 43 -21 6 0
-7 48 -47 5 0
-47 6 -45 42 0
45 50 53 49 0
-21 20 5 47 0
2 46 32 19 0
-43 -14 -23 -56 0
-29 -41 55 57 0
42 43 -11 -10 0
-53 22 -54 47 0
-55 -37 29 -17 0
19 -45 -49 -28 0
-7 3 49 14 0
-13 -53 42 -60 0
-48 7 -40 -45 0
1 30 53 -49 0
19 -23 59 -42 0
-4 -40 -50 -6 0
-41 -32 -23 19 0
34 7 47 -2 0
44 52 55 -15 0
18 -2 20 -56 0
22 31 36 -8 0
29 31 -42 -13 0
12 13 23 -35 0
-23 -18 -6 56 0
18 10 31 23 0
38 7 40 2 0
-26 18 -30 -53 0
-25 37 -47 18 0
-7 31 -5 -48 0
56 -58 -12 -6 0
-21 -18 -23 -54 0
12 37 -9 -30 0
-20 14 13 60 0
-12 41 32 -47 0
55 -3 51 -27 0
48 -27 4 25 0
-49 6 55 -37 0
48 25 43 4 0
-30 22 -23 14 0
2 -26 -21 -5 0
60 -17 -26 55 0
-43 50 23 -48 0
11 -7 -36 -41 0
-57 40 -35 -46 0
-45 -23 48 59 0
45 54 -9 43 0
-27 1 -55 12 0
8 12 26 -47 0
-52 -53 -47 -14 0
-54 -30 -28 2 0
-6 -46 -44 52 0
39 -53 60 -4 0
-17 -5 -3 33 0
-24 -57 -16 -10 0
-52 -7 -2 -4 0
-31 -50 8 51 0
-28 44 13 -5 0
36 -15 -46 51 0
-37 -10 -28 45 0
50 -54 20 -15 0
-41 37 33 -59 0
-42 -4 33 45 0
-50 -23 -26 24 0
-58 14 17 -26 0
48 49 16 -19 0
-15 24 2 33 0
18 -47 16 6 0
2 23 -4 -14 0
36 18 -35 -2 0
5 -53 21 56 0
-27 -40 -55 58 0
36 56 21 -32 0
49 -46 -20 -53 0
-34 -44 56 -7 0
-12 53 49 -11 0
-12 -2 40 20 0
43 -38 14 59 0
-43 -57 -38 -37 0
-54 16 36 -8 0
26 37 19 -40 0
-14 -27 20 -53 0
24 15 16 -21 0
57 9 3 -32 0
-22 17 56 49 0
10 -9 43 58 0
-13 55 -45 -49 0
27 37 33 20 0
17 -49 -44 -31 0
-14 12 16 15 0
-40 13 50 -26 0
18 46 42 8 0
-26 -24 -30 -53 0
-56 -29 -28 -46 0
-44 54 41 -31 0
24 39 -48 -4 0
-22 14 -59 -19 0
5 -32 -43 -25 0
39 48 56 36 0
-40 -58 -6 -47 0
-33 -56 13 52 0
48 33 9 59 0
37 -6 34 -19 0
-45 14 51 24 0
12 -34 22 55 0
8 -38 1 10 0
6 -40 -42 -25 0
-48 18 -11 -40 0
37 -50 -1 -18 0
20 34 47 -33 0
-4 42 23 20 0
46 -34 -45 24 0
52 41 -25 -11 0
24 59 16 -22 0
40 -12 -44 28 0
-27 -20 9 2 0
31 42 -60 -21 0
-48 15 -59 -19 0
13 -31 46 47 0
-13 48 -5 -57 0
49 6 56 -58 0
-31 -35 53 57 0
-34 -32 20 -36 0
-46 35 59 8 0
-17 -36 52 -4 0
2 -11 43 -10 0
16 26 3 -5 0
2 -15 -32 9 0
4 -46 -24 28 0
-39 8 -47 -50 0
25 -29 53 -60 0
40 -45 -9 5 0
-6 -36 28 -23 0
11 -21 -45 43 0
-51 -27 -22 1 0
35 -51 39 -8 0
-44 -56 4 24 0
31 38 -2 24 0
-28 29 -40 -34 0
47 -55 40 7 0
-25 54 29 -7 0
-15 -34 59 31 0
33 5 21 30 0
-22 32 -33 -10 0
-56 -36 39 -30 0
57 44 51 -49 0
16 29 52 58 0
-28 -32 -22 24 0
-16 -36 -6 34 0
55 31 36 8 0
-50 -17 -44 -53 0
60 -8 -44 31 0
7 2 47 -18 0
42 58 -32 -48 0
-30 32 31 -9 0
21 44 33 49 0
-23 28 33 -3 0
53 5 -20 -23 0
44 35 -26 -53 0
21 -7 18 -8 0
-38 -29 -44 -17 0
-6 -57 -16 -43 0
52 -34 -50 -13 0
38 50 -3 59 0
52 43 42 -19 0
26 -40 -49 -20 0
-6 27 46 45 0
29 51 -41 37 0
5 -10 46 36 0
-25 15 38 60 0
-35 -36 -34 -52 0
28 -54 -56 37 0
-1 15 51 17 0
2 -26 -3 -45 0
46 -37 -8 -49 0
-15 36 10 19 0
58 -49 -31 -47 0
-47 -16 -53 36 0
-43 -34 -53 46 0
-28 -5 58 59 0
35 -43 36 15 0
51 33 30 -7 0
45 -18 60 -30 0
36 23 34 15 0
-14 53 3 59 0
-49 -31 -4 30 0
2 59 -27 37 0
53 29 -19 -45 0
-25 -4 44 -28 0
12 -19 53 -33 0
10 -29 -35 -1 0
44 39 45 -59 0
-8 24 22 35 0
4 -41 26 34 0
1 3 35 53 0
8 -10 1 -29 0
10 -43 -3 -54 0
26 4 10 55 0
-51 -33 54 10 0
-10 -36 -43 18 0
20 -37 11 -4 0
-39 -13 -9 19 0
-24 36 6 -16 0
-56 33 -14 -46 0
5 -37 -44 32 0
-35 -17 7 -14 0
26 44 -8 -28 0
7 -26 -52 20 0
35 -27 51 -21 0
4 -36 10 32 0
37 41 -28 20 0
45 27 47 23 0
45 30 -11 47 0
-43 29 -57 5 0
53 -40 32 -14 0
28 23 44 53 0
2 -30 47 55 0
37 -39 -4 13 0
-17 -53 38 -10 0
14 49 -35 -19 0
-3 52 22 -42 0
23 -8 9 50 0
-51 -59 -31 -18 0
-31 -4 27 42 0
-36 5 39 -24 0
-26 -1 18 21 0
25 -36 -13 -50 0
10 18 50 42 0
-54 -17 -47 26 0
-7 -53 -57 -46 0
-8 55 16 54 0
-57 -30 -12 -32 0
49 -22 -4 32 0
-54 -29 -38 -16 0
22 20 -18 -60 0
55 -45 -18 -6 0
53 40 -14 58 0
54 -26 19 -48 0
-18 -13 -27 -16 0
11 -9 53 -46 0
59 -40 60 30 0
-34 -37 50 -57 0
38 -42 -36 49 0
-42 -49 46 -53 0
17 11 47 8 0
52 30 60 11 0
-53 -15 20 50 0
45 -27 37 -13 0
-5 -4 -1 -10 0
15 35 -34 -19 0
-60 -57 27 -46 0
-47 38 -48 -53 0
-18 53 7 19 0
56 -9 -29 60 0
-13 -58 -28 -26 0
-19 16 -6 -55 0
45 38 5 44 0
-40 1 -18 -57 0
-11 10 -42 -26 0
-24 36 -3 12 0
52 -59 10 -8 0
15 -47 -46 23 0
7 10 3 41 0
-13 35 24 30 0
-26 -45 24 -41 0
25 -37 56 26 0
-10 -59 43 -1 0
-33 36 51 19 0
-46 -38 60 -40 0
-55 58 2 50 0
-14 44 9 -30 0
22 32 -23 -46 0
48 -55 24 -50 0
26 -9 23 -40 0
8 51 -19 -50 0
-28 13 54 -58 0
54 33 -6 -7 0
-49 6 13 58 0
43 55 20 6 0
-56 -42 12 30 0
-37 -27 -36 -52 0
15 -7 34 -51 0
-4 -47 48 55 0
-23 -32 -19 37 0
14 26 36 58 0
-20 -19 50 -53 0
-45 6 -5 53 0
12 53 -50 29 0
39 -44 4 -2 0
-16 5 6 46 0
19 42 35 14 0
59 -44 18 12 0
-21 -54 7 -38 0
7 23 -38 6 0
-55 -7 34 -22 0
-18 39 -31 -57 0
41 38 -37 -54 0
14 6 54 -13 0
-50 -34 59 41 0
17 -7 9 55 0
-14 59 15 -40 0
23 -36 1 -32 0
52 30 -51 45 0
20 13 -17 -55 0
45 -47 25 -4 0
58 15 33 -13 0
2 21 -4 -54 0
-45 24 -36 -51 0
-31 57 -56 -20 0
51 -57 17 -27 0
49 11 -13 40 0
50 47 -29 -44 0
-28 -50 -48 49 0
-51 23 42 -14 0
16 -46 -39 26 0
39 50 38 19 0
-3 58 37 32 0
16 -50 -59 41 0
-56 5 37 -20 0
8 -19 33 -32 0
-8 -7 -49 48 0
27 -14 19 23 0
-10 -40 57 -31 0
-21 11 -42 4 0
11 -51 -60 -57 0
-42 -33 -13 -52 0
31 4 54 15 0
33 55 44 -23 0
-59 -54 -5 -27 0
-22 36 -11 -39 0
-2 15 -14 -53 0
-41 -51 7 10 0
26 -31 -6 -38 0
44 -40 -58 -56 0
16 45 -47 34 0
-39 -19 51 -46 0
-37 -5 60 43 0
55 -19 -16 20 0
-3 -25 48 -60 0
4 3 38 -46 0
59 60 -29 50 0
-3 29 9 7 0
-2 51 43 -29 0
19 -16 -30 -45 0
3 -31 -58 24 0
-60 3 30 -5 0
-1 -9 31 16 0
44 -7 -39 -40 0
-3 -52 -36 -59 0
-38 -37 39 22 0
-2 38 17 -34 0
33 -38 -35 -49 0
49 -29 -6 33 0
-8 -2 -22 57 0
20 -33 51 -34 0
-25 17 -11 56 0
-47 -57 16 -25 0
44 15 21 -56 0
-49 36 14 56 0
-40 -6 52 13 0
