c family=4-SAT n=60 instance=0 seed=726001144 models=4069
c order 42 14 8 23 60 7 21 50 31 9 24 1 58 16 15 56 46 6 52 22 32 18 43 51 28 12 48 30 2 37 13 25 11 49 59 45 47 10 3 27 26 5 36 44 38 55 34 4 33 29 53 39 41 54 57 40 19 35 17 20
c order 15 48 19 37 54 13 49 29 47 57 24 58 1 39 23 33 38 59 43 56 40 32 52 5 34 22 10 30 25 27 42 46 51 35 8 36 41 20 18 9 53 21 44 55 7 11 14 31 45 17 28 26 2 3 12 16 4 50 6 60
c order 12 25 16 10 20 19 4 45 59 22 52 42 23 49 24 17 60 27 46 7 54 18 50 28 11 34 47 37 13 21 1 48 26 35 58 6 31 51 29 43 33 2 55 14 56 57 39 38 8 40 41 36 9 32 3 53 44 15 5 30
c order 37 38 18 19 22 35 1 26 32 34 23 60 40 4 55 15 12 53 2 42 49 33 11 17 56 21 30 58 25 10 6 14 3 54 29 52 20 46 13 28 27 48 44 36 8 51 50 41 59 7 45 47 57 9 24 39 16 43 5 31
c order 14 48 7 22 37 55 24 16 25 17 32 19 18 39 12 43 3 51 45 57 60 52 4 34 56 35 40 54 30 2 28 15 46 29 6 8 47 53 23 13 27 26 41 58 11 1 59 9 42 5 44 49 20 50 33 38 10 31 36 21
c order 15 32 48 51 38 46 27 8 29 43 2 13 50 17 33 20 22 1 36 47 41 30 40 56 42 5 53 49 60 28 14 55 11 39 34 37 12 9 44 10 7 19 25 16 6 24 18 54 45 4 57 35 26 59 52 21 31 3 23 58
c order 26 21 27 50 23 5 10 1 8 44 35 33 11 32 37 55 46 45 41 58 56 6 17 42 4 60 16 2 20 25 29 38 12 40 52 22 51 57 53 13 36 14 54 28 3 7 48 30 39 31 18 24 15 34 49 19 9 47 59 43
c order 7 12 13 4 56 36 53 18 24 10 9 42 32 15 58 57 46 30 2 50 27 34 29 45 8 25 40 20 23 44 14 31 6 37 22 33 21 55 39 17 41 26 60 5 43 51 1 16 48 47 52 59 38 28 35 3 54 19 11 49
c order 9 1 39 18 30 15 60 7 37 17 41 27 3 6 46 52 56 34 49 28 29 33 21 4 38 22 40 16 2 10 31 53 25 35 13 57 24 5 55 26 45 11 58 8 32 23 43 51 47 44 14 12 59 54 36 48 42 20 50 19
c order 2 39 29 21 24 48 20 30 19 38 6 53 46 15 11 17 13 56 54 26 40 37 16 1 43 57 18 60 7 5 28 58 52 25 41 51 34 59 47 32 33 8 45 36 14 22 49 55 3 4 12 9 10 44 42 23 35 31 50 27
p cnf 60 576
-33 45 -51 -28 0
56 9 55 -41 0
22 -26 17 27 0
34 -9 -26 46 0
1 -44 -10 3 0
3 -38 -14 59 0
-2 -18 -20 25 0
-3 -32 49 -60 0
22 -24 34 -15 0
-18 -46 1 50 0
48 -49 7 -20 0
45 -56 37 10 0
21 -34 -36 -8 0
34 -32 23 -36 0
-58 -2 -16 56 0
-43 57 54 45 0
37 50 -2 -1 0
-59 -21 24 50 0
-36 40 -25 50 0
-35 18 -59 -24 0
-34 -50 -11 10 0
59 29 -26 -24 0
-20 -32 -60 52 0
-13 30 2 34 0
-18 -27 56 -40 0
-8 -55 -53 17 0
35 17 22 -51 0
-25 42 -1 11 0
30 -49 -25 -41 0
-40 -16 4 -48 0
-45 28 -22 -52 0
21 55 -25 18 0
54 34 17 13 0
-47 -17 56 -43 0
-55 -7 40 -48 0
20 -22 -12 -46 0
20 10 -8 -11 0
-59 -45 22 52 0
-17 -3 34 56 0
-17 -37 26 50 0
-47 51 46 -18 0
-43 36 -53 14 0
-57 9 47 22 0
35 -13 -2 40 0
15 -53 -7 20 0
-46 34 -10 49 0
-57 -23 -39 -26 0
-36 -50 28 3 0
-42 -49 -44 51 0
55 23 -41 -45 0
22 -32 51 -36 0
27 16 -31 -46 0
-33 39 -8 53 0
-40 -49 12 23 0
-48 53 -35 47 0
-28 -47 35 19 0
-5 53 -49 -24 0
-27 23 55 48 0
-33 -59 23 -43 0
53 -12 8 20 0
6 -46 49 43 0
22 -9 -5 24 0
51 54 -18 4 0
-21 13 26 -54 0
-19 -17 -52 5 0
-49 -47 -1 44 0
-16 -18 -37 13 0
-45 -31 -23 33 0
-41 -34 38 24 0
-17 -7 32 27 0
32 -1 50 45 0
45 54 -57 27 0
-27 -52 22 59 0
32 30 59 -10 0
-57 19 42 -20 0
-16 -41 20 -50 0
-48 -49 2 29 0
23 -52 24 -41 0
1 -57 -18 15 0
-33 -14 9 25 0
-45 -33 -5 56 0
44 39 -58 -2 0
-55 -26 42 -3 0
-48 -45 36 -13 0
14 27 35 -32 0
41 13 -30 34 0
4 -51 -40 39 0
-40 -56 -15 37 0
39 50 -4 -57 0
9 -46 -29 59 0
60 26 -6 33 0
21 -32 5 -56 0
-38 9 37 -45 0
2 -21 22 -20 0
-46 49 -4 -60 0
-44 45 42 1 0
41 40 53 -48 0
49 -20 -16 31 0
-45 -53 23 15 0
37 -17 -10 -25 0
-13 -2 15 -22 0
-32 36 29 -40 0
-7 31 9 8 0
-27 -10 -56 47 0
-25 -44 49 38 0
47 -55 -17 9 0
-30 -51 -24 41 0
11 21 -37 53 0
-24 -6 20 27 0
-6 -4 45 49 0
-36 -31 -43 -9 0
-25 3 -52 30 0
40 -4 56 -57 0
-23 -26 -13 -57 0
-33 -36 -58 -54 0
33 -32 -8 59 0
47 21 29 28 0
50 9 -46 31 0
29 21 23 -38 0
-49 16 27 -48 0
-23 4 50 -1 0
33 36 -29 22 0
6 -32 -45 -16 0
-19 21 29 -26 0
-14 44 36 -58 0
-50 -11 -57 -58 0
15 23 -4 -46 0
-60 -11 45 22 0
24 -34 58 10 0
38 -17 -60 -39 0
-24 -8 58 -51 0
-10 -50 31 -6 0
25 23 49 26 0
-43 -34 -1 40 0
-2 -52 -45 -41 0
25 28 -40 9 0
-43 48 -55 4 0
-59 34 38 27 0
-46 50 48 19 0
11 36 41 -8 0
11 30 38 -57 0
30 26 -22 16 0
-54 53 -5 46 0
-2 -44 33 -28 0
-21 -49 5 -32 0
39 -44 29 33 0
-41 29 10 -5 0
-1 42 46 11 0
28 35 9 47 0
-35 -1 59 -8 0
5 -11 22 -55 0
-53 43 31 -58 0
17 -9 -56 -6 0
-32 6 -30 -27 0
-51 17 23 -52 0
11 17 18 -30 0
-4 3 44 -22 0
-42 -36 22 40 0
25 -46 24 59 0
43 41 -15 46 0
-2 19 -16 -9 0
30 -40 -41 2 0
-22 48 -49 -6 0
-55 -36 -52 60 0
26 -59 -37 -13 0
31 -57 55 27 0
47 -49 24 17 0
23 33 -6 17 0
1 -55 -5 -22 0
-48 -32 -39 -26 0
21 44 35 -46 0
3 60 17 29 0
20 -40 17 -32 0
50 7 58 -10 0
15 -28 -21 57 0
17 27 12 32 0
19 41 -20 14 0
-27 -42 -46 -40 0
34 -18 37 5 0
44 -6 31 -46 0
-24 -21 -23 31 0
-9 21 5 -27 0
-10 -48 -30 34 0
-36 1 25 -35 0
54 -58 57 60 0
-19 38 -11 31 0
8 -34 59 -38 0
11 -43 -47 2 0
23 -28 -58 -13 0
-44 52 49 51 0
-22 31 -20 18 0
-31 50 -3 -21 0
53 -49 -25 4 0
-18 -36 -37 -59 0
-53 18 19 9 0
-41 -3 -40 56 0
48 25 -16 -37 0
-24 -5 -2 20 0
56 54 -15 -1 0
24 -54 -1 5 0
9 51 40 52 0
52 -54 46 -43 0
-21 50 32 -5 0
2 -5 34 40 0
-38 36 -17 14 0
-22 34 52 -9 0
-50 -10 -18 19 0
-28 -23 -40 4 0
11 2 6 -52 0
8 -29 -18 28 0
18 11 38 17 0
33 37 19 -1 0
45 56 31 -18 0
-47 8 -14 11 0
-59 -33 -19 39 0
-44 -10 -30 7 0
54 -19 -33 55 0
-4 -41 29 -35 0
-14 9 -19 -57 0
-55 3 53 27 0
-2 18 32 -5 0
44 -58 37 -52 0
39 55 -26 -57 0
-45 15 -13 46 0
51 25 29 -3 0
-37 -34 -14 -46 0
-44 -24 -41 -30 0
17 -5 59 -33 0
23 -42 22 -18 0
45 -21 39 -32 0
29 -60 18 -57 0
-45 21 -35 -14 0
-16 -34 17 11 0
54 -27 20 -4 0
-4 23 25 -27 0
43 -52 -17 35 0
24 -51 -55 -11 0
-16 -60 6 -47 0
-53 40 -14 -19 0
54 -7 -30 24 0
-26 24 -38 43 0
37 -30 13 29 0
-25 -35 58 28 0
53 -2 36 47 0
-7 -56 53 32 0
-39 -5 -49 26 0
35 19 -45 -28 0
-7 -56 11 -50 0
21 6 54 22 0
48 -56 -51 -11 0
53 37 29 -19 0
-37 46 50 42 0
6 -28 18 -57 0
-33 -59 -16 -3 0
-43 -11 -6 28 0
-9 40 48 31 0
-6 18 26 -10 0
34 -9 -45 3 0
-56 7 58 20 0
-49 -5 -58 32 0
53 -24 -3 -39 0
34 10 -40 37 0
-58 -16 -40 43 0
13 -21 5 -34 0
34 -26 56 -49 0
-7 -43 42 -37 0
-35 19 -3 -1 0
-20 13 24 25 0
-44 -19 22 7 0
-56 17 -13 -4 0
-27 -17 52 24 0
-17 -19 -26 -9 0
18 -8 57 6 0
-38 -36 13 7 0
-21 4 33 60 0
-59 -14 -37 8 0
6 -1 -3 19 0
10 15 -20 -51 0
-9 53 12 -46 0
-12 59 23 8 0
-18 26 -52 -56 0
33 -29 -51 2 0
-5 50 -30 55 0
-56 5 -14 36 0
-13 -58 45 -5 0
49 -39 -44 8 0
52 -44 59 9 0
57 -59 49 -40 0
45 -36 25 -1 0
39 -59 -6 19 0
-44 -45 51 -47 0
-51 -38 33 -27 0
41 -46 3 51 0
33 41 -60 -53 0
36 10 -22 -23 0
47 22 24 46 0
-41 15 55 34 0
-9 5 4 22 0
-53 -60 -15 8 0
4 55 -58 -45 0
-36 54 29 -49 0
-12 9 -24 18 0
26 -3 -38 -43 0
51 10 -41 -25 0
-33 -52 30 -49 0
-35 3 -55 19 0
14 -47 57 5 0
-17 -38 -51 33 0
-14 -10 20 24 0
25 -5 -4 19 0
-26 -37 29 -44 0
-2 -28 51 -26 0
53 -19 23 -54 0
-35 -10 -1 6 0
41 58 6 -9 0
-24 4 -35 20 0
39 -19 -37 -11 0
-42 12 32 -26 0
-30 53 -40 -50 0
34 -25 2 51 0
-15 46 59 42 0
-26 52 -16 -48 0
-3 6 -50 40 0
31 -36 55 1 0
-21 15 -42 -25 0
23 34 -6 -11 0
-27 51 38 -26 0
-5 40 3 -46 0
-55 -36 34 -26 0
-48 18 11 -8 0
-36 41 15 54 0
-14 -43 -51 29 0
-26 -22 40 44 0
20 47 -44 59 0
-23 -9 29 -38 0
-37 50 -32 59 0
-47 -4 -6 48 0
-26 47 56 -18 0
35 49 16 59 0
30 22 -1 39 0
52 13 47 -32 0
45 20 -50 33 0
53 -52 -8 33 0
29 28 49 -54 0
-14 52 -4 -25 0
-17 -52 -53 48 0
28 54 31 24 0
39 -53 26 20 0
2 -51 -38 28 0
46 13 -16 -40 0
35 -38 -5 23 0
-46 -48 -21 -47 0
-21 -35 -18 39 0
48 21 -30 54 0
19 -47 -3 55 0
-22 16 -37 -7 0
53 -44 -47 -29 0
36 -38 -45 31 0
60 -52 -14 43 0
-8 -30 -32 43 0
-36 52 29 17 0
-47 -34 -9 -12 0
-15 60 -16 -19 0
-45 5 -8 -1 0
-35 -32 -52 14 0
25 -52 34 20 0
6 -10 7 54 0
20 4 45 54 0
-58 35 1 37 0
-7 -57 -11 19 0
35 -1 14 -4 0
34 46 -49 51 0
23 -39 26 9 0
46 26 -55 -43 0
31 29 2 32 0
23 -13 53 -60 0
16 -52 -30 44 0
52 -40 -30 -22 0
45 29 -54 17 0
52 60 19 -39 0
40 44 -15 42 0
18 8 -41 -17 0
19 -37 -35 55 0
54 33 -8 -12 0
-21 56 59 19 0
-41 -38 9 -46 0
38 48 -29 18 0
50 10 25 38 0
6 24 46 -32 0
-17 -46 13 -22 0
-55 43 19 13 0
-34 -36 -32 7 0
-37 13 42 2 0
3 47 -33 9 0
50 52 -48 19 0
51 17 31 27 0
58 31 26 -29 0
59 -55 -26 -14 0
7 20 -39 -12 0
-46 30 -18 53 0
38 35 25 29 0
-16 -45 -39 56 0
4 53 18 -35 0
-58 -11 -12 27 0
4 -53 -35 -40 0
-38 59 -43 -51 0
-29 21 22 -47 0
-32 55 -58 8 0
6 -37 -41 -34 0
50 -43 25 -55 0
-41 20 9 13 0
4 49 24 -16 0
33 -20 14 -31 0
-19 29 10 5 0
-8 -39 55 -53 0
-43 -46 -35 2 0
-60 -47 -28 -9 0
-18 -36 -5 -31 0
-32 -47 55 5 0
-58 -28 48 20 0
-8 53 -28 -3 0
26 -8 54 4 0
-56 -28 -33 32 0
-41 1 32 -57 0
10 20 27 50 0
-39 27 -33 -58 0
43 2 -55 59 0
-22 49 -32 59 0
-41 -52 51 -45 0
53 34 1 -41 0
57 40 -25 -1 0
-51 -11 48 -6 0
-12 35 2 -48 0
-56 33 27 -36 0
-21 39 31 -13 0
-40 -1 19 -50 0
-23 -43 -59 -17 0
-7 29 -25 51 0
-27 -50 -25 -31 0
-37 2 56 -39 0
38 -36 -41 20 0
-50 9 19 -39 0
-6 10 -1 22 0
-16 -52 41 30 0
56 -44 53 25 0
-54 -36 -34 -53 0
4 -37 -8 35 0
-17 20 29 -58 0
-43 53 19 15 0
29 32 52 -24 0
-20 -49 4 19 0
43 -60 -44 17 0
-50 -28 60 15 0
-43 -54 37 10 0
36 -14 -18 -49 0
18 -52 -41 -51 0
-17 -42 -47 8 0
52 40 -36 -1 0
49 -35 -56 -50 0
-26 -40 54 -4 0
18 -1 -37 -3 0
-29 -20 50 -19 0
-46 -21 -35 -18 0
10 -28 49 6 0
-18 29 -16 -14 0
-13 -26 -9 -8 0
-8 9 44 -6 0
-48 58 24 -41 0
5 39 14 -38 0
-54 26 -9 -33 0
-35 34 19 -48 0
-22 -46 44 -4 0
-8 13 -5 -56 0
58 -22 15 5 0
13 -15 20 -2 0
23 39 -24 -37 0
3 24 54 4 0
10 17 58 -1 0
22 50 3 -20 0
38 49 34 24 0
54 -9 -37 -57 0
-36 22 48 -10 0
-16 56 9 -7 0
36 4 24 -9 0
43 50 -18 -37 0
-52 -3 42 9 0
9 -45 -6 -14 0
21 -24 20 2 0
15 -35 -4 -7 0
-23 -29 -34 50 0
60 -57 35 15 0
-19 -23 29 -39 0
-47 1 8 10 0
18 57 -56 51 0
-37 -57 26 -41 0
50 13 5 -54 0
47 50 -44 -30 0
56 50 -5 19 0
44 18 -4 -57 0
-47 -41 -59 55 0
45 -54 -3 13 0
-9 51 -18 -49 0
-56 2 33 52 0
43 46 59 1 0
-29 -7 -40 -6 0
52 -43 58 -29 0
-44 9 -6 -23 0
-38 -56 -42 -39 0
-49 11 -57 50 0
43 46 32 30 0
1 -57 47 -58 0
-14 -7 -53 -27 0
-59 -40 31 -26 0
44 30 -3 10 0
-28 42 36 -44 0
-39 -25 57 56 0
-6 15 59 46 0
-3 -18 -11 -35 0
-49 -46 -24 38 0
12 -49 -7 18 0
36 -35 5 -9 0
5 31 -42 35 0
-22 -59 1 55 0
35 20 -36 50 0
3 16 -45 39 0
-35 33 -31 -1 0
-11 2 54 -51 0
-6 -20 36 -43 0
-36 -21 7 -2 0
18 -5 -9 29 0
4 33 56 8 0
-9 55 3 -26 0
-47 52 53 -1 0
-45 22 -11 -6 0
58 41 -42 50 0
26 34 -20 4 0
-36 44 10 -16 0
53 27 -41 20 0
31 -6 -41 47 0
30 28 25 16 0
-55 -4 42 51 0
36 -46 51 -43 0
4 26 53 49 0
-29 21 48 18 0
54 -4 29 -28 0
49 -52 10 19 0
23 39 51 34 0
-56 -35 -46 -41 0
20 -31 -36 9 0
54 44 -60 22 0
-30 -20 38 -60 0
-26 16 -2 8 0
4 15 30 -7 0
20 -8 -26 31 0
-31 -38 -43 53 0
-23 7 47 -55 0
-5 -22 -36 -15 0
51 27 24 2 0
-1 25 15 -48 0
15 5 50 27 0
-9 43 48 23 0
-9 43 15 -1 0
52 54 -32 60 0
43 52 6 -16 0
56 10 14 -39 0
-15 -17 44 -12 0
22 -49 -46 -32 0
-5 -18 39 33 0
41 56 -34 31 0
42 36 29 -32 0
-2 -27 -32 15 0
-25 40 -46 -36 0
52 -7 -33 26 0
20 33 39 -7 0
-35 -21 -29 -26 0
20 7 44 45 0
