c family=4-SAT n=60 instance=6 seed=726001144 models=23
c order 34 36 57 1 51 45 54 18 38 52 39 16 2 40 60 20 17 5 21 3 32 37 55 49 59 19 43 6 47 22 31 11 53 24 9 23 30 42 58 13 12 48 46 44 25 7 41 56 26 28 29 10 27 33 4 14 15 35 8 50
c order 16 10 54 45 1 44 23 37 35 56 6 24 48 33 32 50 49 34 7 13 31 18 42 27 12 26 3 21 36 25 58 30 46 52 15 51 55 14 29 11 43 39 41 57 17 20 53 47 5 59 19 38 40 60 8 9 28 22 2 4
c order 58 49 50 8 46 16 34 53 47 60 54 11 26 18 13 27 36 39 15 51 20 45 24 10 19 55 22 57 37 52 28 2 30 33 5 42 44 1 59 38 17 29 12 7 23 25 9 40 48 6 31 35 56 32 21 4 43 14 41 3
c order 39 46 42 48 10 35 30 28 34 58 57 20 22 7 23 29 56 1 26 6 50 27 13 37 51 53 60 43 41 38 14 44 15 8 4 16 52 31 45 5 12 25 49 24 17 47 59 40 18 2 36 9 21 3 33 19 54 55 32 11
c order 9 3 31 43 35 5 33 17 2 10 11 20 54 55 23 19 41 4 60 29 26 40 7 24 39 12 57 30 53 21 58 36 45 56 37 48 27 16 42 28 13 1 18 32 8 14 34 51 49 46 15 38 22 59 47 25 6 44 50 52
c order 7 56 5 8 20 38 40 31 10 14 30 58 27 51 12 13 54 2 42 45 35 49 1 28 33 57 47 60 21 19 37 11 52 26 16 59 29 9 4 50 48 55 15 23 3 6 18 32 46 53 17 25 24 41 44 22 34 39 36 43
c order 38 4 9 18 43 12 42 37 1 53 34 39 30 35 19 14 29 22 31 27 13 33 23 10 40 51 47 21 7 44 36 46 54 24 48 5 55 8 41 59 17 50 16 28 20 60 32 57 3 49 26 2 11 6 56 58 25 52 15 45
c order 55 20 30 52 38 17 51 28 22 48 60 36 19 54 9 24 6 47 41 4 34 58 2 23 12 27 8 29 35 7 18 43 33 14 11 1 49 5 42 53 21 50 31 32 40 44 37 10 3 15 39 56 45 16 46 59 26 13 25 57
c order 32 42 33 46 45 14 27 24 37 48 49 12 9 19 23 41 53 59 40 8 16 56 43 11 51 36 20 13 29 2 26 21 38 31 34 50 4 15 3 1 30 25 10 58 22 60 18 35 17 7 5 52 6 57 44 39 55 28 47 54
c order 31 37 6 11 32 30 48 54 35 20 29 49 25 58 4 46 36 10 39 12 7 55 17 51 18 5 47 50 52 43 45 26 33 21 53 19 22 15 60 56 23 38 1 24 3 2 57 59 14 44 8 41 13 34 28 9 42 16 40 27
p cnf 60 576
-25 59 -23 -4 0
48 -52 -32 -17 0
-18 59 40 41 0
43 58 -25 -3 0
-41 8 -20 4 0
7 16 -49 -38 0
32 -26 17 38 0
-60 23 10 -9 0
-29 -21 -12 -59 0
-29 1 49 50 0
-26 57 39 44 0
-1 -35 54 40 0
59 36 60 19 0
29 -43 -40 -2 0
-24 -13 43 -29 0
24 6 22 31 0
57 -6 44 -43 0
21 -39 6 -43 0
-39 -22 -43 13 0
42 -6 -20 -12 0
45 -5 54 -50 0
-34 6 36 32 0
-58 -8 -21 -3 0
-30 -37 31 -54 0
-53 54 17 41 0
19 28 57 -3 0
-37 -27 -18 49 0
21 -60 57 30 0
-49 -22 -21 -10 0
19 -46 56 -39 0
-12 16 60 14 0
47 -30 24 19 0
32 -44 22 -42 0
-26 -28 49 35 0
-15 56 -16 43 0
-25 21 -36 -26 0
38 14 13 49 0
-8 16 38 24 0
10 -42 -36 -60 0
-58 5 43 -19 0
-20 -31 -14 -46 0
-8 13 33 -2 0
50 55 -2 22 0
-15 -58 -31 -37 0
15 -51 -23 39 0
27 29 7 47 0
-55 -17 39 26 0
57 -14 -28 -56 0
36 -13 6 38 0
-11 -58 -28 -14 0
-22 -11 -8 17 0
54 -11 -33 -45 0
40 -26 35 -15 0
-46 60 -15 19 0
18 -43 20 -27 0
11 -24 33 41 0
41 -33 38 13 0
-57 -50 33 -48 0
31 26 -8 11 0
-45 46 42 51 0
17 -40 -6 -30 0
-38 33 1 -4 0
50 39 48 13 0
6 60 29 -28 0
-57 -47 50 -58 0
46 35 -9 -31 0
-11 26 6 -2 0
59 -34 -9 -38 0
55 11 9 -5 0
-1 -27 -47 -3 0
24 15 22 -47 0
40 -14 48 29 0
-16 -51 28 41 0
32 35 18 6 0
-5 -3 -26 -27 0
23 -17 12 -35 0
-29 -60 -56 38 0
9 16 -6 34 0
36 30 -29 -2 0
-40 23 -26 -31 0
-34 -4 -26 8 0
21 50 41 58 0
-40 -47 -27 -30 0
32 34 10 -2 0
-19 -24 22 27 0
-31 -29 -49 45 0
-16 36 6 -44 0
-1 -33 -60 -3 0
-49 -11 43 -25 0
26 -23 -60 42 0
33 27 -55 12 0
-49 -58 -46 -42 0
-14 32 -16 26 0
-13 33 3 47 0
44 -57 -5 -14 0
-49 45 -51 -29 0
-15 -57 52 44 0
44 -51 15 11 0
-38 -35 24 -16 0
-42 -52 -30 -17 0
-31 27 52 35 0
43 -8 10 -58 0
-55 -3 30 -32 0
-53 -56 42 -10 0
-34 22 58 51 0
-25 -29 27 9 0
-44 -17 -60 -58 0
10 15 27 33 0
30 -24 -42 53 0
-30 1 -31 59 0
58 -16 47 7 0
-48 59 -55 60 0
-24 36 57 52 0
5 -38 -27 8 0
-41 10 3 -27 0
-57 42 6 -8 0
-37 28 50 -42 0
-20 8 -45 46 0
-57 14 -41 -55 0
-50 38 34 57 0
-15 30 -25 -31 0
57 -46 -53 29 0
-11 17 -28 -4 0
58 -45 11 17 0
-41 -29 42 44 0
59 12 -10 -58 0
3 -57 -2 44 0
5 45 -1 -15 0
-47 13 -18 38 0
-49 30 -51 45 0
52 12 -34 -24 0
-47 3 38 28 0
33 -22 9 52 0
-24 28 26 54 0
-53 41 -42 29 0
60 2 -19 -55 0
42 57 30 58 0
-28 -41 -19 -29 0
26 30 -19 39 0
-53 -40 -48 -59 0
-16 15 34 27 0
5 -15 -27 49 0
-46 27 51 11 0
37 -56 10 -8 0
35 -24 15 58 0
-53 25 38 -39 0
9 58 22 -25 0
46 -50 10 -40 0
-24 35 51 -34 0
-18 19 -60 12 0
-30 -57 -43 58 0
54 -18 -3 -30 0
4 -1 13 53 0
5 11 28 20 0
-13 47 -24 -46 0
45 -54 27 39 0
4 44 -34 57 0
40 -49 27 60 0
54 -23 29 -51 0
35 30 -54 38 0
48 -52 45 -49 0
-59 18 -33 11 0
-18 -28 53 2 0
-52 -49 -22 2 0
-52 -56 -60 -32 0
57 -8 -43 3 0
24 41 32 51 0
40 60 -36 38 0
48 -18 20 -23 0
43 56 13 10 0
41 8 21 44 0
-16 -31 17 -12 0
37 7 -14 47 0
-10 -22 7 48 0
-37 43 -17 -35 0
-23 -3 53 57 0
44 -55 28 -33 0
-29 48 5 28 0
47 22 -17 -59 0
-47 60 55 -23 0
-44 -57 39 -30 0
48 41 18 38 0
-1 8 -58 47 0
55 17 -24 54 0
-54 -57 -16 -18 0
-38 -60 -48 46 0
-42 8 -18 -28 0
21 49 25 -34 0
-24 -31 43 44 0
59 -30 34 42 0
45 20 24 37 0
-45 -25 -52 11 0
8 -51 -59 50 0
-4 -56 -59 -49 0
18 16 -24 -42 0
-26 -54 -43 40 0
44 -55 7 15 0
12 -47 54 -37 0
3 12 25 26 0
-5 15 -58 -25 0
38 9 -19 1 0
2 -52 1 -31 0
-42 59 10 20 0
60 55 -34 57 0
50 -38 57 28 0
36 -24 29 -2 0
34 57 25 46 0
-30 -35 21 -32 0
-11 -19 -1 55 0
32 29 -27 -47 0
15 49 -17 7 0
16 -28 -48 -33 0
44 -20 -9 -59 0
-43 -20 -55 21 0
39 -13 3 -47 0
-26 -7 41 -52 0
-10 -30 54 34 0
-20 -28 -48 45 0
-60 -42 -18 14 0
-48 28 46 25 0
34 44 30 22 0
52 -6 -1 -5 0
-32 52 38 -12 0
41 16 -3 -42 0
-36 -59 -20 32 0
55 49 -42 20 0
16 10 -28 60 0
-50 33 59 -6 0
-40 32 -31 4 0
9 -31 -40 7 0
-45 -4 20 -25 0
26 29 27 -16 0
46 2 43 -29 0
-48 -26 -7 -36 0
-21 -49 -51 -7 0
50 -16 47 2 0
47 59 16 -50 0
3 -37 -27 -59 0
-17 -45 41 -3 0
6 51 39 -11 0
-31 34 3 47 0
55 45 -49 58 0
-3 -21 -12 -58 0
18 31 -60 -56 0
18 28 -39 -22 0
-15 24 7 34 0
-39 13 1 51 0
-44 10 24 -14 0
-59 6 -52 -50 0
-32 -16 -4 8 0
51 2 -5 38 0
37 -60 56 -53 0
24 37 29 42 0
26 -32 -15 50 0
52 -51 -25 22 0
-52 54 47 39 0
-53 56 -27 -44 0
-7 6 8 5 0
-37 -24 -33 44 0
-6 -24 -40 13 0
20 -17 5 24 0
-59 -5 10 -14 0
-60 -39 -41 -50 0
49 -23 51 -10 0
32 40 21 44 0
38 -43 1 6 0
45 27 58 -42 0
33 -30 -38 31 0
-55 49 17 -48 0
51 -36 34 -45 0
23 -22 -49 40 0
-22 -2 15 14 0
10 -15 -21 40 0
-18 23 7 11 0
42 40 50 -26 0
-46 59 56 -6 0
32 3 -43 60 0
-30 -1 -34 -12 0
-57 37 -43 -40 0
7 -58 12 -44 0
59 25 -44 -43 0
58 -20 46 35 0
-49 1 -53 -30 0
23 -18 -52 -41 0
26 -1 11 22 0
-39 44 -28 -25 0
-47 -42 28 -5 0
-38 -53 -33 -35 0
-18 46 55 44 0
39 -34 -32 -4 0
26 -11 31 -55 0
-5 -23 3 22 0
12 47 53 -52 0
14 26 36 60 0
-11 -40 -28 -35 0
40 32 11 -39 0
12 4 47 -24 0
-35 22 -10 38 0
59 42 23 19 0
46 50 -52 36 0
-59 22 28 48 0
-47 -30 8 -59 0
-24 27 -29 -2 0
18 -42 10 -54 0
49 -47 -53 -51 0
-12 54 26 3 0
-8 -3 24 55 0
-39 -14 -31 54 0
-25 -48 -13 23 0
-30 -12 37 36 0
58 33 57 -55 0
15 -9 -55 -7 0
-9 -55 -29 -11 0
-10 45 -40 -8 0
21 2 36 -23 0
-52 -35 -24 47 0
-25 -5 -27 21 0
12 37 24 -3 0
-3 -4 51 -20 0
-5 -35 -17 -45 0
59 19 -8 -41 0
6 35 20 -25 0
5 34 -1 -28 0
-42 -53 -27 52 0
36 -14 23 -44 0
-5 46 8 -6 0
59 48 38 -52 0
-37 46 -5 23 0
31 -27 -28 -33 0
-58 -16 1 27 0
9 -23 15 27 0
-17 34 -16 13 0
29 22 8 -55 0
-50 -28 10 16 0
-44 25 -33 24 0
-21 6 18 48 0
41 51 -29 19 0
-39 4 42 41 0
52 41 8 -21 0
-21 48 -14 -10 0
-39 30 -23 -37 0
44 -36 -37 -52 0
60 29 2 54 0
28 -32 3 30 0
-11 -60 -12 14 0
32 5 20 -56 0
34 50 36 -45 0
9 25 40 49 0
53 -34 -57 -16 0
-50 -27 -56 -25 0
-24 -26 -14 60 0
-53 -15 10 -29 0
-19 30 27 13 0
-31 18 -16 -41 0
15 13 44 -11 0
28 3 5 -49 0
17 46 -11 43 0
-1 31 -13 -16 0
-12 -26 42 -53 0
-4 37 39 -43 0
50 -25 -58 -49 0
52 -7 18 29 0
5 -51 -42 -47 0
2 36 19 -40 0
-60 -35 31 12 0
3 -17 29 39 0
9 -39 37 -53 0
14 -3 -22 47 0
4 -35 31 9 0
-54 10 -47 16 0
-28 4 57 5 0
-48 12 56 -44 0
-27 -20 31 60 0
57 37 33 28 0
8 2 -51 -3 0
-46 50 -30 22 0
-6 -55 -7 52 0
-7 42 6 44 0
41 7 36 -26 0
17 -48 34 -31 0
-8 37 -54 -38 0
-36 -34 2 40 0
29 43 -31 -32 0
14 54 20 -17 0
-54 3 -42 -57 0
25 54 34 57 0
27 1 35 -15 0
17 54 -32 40 0
-14 29 45 33 0
-21 43 42 -60 0
-36 -55 58 -44 0
-38 -5 21 46 0
-16 53 39 34 0
48 3 8 57 0
13 -40 -1 11 0
33 49 56 -48 0
35 54 8 -7 0
-17 32 -33 25 0
30 23 -44 53 0
7 -39 43 -38 0
-59 38 -20 -50 0
31 8 59 6 0
-9 10 47 23 0
-46 -4 17 -41 0
-28 18 1 -16 0
-25 -29 23 -27 0
44 24 -35 -25 0
11 8 -28 54 0
38 -34 27 -35 0
-38 -20 -55 49 0
49 24 -30 4 0
38 -45 -44 28 0
13 -15 35 -6 0
-7 14 -31 -29 0
-36 11 28 -49 0
20 -18 -17 23 0
-6 -22 36 -23 0
32 3 -14 12 0
20 -34 -18 -7 0
48 -11 44 -35 0
-19 51 60 18 0
7 39 -18 -50 0
-33 27 18 23 0
-57 -58 9 52 0
-3 -43 50 -32 0
-19 27 29 -17 0
6 -48 25 45 0
52 -20 -12 21 0
53 33 1 -43 0
6 -30 39 -29 0
3 -29 52 -41 0
-44 6 42 54 0
-36 16 -41 -46 0
58 3 55 -34 0
15 12 -22 -39 0
-46 34 -3 38 0
3 41 12 -31 0
-57 56 -27 -59 0
-41 60 -53 10 0
-23 -19 13 -40 0
-28 -45 32 -9 0
-32 -29 -19 25 0
46 35 -17 -54 0
-32 -60 -29 41 0
-3 40 -1 29 0
32 -56 -10 59 0
-38 -58 2 -48 0
13 58 26 -14 0
-54 49 7 19 0
-21 52 18 60 0
-52 -2 33 -16 0
-35 -19 -1 7 0
22 13 43 -38 0
45 59 -56 17 0
16 15 3 49 0
-47 43 -25 -28 0
-39 -47 -37 23 0
35 -43 8 25 0
-48 -56 47 -59 0
-24 -34 -27 9 0
-16 35 -31 47 0
50 2 45 51 0
-6 -12 5 11 0
-60 23 40 -56 0
-59 22 -25 24 0
29 -49 59 -7 0
-21 -20 -43 -8 0
-60 -33 27 51 0
52 -53 -17 21 0
36 28 -18 -34 0
1 -10 28 -43 0
41 -26 -20 51 0
15 20 3 32 0
56 -43 -51 -23 0
53 -6 35 12 0
-35 41 49 28 0
-46 -57 -27 -24 0
52 40 37 -6 0
-5 -3 -39 1 0
-53 27 57 -51 0
-1 -13 21 -43 0
-44 -36 14 57 0
10 -48 -58 31 0
-50 16 -58 -51 0
-16 -37 -9 -22 0
-10 20 -58 -27 0
27 16 -19 -58 0
32 -33 20 59 0
18 5 11 -57 0
-37 -41 47 34 0
-34 40 -56 -16 0
15 -56 -51 5 0
52 -12 -18 -42 0
4 16 -10 23 0
-36 53 10 25 0
-32 -34 -8 49 0
27 -14 -26 15 0
-55 -2 -18 46 0
-49 29 59 9 0
-20 -54 53 24 0
49 30 -44 2 0
26 -17 -50 -49 0
51 -54 -44 -24 0
-54 16 -58 -1 0
-36 -9 41 13 0
26 -49 51 -47 0
28 -37 18 53 0
39 -28 52 51 0
-34 33 -32 -3 0
-44 -20 59 51 0
4 -41 -57 7 0
29 -30 -53 -35 0
37 28 -2 1 0
11 41 -42 -30 0
-25 33 55 -26 0
-16 -14 54 25 0
45 -25 24 40 0
-2 -5 -27 -52 0
8 59 42 -10 0
11 1 31 13 0
22 -37 -46 -14 0
45 52 53 22 0
-9 40 10 58 0
43 -25 50 1 0
-30 -34 -24 31 0
-16 -9 60 -35 0
27 -33 3 31 0
56 -26 -51 12 0
11 55 35 4 0
-44 37 -23 45 0
-58 59 38 -22 0
60 11 34 -41 0
-57 -16 60 23 0
3 -17 57 19 0
-5 -4 39 -20 0
16 14 -39 -40 0
-24 -56 -30 37 0
17 56 -3 -4 0
24 6 37 1 0
-21 -4 -40 47 0
51 -11 -35 -49 0
-52 9 26 59 0
16 -1 -33 -19 0
19 52 14 -26 0
-42 21 -15 -59 0
-43 59 -20 38 0
2 24 43 17 0
26 54 52 35 0
-54 -22 -10 -39 0
-41 55 -33 -30 0
-9 -1 30 56 0
-41 -48 58 29 0
8 20 35 -16 0
-37 -25 34 -18 0
28 43 -58 14 0
-13 53 19 46 0
27 22 23 -60 0
51 -4 57 31 0
16 12 -17 37 0
-42 31 19 -33 0
-21 -6 -18 54 0
8 -30 2 9 0
59 -36 -41 47 0
-46 4 -26 42 0
-12 56 39 -26 0
-29 15 5 49 0
-59 5 -37 36 0
26 -3 12 38 0
-43 -25 54 -6 0
-12 -49 -37 -3 0
48 -53 36 -20 0
17 22 -21 -29 0
60 -2 7 -48 0
-53 -32 -54 -7 0
12 19 54 8 0
23 57 44 -4 0
