c family=4-SAT n=60 instance=4 seed=726001144 models=115
c order 3 26 21 43 56 58 5 22 6 46 16 19 35 37 40 33 12 57 50 30 27 7 38 48 55 60 52 25 10 13 9 2 32 17 41 23 8 1 39 42 14 28 36 4 59 54 34 20 51 53 11 31 29 47 18 24 49 44 45 15
c order 6 4 11 30 26 46 33 52 59 39 8 50 31 44 21 42 60 36 56 55 48 18 45 24 23 19 29 54 35 25 58 43 9 47 20 38 10 41 37 1 15 51 53 22 27 3 28 2 12 40 57 34 7 16 5 49 13 17 32 14
c order 43 5 33 22 48 7 6 54 31 23 60 58 57 26 35 9 24 16 28 13 12 17 4 14 8 49 51 20 15 38 18 29 1 11 2 41 56 59 50 45 47 36 27 30 40 55 42 46 44 19 32 3 21 53 37 25 39 34 52 10
c order 3 27 35 49 57 38 42 11 44 40 34 26 17 53 24 55 31 48 39 25 16 22 28 36 4 18 21 7 45 60 54 41 30 15 13 1 9 46 8 32 10 2 58 47 56 19 5 6 33 29 51 12 20 14 50 43 52 37 59 23
c order 32 29 22 6 19 40 13 55 39 60 38 5 27 10 17 21 16 43 8 12 46 42 1 49 36 3 15 20 59 50 37 52 33 9 23 41 35 25 48 54 31 7 45 34 57 51 56 58 18 2 53 28 47 24 14 26 44 11 4 30
c order 60 27 39 18 49 35 10 58 53 16 11 32 34 44 52 48 30 20 2 37 5 24 1 3 28 45 47 41 54 13 50 12 55 43 38 7 9 42 4 29 17 56 46 22 57 51 59 31 8 21 26 40 33 36 19 15 14 25 6 23
c order 17 18 60 58 13 40 20 28 32 55 24 14 41 16 31 52 30 22 2 3 48 36 33 35 57 12 59 51 47 50 4 6 46 8 49 21 27 1 29 19 26 54 39 38 42 9 23 11 34 10 5 44 15 56 43 7 37 45 53 25
c order 31 53 2 3 12 13 14 28 6 33 10 48 50 37 39 41 54 19 43 36 25 52 15 45 57 42 30 38 9 49 21 32 20 1 60 59 58 18 7 27 40 46 47 11 44 34 26 51 23 55 8 56 22 24 17 29 16 4 5 35
c order 29 46 48 22 23 38 45 21 8 40 42 12 59 26 52 57 37 53 11 18 14 33 16 43 51 7 3 47 17 50 35 25 36 6 9 13 27 49 20 4 30 15 32 39 56 10 5 34 41 44 1 60 31 24 55 58 54 2 19 28
c order 51 11 54 46 26 25 42 39 15 21 14 24 35 27 40 38 50 29 1 31 34 18 30 33 55 12 59 7 20 10 28 58 22 9 16 19 57 56 3 6 2 52 45 4 48 37 49 32 13 60 8 5 23 36 41 43 47 53 17 44
p cnf 60 576
46 24 34 -2 0
35 52 -14 -49 0
59 -24 6 5 0
-15 20 31 7 0
-36 49 16 35 0
-12 5 45 -2 0
-53 -18 -11 -21 0
-24 -53 -23 14 0
-54 -37 -17 -50 0
23 -27 -17 45 0
-3 -39 -12 25 0
-56 -7 6 8 0
53 30 37 -35 0
13 -6 43 -21 0
-27 58 -43 4 0
21 10 22 33 0
-53 33 56 -13 0
-22 37 -31 41 0
-48 34 -51 -5 0
57 1 -22 -6 0
-30 -55 -22 -7 0
27 -42 -29 -58 0
53 60 44 31 0
32 31 43 -34 0
15 34 -14 -23 0
-32 5 26 35 0
-34 48 -22 -51 0
21 5 57 -49 0
-51 -4 5 48 0
-52 -57 58 2 0
-35 40 -49 38 0
32 8 -59 36 0
37 -16 4 -34 0
51 1 -20 16 0
46 8 58 41 0
-48 -37 -60 24 0
1 -48 -16 38 0
-15 -19 -54 29 0
45 -37 20 54 0
36 26 28 -9 0
12 -59 -2 -8 0
17 -21 -9 45 0
-22 21 27 43 0
-13 56 -50 44 0
-7 -1 6 8 0
-22 15 38 6 0
51 31 18 3 0
25 -20 35 49 0
-50 49 15 -19 0
56 47 52 29 0
1 12 -41 -15 0
-11 -45 -46 52 0
-39 -56 -18 16 0
37 39 60 1 0
-31 -30 6 -53 0
23 -20 32 15 0
-58 -11 24 31 0
4 42 -7 -31 0
59 -50 22 -41 0
35 7 31 37 0
31 -60 29 19 0
-31 -1 37 46 0
9 -15 46 31 0
-23 9 -22 -35 0
-39 -50 35 -54 0
-6 -41 23 -17 0
-16 58 -32 -30 0
-58 60 -25 27 0
48 11 -59 -53 0
-41 54 -3 56 0
44 58 37 40 0
53 -60 1 -22 0
21 -13 -47 -45 0
7 -41 36 -33 0
-31 30 4 9 0
-26 -1 53 -9 0
-48 -27 -25 -22 0
-12 -55 22 -18 0
41 58 -35 -33 0
-1 53 40 38 0
-5 1 -30 22 0
40 -30 -17 52 0
-54 -52 -5 30 0
52 -33 22 -46 0
36 -5 10 26 0
35 -26 25 -18 0
-4 -20 -5 -29 0
-20 -33 -5 58 0
-15 -42 34 2 0
-12 -27 8 33 0
-23 -33 -36 -6 0
-41 43 -4 42 0
45 42 -40 -59 0
-11 -59 -18 25 0
-54 47 -26 -3 0
40 -11 -1 -52 0
33 -52 -1 29 0
17 48 -27 30 0
-58 23 32 -52 0
-19 34 -22 44 0
13 37 -22 -25 0
23 -27 -22 14 0
-58 45 23 32 0
26 -31 -48 -24 0
-1 20 5 36 0
-56 -33 -43 58 0
-18 10 -20 -35 0
47 40 29 39 0
-29 -45 57 -43 0
-44 -35 -49 -20 0
2 51 -21 36 0
28 -36 -13 1 0
-49 18 -39 -26 0
-28 -25 -16 -15 0
-51 45 -43 -8 0
-18 1 21 -19 0
-53 -54 -6 -59 0
45 -2 -52 24 0
-35 43 -19 -6 0
23 -5 -60 14 0
-11 1 -41 20 0
8 -45 7 -20 0
9 -1 40 42 0
-59 -54 13 22 0
-49 -39 38 9 0
-54 2 36 35 0
21 -39 -27 -18 0
-31 -18 -28 19 0
-36 14 -6 48 0
37 27 -11 23 0
52 45 -31 -10 0
-11 -25 -30 -22 0
40 38 -17 10 0
-32 23 56 -57 0
10 -32 48 28 0
-49 30 -17 14 0
2 8 45 59 0
-47 -33 -15 -56 0
-31 -10 -25 -2 0
42 32 39 29 0
-15 -30 54 -56 0
8 -42 35 -54 0
16 -52 -5 -1 0
-30 51 3 -8 0
-48 35 -24 -34 0
-1 -21 28 -22 0
-44 -54 -5 -34 0
56 1 -30 22 0
1 21 -33 59 0
-28 11 10 -44 0
47 -25 44 -7 0
-6 -3 47 -37 0
-14 -34 -39 -33 0
-43 55 -28 48 0
-38 -33 56 -48 0
-43 -32 8 39 0
8 -12 -42 -15 0
12 37 -44 -32 0
-27 53 1 59 0
-35 -57 -28 7 0
41 -34 -12 -33 0
58 -57 6 -14 0
-51 39 60 25 0
35 26 -37 -34 0
-43 41 -19 -18 0
30 23 35 -49 0
40 49 -27 -39 0
-28 -14 -11 44 0
33 -55 -7 -58 0
22 -42 60 -43 0
2 47 57 -10 0
-27 -59 29 34 0
-27 -48 43 -19 0
-37 44 -30 56 0
6 10 -18 -60 0
-32 -19 -10 59 0
-43 -18 -53 -56 0
-11 8 49 -21 0
17 18 -12 -51 0
12 25 -26 -22 0
-14 -53 32 -9 0
-49 47 28 41 0
-33 -16 -40 -54 0
27 19 -37 -31 0
-19 54 -39 22 0
-20 -29 41 -51 0
-4 33 27 53 0
-54 -6 -52 -8 0
11 1 -49 -32 0
8 -27 -57 -55 0
-35 -25 48 18 0
-39 25 -48 -11 0
-21 2 -29 51 0
17 -4 -55 9 0
-19 58 -54 -50 0
6 -55 -51 43 0
27 9 25 11 0
31 -55 -39 28 0
-23 -51 36 -52 0
5 44 24 39 0
25 -28 58 26 0
39 32 -54 -23 0
31 51 21 36 0
-6 36 8 45 0
-49 31 9 -23 0
9 -1 5 28 0
-28 -20 23 42 0
26 -54 -45 -25 0
-27 47 36 -26 0
28 22 -39 -20 0
23 -7 47 -13 0
-4 -26 6 -60 0
2 -48 -50 -26 0
-60 -45 28 50 0
-56 -53 -48 25 0
8 -52 -6 -30 0
57 15 37 -56 0
-16 -40 -33 -23 0
-48 27 -38 -6 0
57 -6 44 36 0
-57 59 28 -2 0
-5 38 -45 -43 0
-55 -57 -41 -32 0
29 41 22 58 0
30 4 -13 44 0
46 -47 40 55 0
-25 -35 -6 53 0
-8 19 53 -18 0
36 -56 21 1 0
33 17 -4 -37 0
-55 48 -39 36 0
-19 48 27 -29 0
-20 -1 -40 27 0
-2 21 -38 -18 0
-7 30 -55 8 0
55 42 16 -53 0
-5 -20 -32 6 0
3 12 -41 -43 0
40 16 59 -44 0
-21 -7 30 -8 0
-28 -50 -4 -25 0
30 57 -52 39 0
21 -3 -44 -23 0
-3 -45 11 -44 0
33 -37 -28 27 0
-59 -45 -49 2 0
16 -29 -50 -7 0
-26 -28 -15 -27 0
-59 -30 52 -51 0
56 -40 -53 17 0
-15 58 56 -19 0
37 -57 -23 17 0
-29 -28 -23 -55 0
-29 -44 -41 -11 0
7 48 -58 27 0
43 7 14 27 0
-15 6 7 33 0
-11 -47 2 -13 0
-8 -40 -11 -37 0
-13 -47 7 -49 0
31 -49 -26 -45 0
27 25 -48 -36 0
-10 -57 -34 3 0
-22 41 -16 59 0
-5 18 -37 59 0
-58 48 -59 32 0
-8 57 14 -19 0
-53 6 5 58 0
14 27 -24 -9 0
-15 -14 18 54 0
-33 -39 12 -57 0
-3 53 41 34 0
10 -18 52 6 0
16 -42 22 -21 0
31 -30 -60 55 0
-25 57 10 -41 0
5 -55 25 -9 0
9 3 39 40 0
-27 60 20 -42 0
-54 40 3 48 0
-49 17 6 -13 0
-33 13 -19 -39 0
-41 51 -6 -5 0
-55 -42 14 -12 0
-56 52 15 -5 0
-28 15 3 48 0
1 -13 52 44 0
-10 -11 14 26 0
39 -26 -49 53 0
-35 -1 2 -57 0
-50 21 -44 33 0
32 -25 -18 -44 0
-3 42 56 58 0
20 -60 -3 44 0
31 36 7 -54 0
-36 56 -28 3 0
29 -35 -56 58 0
37 -41 53 31 0
1 -10 -18 -27 0
-10 56 -13 42 0
16 2 11 6 0
-60 -43 -22 39 0
15 -59 -10 7 0
-10 35 60 -41 0
12 44 24 39 0
14 -28 -27 -36 0
-37 -29 -60 24 0
-8 18 -31 -4 0
-4 19 -35 -49 0
45 -21 18 -47 0
6 -46 -54 -14 0
-4 -20 46 -16 0
17 38 33 23 0
57 3 -20 -6 0
-10 20 -29 -22 0
-39 -36 -27 10 0
4 -55 -29 -11 0
-18 -54 -29 31 0
40 -2 35 33 0
-19 8 -15 24 0
-21 18 45 57 0
-37 36 -31 -16 0
-48 -7 -25 20 0
-36 -14 -4 3 0
10 22 13 -15 0
52 5 35 58 0
-31 -58 -57 51 0
44 -41 -26 28 0
-14 -39 -15 -19 0
10 -11 -28 8 0
-10 -42 -7 -1 0
-11 -50 47 15 0
33 19 -2 -56 0
-41 -19 -16 -27 0
-14 -27 -35 -16 0
5 -30 -36 3 0
19 -28 11 -29 0
45 42 9 31 0
-37 32 -40 54 0
-50 -14 28 3 0
-12 11 -2 -32 0
17 60 6 20 0
-18 -4 -27 -44 0
-9 -59 37 -2 0
-50 -10 44 48 0
-43 4 32 -60 0
-53 26 -28 -12 0
24 50 -35 45 0
8 43 10 -49 0
17 58 -43 35 0
49 -60 -7 -12 0
1 -54 21 -35 0
-12 8 -6 -31 0
-38 5 57 15 0
-10 24 13 40 0
46 37 -35 -12 0
42 58 13 -56 0
-54 -29 -15 -34 0
41 -45 40 -5 0
-7 11 25 2 0
9 11 51 13 0
15 42 19 46 0
-2 60 1 -49 0
55 14 -41 -54 0
-32 25 -51 -8 0
41 20 1 43 0
-44 41 -55 10 0
43 -25 -51 -35 0
-49 -51 47 50 0
27 5 -20 15 0
54 21 60 27 0
6 -60 8 -32 0
11 -38 -22 5 0
-42 -41 -35 -11 0
-11 1 -45 -34 0
-33 46 -27 -38 0
-8 -7 6 45 0
46 -16 25 55 0
38 -37 -53 2 0
50 -1 -9 -43 0
10 50 -20 6 0
-13 -19 -21 -30 0
53 -13 -5 -56 0
4 48 53 26 0
29 3 52 43 0
26 -52 -4 -33 0
11 50 34 -33 0
58 -57 -54 46 0
42 -54 46 48 0
19 -22 -44 40 0
48 56 -6 38 0
8 31 -60 36 0
37 -57 -6 -29 0
8 45 35 -4 0
40 -55 18 -46 0
12 13 -23 24 0
10 -49 35 60 0
-5 59 45 25 0
-56 -37 12 -18 0
33 -51 5 -32 0
-29 -51 -58 -42 0
-19 -10 -17 40 0
-5 -35 33 36 0
47 -49 -27 20 0
-45 -39 24 23 0
-60 10 2 51 0
27 -37 -39 -30 0
-45 29 56 59 0
-6 25 -15 57 0
20 -11 -9 1 0
-7 41 47 -11 0
58 25 24 -48 0
-17 37 47 -29 0
52 35 2 17 0
15 -9 53 44 0
31 -25 6 22 0
-56 -34 -6 8 0
-24 -43 -1 37 0
-29 25 -45 55 0
6 17 18 -13 0
31 52 -32 51 0
-35 36 53 -39 0
19 55 -34 24 0
-18 57 -3 56 0
-54 -42 44 -46 0
10 -23 15 -44 0
-59 -29 -3 -1 0
16 31 -7 14 0
34 -41 21 -5 0
38 31 -55 33 0
28 -4 -20 -59 0
27 30 -53 -41 0
-13 15 -30 6 0
44 -38 48 10 0
51 -12 -7 43 0
56 -43 24 52 0
-2 -26 -30 35 0
-28 -13 22 -49 0
-22 36 13 32 0
-36 -23 -41 59 0
-49 -57 50 -21 0
51 31 29 -25 0
11 -3 22 49 0
-47 -18 29 -33 0
-47 49 40 -23 0
23 -25 22 -39 0
6 33 21 -20 0
-10 29 -9 -43 0
43 -19 -8 -13 0
-40 -11 -6 59 0
-54 -22 -55 52 0
-35 -5 16 -59 0
25 19 -32 51 0
-11 46 60 -35 0
-22 37 48 11 0
-20 -24 30 17 0
-59 23 16 -8 0
43 11 38 -54 0
28 -4 13 31 0
8 -31 -24 -58 0
20 22 -26 -42 0
2 51 29 -48 0
-4 -26 -12 -23 0
-30 -35 13 -49 0
56 54 -41 -42 0
58 -7 -55 16 0
6 -16 -19 53 0
-40 -11 -39 3 0
10 36 -24 -42 0
-45 34 -5 -46 0
17 60 24 -11 0
-4 -49 29 -11 0
22 -30 -52 4 0
-50 -28 -7 -23 0
6 46 57 -7 0
-32 16 21 50 0
-12 -54 -57 -29 0
-36 19 59 -30 0
37 -30 5 28 0
17 -29 59 -51 0
56 35 31 57 0
4 -37 -24 20 0
19 -8 57 -9 0
-54 48 47 -21 0
58 45 12 -20 0
-20 -31 -11 9 0
-59 53 -21 46 0
-22 -29 13 24 0
3 -57 54 -6 0
-27 -5 -49 6 0
33 51 59 31 0
-10 49 21 9 0
-58 -35 12 48 0
-42 6 -14 -24 0
-44 25 6 -55 0
-10 47 1 52 0
-43 15 -29 21 0
32 -15 54 8 0
13 -3 8 -54 0
-2 10 47 -54 0
-1 -10 -55 39 0
22 -33 58 55 0
-39 -18 22 -12 0
55 5 -48 4 0
26 -2 -43 -53 0
-48 -21 -6 -13 0
-20 -55 23 58 0
28 -9 7 46 0
-15 -5 -7 -49 0
-38 37 6 -17 0
-4 -60 40 14 0
-42 -4 36 10 0
41 42 15 -22 0
-13 8 -33 44 0
38 2 36 -26 0
-20 36 -46 -50 0
-17 -27 -43 51 0
41 -31 -17 38 0
-18 37 -60 -20 0
-53 -26 7 30 0
-9 41 51 5 0
60 -42 -28 -24 0
-49 -36 6 31 0
10 13 36 23 0
30 -50 44 20 0
-7 -41 22 23 0
14 -52 30 32 0
-15 29 -8 -34 0
2 54 5 -19 0
47 -52 -53 -10 0
40 -15 -37 3 0
10 46 8 -57 0
7 46 36 13 0
-30 5 45 -25 0
-25 9 24 44 0
-52 -34 21 -31 0
-24 -20 43 39 0
27 47 21 17 0
-33 -11 38 -41 0
55 -38 9 19 0
-42 -35 56 -9 0
-50 37 27 14 0
55 54 -58 -5 0
-27 -5 -36 -37 0
34 20 -12 -26 0
-28 58 -38 50 0
11 -48 8 -46 0
53 -50 -21 7 0
-42 -59 -60 32 0
-16 -32 13 11 0
28 -8 -59 -45 0
37 9 -32 -22 0
-52 -35 -34 55 0
-46 7 42 -14 0
-12 35 -42 -46 0
-40 16 -34 -41 0
-12 -25 -17 41 0
8 -38 -19 -45 0
40 37 13 49 0
51 7 24 -23 0
-14 -29 -8 -13 0
25 55 -17 6 0
-8 -17 31 28 0
36 57 40 43 0
54 27 -16 -21 0
20 -6 22 -16 0
-58 -26 -17 28 0
48 37 -50 -11 0
-29 -45 11 -6 0
-19 -59 7 20 0
-3 -43 27 60 0
39 -60 -13 -21 0
9 -14 -43 -58 0
-52 5 -3 -42 0
-30 25 42 5 0
19 -33 6 22 0
