c family=4-SAT n=60 instance=2 seed=726001144 models=90
c order 42 19 25 40 12 26 18 9 50 14 31 16 2 23 1 53 54 36 24 17 32 28 47 55 51 60 59 34 13 3 22 57 56 6 43 46 58 30 5 48 52 21 27 11 38 10 49 8 33 44 15 35 29 7 41 37 39 20 45 4
c order 53 13 59 42 6 36 51 55 29 47 2 31 7 22 25 43 21 14 54 17 40 19 37 4 52 3 20 48 23 41 30 28 9 56 58 12 46 38 26 60 44 35 16 45 50 11 27 18 1 49 15 10 34 32 33 57 39 8 24 5
c order 60 40 28 12 33 37 49 53 11 41 5 42 38 9 8 30 56 15 44 13 43 29 27 34 6 58 10 52 23 18 16 47 14 22 7 19 31 48 36 39 4 21 59 35 46 25 24 3 26 20 50 45 57 32 1 55 51 54 17 2
c order 38 57 4 58 43 2 11 35 22 20 48 60 23 42 46 14 24 25 1 45 51 28 19 17 47 50 40 31 30 10 26 5 13 29 27 3 12 15 9 52 8 41 54 36 7 18 56 37 21 32 16 55 44 39 59 6 53 34 33 49
c order 52 37 23 33 17 60 48 13 21 6 35 46 34 28 19 38 4 56 49 26 14 53 25 44 20 45 36 30 32 41 57 59 1 12 47 5 50 10 51 11 22 54 3 39 27 31 9 8 16 24 18 29 7 15 40 55 42 58 2 43
c order 24 34 43 33 35 20 49 29 57 53 21 1 3 23 15 25 10 5 9 12 45 16 56 6 41 18 40 38 14 55 22 7 47 28 39 46 52 26 44 13 31 30 37 32 54 51 4 19 8 59 17 36 42 50 27 2 58 48 60 11
c order 10 11 40 51 8 46 16 39 58 6 12 18 54 53 55 36 57 13 22 5 44 2 19 4 33 31 52 50 25 35 45 56 38 14 7 17 30 23 43 15 37 32 9 49 3 34 1 24 59 60 21 28 41 26 47 20 42 29 48 27
c order 42 43 38 25 5 15 29 55 45 49 16 44 34 50 39 9 56 51 41 21 18 26 60 46 3 33 13 19 54 1 35 40 59 53 4 12 48 11 27 22 23 14 32 37 47 2 6 58 57 28 24 8 36 52 10 20 31 7 17 30
c order 1 20 59 41 50 53 23 60 54 26 48 52 16 51 8 32 9 3 14 13 28 4 11 56 42 15 22 43 21 35 47 19 33 58 46 2 6 40 45 7 30 5 44 29 12 31 36 18 55 38 24 49 25 37 27 10 34 39 57 17
c order 48 2 18 15 40 22 60 41 8 55 38 1 7 35 25 27 52 56 37 9 3 50 54 4 16 12 33 31 21 58 49 20 17 59 47 43 28 23 44 36 10 19 5 45 14 42 34 30 24 32 13 6 39 46 11 26 57 53 51 29
p cnf 60 576
-6 10 49 -29 0
-30 34 -5 -42 0
60 55 -3 -36 0
23 -33 22 -57 0
-16 53 -58 -25 0
8 46 -2 33 0
46 24 54 27 0
-42 -45 -54 55 0
49 -22 54 9 0
-40 -55 60 -42 0
-14 23 -29 20 0
24 12 20 44 0
-38 -57 -23 55 0
33 -58 -35 -51 0
45 58 53 60 0
-17 -46 9 6 0
11 53 -46 40 0
59 52 55 7 0
-44 60 -35 -46 0
23 35 -15 1 0
42 -37 -14 -47 0
53 -33 -5 -57 0
52 58 22 -16 0
27 56 2 15 0
-53 -6 40 34 0
-32 -15 55 -7 0
31 -18 -48 -22 0
43 29 21 -27 0
-28 -29 -5 -25 0
-51 -15 52 3 0
28 29 50 -25 0
-47 24 -25 -45 0
-23 -9 41 -60 0
34 -55 20 16 0
-19 21 22 -50 0
34 -42 48 46 0
-6 15 -29 -47 0
29 -57 7 -53 0
-27 52 20 -14 0
39 -48 40 -53 0
-14 10 -45 54 0
33 -48 -55 16 0
33 -59 -18 -5 0
-14 -35 -60 11 0
-16 55 5 33 0
41 -13 37 29 0
56 -41 -52 -11 0
34 59 36 24 0
-40 -31 -23 -51 0
-48 -38 24 8 0
-30 -26 9 22 0
28 37 23 35 0
-42 31 -26 55 0
-25 44 11 34 0
47 57 44 20 0
46 24 -15 -55 0
-44 -52 -39 13 0
-23 56 16 -55 0
30 55 54 58 0
55 45 -42 -51 0
-31 -2 48 40 0
-42 -25 47 20 0
49 34 42 38 0
-23 22 -16 -60 0
11 -41 56 22 0
27 -45 46 34 0
-13 14 43 44 0
4 -44 -22 -17 0
26 -8 5 27 0
-28 -51 57 -18 0
-6 -45 34 42 0
-49 -35 -1 -48 0
43 -40 -24 -45 0
7 -45 18 17 0
-45 39 -9 -12 0
52 -33 -39 -41 0
-5 20 2 28 0
-10 -46 23 27 0
58 2 -32 -50 0
-42 34 16 28 0
25 -41 -48 -10 0
-22 -12 -58 -59 0
-6 -50 -59 49 0
-49 -35 -56 50 0
-59 35 -47 3 0
-55 45 23 47 0
22 13 -11 57 0
-25 -9 44 -50 0
54 42 -10 34 0
38 31 -39 3 0
-2 -53 -51 -57 0
-32 18 49 14 0
-28 -34 11 -24 0
18 57 -29 40 0
-9 -33 -38 41 0
-44 -35 -23 13 0
44 -60 2 3 0
-48 18 -20 9 0
40 -35 -46 17 0
2 50 16 40 0
-22 -54 52 -59 0
-15 -43 56 -9 0
45 -34 40 -26 0
27 53 -56 -50 0
-24 9 -13 16 0
-60 -59 22 -7 0
54 -57 35 -36 0
-21 -51 -2 -3 0
49 -54 53 42 0
57 13 39 50 0
45 -17 7 -21 0
33 -30 -13 1 0
-9 15 42 29 0
4 -54 -12 50 0
-14 -30 28 -44 0
32 -34 54 45 0
31 -50 -20 -24 0
-41 -12 11 31 0
-45 -44 21 -37 0
41 -60 52 -2 0
49 -24 -35 17 0
36 30 21 10 0
-24 59 28 -58 0
-47 44 51 58 0
27 -45 -16 -14 0
55 -17 -56 -6 0
13 -59 5 48 0
55 -42 -13 -18 0
59 4 -50 3 0
44 13 45 -40 0
-7 -17 -25 38 0
42 56 11 -10 0
44 35 2 43 0
-43 -7 -53 -40 0
43 -15 -17 -60 0
-1 22 2 16 0
38 49 25 52 0
-22 -23 -47 -38 0
38 9 11 -17 0
-32 -24 -21 -36 0
-20 23 4 6 0
17 -44 -4 29 0
-53 41 49 -32 0
-17 -16 12 -31 0
-17 -29 9 -45 0
31 43 8 -45 0
27 -39 38 59 0
43 11 -41 -34 0
-8 39 -30 -48 0
-7 54 56 -23 0
55 -21 9 -45 0
25 16 54 -12 0
-9 -25 19 -47 0
-46 -11 9 -47 0
-42 -8 45 -55 0
-31 -47 2 13 0
55 3 38 -56 0
43 -52 -53 -41 0
-54 53 -25 -10 0
30 -44 -22 -42 0
26 40 -3 -2 0
-25 -52 -48 28 0
-2 29 -5 41 0
-33 53 23 54 0
-4 -56 -16 -38 0
7 -43 30 49 0
8 29 -50 7 0
39 -24 28 -22 0
-51 -54 -19 56 0
-54 -34 39 -14 0
-21 28 50 -53 0
36 -9 -17 38 0
21 -47 -30 -24 0
47 49 13 8 0
18 36 -55 53 0
46 -17 30 -2 0
-26 -51 -45 35 0
36 -21 -8 -28 0
57 -27 29 25 0
43 28 7 -54 0
44 -27 -18 16 0
-48 -37 36 53 0
-34 32 -27 22 0
24 43 -25 -45 0
41 8 -9 -56 0
-46 59 -19 -22 0
-3 -19 2 -59 0
45 -9 60 52 0
30 -37 10 9 0
-56 58 -5 -29 0
20 -42 57 29 0
-25 -40 56 50 0
42 -22 56 -10 0
-18 -39 25 -13 0
58 -57 -54 -27 0
-1 -39 -9 12 0
16 43 14 2 0
20 30 -58 28 0
-54 36 43 49 0
34 -39 9 55 0
7 52 -45 -26 0
22 17 53 34 0
54 56 19 37 0
25 -11 -43 40 0
-45 -27 26 12 0
-6 49 -32 -11 0
-29 10 -6 -47 0
24 6 -23 25 0
47 -5 14 10 0
-35 -13 -46 -14 0
10 58 60 37 0
10 33 -4 49 0
-14 -51 42 4 0
-3 45 2 -7 0
-34 23 -42 -53 0
10 -5 30 -58 0
-28 -27 22 5 0
-39 19 42 -17 0
-55 42 -11 53 0
13 -1 -8 -16 0
49 26 59 -37 0
32 1 -26 41 0
17 16 -14 42 0
-20 -14 8 -21 0
-23 7 41 -60 0
-7 52 5 49 0
-32 -57 6 12 0
-1 -24 -60 -5 0
-47 -59 29 54 0
-53 19 -14 44 0
15 -43 22 -23 0
-27 -29 -14 13 0
-1 -5 26 55 0
-31 18 25 -41 0
-3 -23 -46 29 0
11 44 -32 -49 0
-6 34 -19 26 0
-8 32 -39 -48 0
13 -9 -53 -25 0
50 -39 -23 34 0
6 -54 -44 -39 0
-54 5 25 40 0
-53 59 45 -22 0
37 1 -36 7 0
25 -31 49 -29 0
8 -58 54 -42 0
59 17 -57 -24 0
15 -54 52 27 0
-49 53 -9 43 0
-45 54 -16 57 0
48 25 -2 -54 0
20 10 -59 -4 0
60 -19 -59 -2 0
-46 -49 5 19 0
32 40 -1 53 0
15 -53 45 39 0
49 -33 -38 -57 0
57 -12 -55 58 0
-3 22 -16 8 0
58 47 -40 43 0
14 56 -16 51 0
-27 -50 -9 41 0
-53 3 27 39 0
-21 39 -42 44 0
-25 8 -60 -4 0
-41 -36 13 29 0
12 -4 -55 29 0
-30 -6 15 -49 0
-20 4 -24 -25 0
34 -21 -44 42 0
56 -14 1 -20 0
31 -24 -25 -47 0
-38 23 57 -44 0
39 48 -13 -60 0
-13 19 -28 -34 0
6 -13 -36 -21 0
-42 50 53 11 0
24 34 -54 -8 0
7 -54 -25 32 0
-47 -34 8 -45 0
3 -24 27 36 0
-37 17 3 39 0
45 58 -17 -12 0
34 26 43 23 0
-44 -56 51 -13 0
-56 15 -17 43 0
55 23 -59 -50 0
7 39 57 -56 0
-10 -22 17 -21 0
-16 -34 42 38 0
-50 -40 10 -28 0
2 -37 -53 -52 0
16 -44 7 -27 0
39 37 -59 50 0
17 43 -14 48 0
-35 55 29 43 0
9 -23 19 -8 0
37 40 58 -25 0
-3 45 -4 -55 0
51 -49 -12 55 0
41 -20 8 48 0
-18 59 16 24 0
24 -44 45 -58 0
14 -12 -25 -16 0
56 3 -1 -12 0
-39 -48 -28 5 0
-1 -27 52 -31 0
-22 -2 -5 4 0
38 -2 50 17 0
20 43 24 41 0
24 -7 26 -27 0
43 -25 -60 22 0
-60 13 -27 -32 0
-21 -2 -25 -22 0
32 6 -26 -50 0
10 48 15 14 0
44 40 13 15 0
30 -27 45 -29 0
-53 -52 -23 -37 0
41 -6 16 -38 0
-47 -49 -56 -55 0
-54 3 -5 39 0
19 -44 53 -54 0
20 50 -49 -57 0
-59 22 6 26 0
-5 33 53 29 0
3 -15 -11 -19 0
-29 -9 60 40 0
-24 56 34 -38 0
-33 24 -3 -31 0
8 28 -4 38 0
15 -20 31 -39 0
4 -26 -25 13 0
7 -45 48 -52 0
-23 -29 48 39 0
-57 60 -26 4 0
-1 -2 37 51 0
5 -31 -16 -46 0
-25 -19 -9 -17 0
-52 32 15 54 0
7 21 -58 -18 0
-29 -18 7 59 0
-28 25 -51 -26 0
-7 3 -20 -26 0
-48 -23 60 -50 0
-58 31 44 -7 0
-57 -45 46 -12 0
13 36 20 17 0
12 54 46 -6 0
29 -14 36 -47 0
31 40 -53 -46 0
9 8 -37 -44 0
-8 -14 -42 -1 0
34 -45 -10 58 0
40 27 2 26 0
-24 -51 -22 -11 0
52 56 -21 60 0
-37 57 -52 13 0
-25 -60 -50 -27 0
15 -46 -56 39 0
20 -44 16 -2 0
-1 -26 45 -38 0
22 52 58 49 0
-27 53 44 -2 0
29 3 -48 -14 0
-4 42 -3 -45 0
41 -47 -25 19 0
-17 -18 -46 32 0
-34 53 8 -32 0
-23 -27 46 -20 0
26 56 -42 7 0
41 -54 35 9 0
-18 33 1 41 0
-24 -33 -56 -5 0
27 5 18 51 0
22 -14 52 60 0
28 9 -50 38 0
-9 13 -54 -15 0
21 54 15 22 0
-52 -44 -22 -26 0
-8 35 -14 47 0
-20 25 2 -29 0
15 -19 48 31 0
46 -6 43 39 0
38 -51 -43 -42 0
35 12 -53 32 0
16 -34 40 -45 0
15 -41 -4 46 0
-18 -9 -40 26 0
-57 39 45 15 0
-25 -5 -33 -59 0
-36 -49 -29 27 0
-49 27 -20 44 0
23 -7 -28 52 0
26 23 -11 -13 0
-53 -1 -22 37 0
-5 -25 16 14 0
-15 -14 11 -23 0
-32 -54 -27 56 0
34 42 -54 41 0
54 -23 28 18 0
12 -15 27 28 0
-35 -9 56 11 0
40 13 51 -12 0
35 2 34 39 0
-47 38 -23 55 0
22 25 28 19 0
16 8 -3 -14 0
-36 -37 58 -12 0
57 56 -40 33 0
-35 -44 -31 -30 0
-11 9 14 30 0
18 -24 -31 -27 0
-3 35 -25 -56 0
-55 -10 46 -57 0
-48 36 -32 40 0
-53 -50 -24 -30 0
57 -6 -22 -40 0
20 56 -22 -53 0
44 -42 -23 -41 0
27 -24 -13 -53 0
-30 53 -10 -59 0
30 -16 -2 -27 0
-2 35 43 55 0
-15 2 -30 33 0
3 -27 -55 -20 0
53 42 -26 -5 0
37 54 39 55 0
56 45 -35 10 0
3 24 28 57 0
-39 -16 33 9 0
55 -58 4 -45 0
50 12 -43 23 0
-32 49 57 38 0
-55 26 -11 58 0
-14 -48 47 -35 0
5 -31 42 36 0
15 -42 -53 16 0
-49 -25 -42 -37 0
-31 -27 -49 38 0
-14 -3 38 -41 0
23 -10 -43 -3 0
-30 -8 49 33 0
1 43 3 -44 0
57 28 46 36 0
58 -59 6 -22 0
-26 20 6 -18 0
47 35 59 -55 0
49 9 -60 -34 0
30 22 -15 -33 0
9 31 -43 55 0
-53 54 -49 58 0
-54 21 33 41 0
2 -60 20 38 0
58 59 -55 -50 0
-34 -7 -29 -22 0
34 37 1 -13 0
-58 48 -4 27 0
-7 22 -60 -20 0
25 -40 -46 51 0
37 -28 49 40 0
-17 -24 -57 -59 0
-10 -29 -50 -36 0
-58 24 6 31 0
53 43 36 7 0
39 -24 22 36 0
21 -11 47 24 0
27 -26 3 10 0
50 -27 -45 -46 0
-14 59 37 53 0
-12 -32 -23 56 0
-23 -25 31 30 0
-12 -47 26 -45 0
34 -37 -31 -30 0
-57 42 28 19 0
34 52 -33 -9 0
45 38 35 -60 0
4 14 46 -23 0
-33 -28 53 -2 0
-28 15 46 -13 0
-41 -23 54 6 0
22 -43 -32 5 0
45 -47 -53 -9 0
28 -22 -42 30 0
13 14 -41 -45 0
-31 -43 -53 36 0
53 22 -37 -4 0
-12 -41 -52 -54 0
-24 -47 8 -15 0
-9 -11 -57 41 0
-8 -54 42 5 0
42 16 -50 49 0
18 -8 -46 -43 0
-37 -43 -26 40 0
-48 -28 24 6 0
-31 -46 -32 7 0
16 -50 -13 11 0
-55 -9 -27 12 0
-23 53 17 30 0
-10 -13 42 -45 0
52 6 47 16 0
33 15 -59 2 0
-17 27 9 -2 0
-34 -30 -26 46 0
3 28 -6 30 0
-43 -48 -12 5 0
-55 18 13 -8 0
4 56 23 -17 0
-53 22 3 -39 0
-47 -2 -1 26 0
-36 -40 6 -15 0
8 -4 43 -33 0
-30 41 -57 35 0
4 39 44 -28 0
59 -10 42 -19 0
-13 24 38 -9 0
-35 53 50 -5 0
-11 52 19 -38 0
33 37 30 53 0
-41 7 22 -12 0
-26 -49 44 2 0
19 -37 54 4 0
2 41 -8 -39 0
-4 -50 -11 24 0
40 -27 -39 -29 0
-26 58 15 5 0
-48 1 4 13 0
-60 6 -28 30 0
58 -19 -59 15 0
59 -17 35 -12 0
58 -35 6 -3 0
47 -53 18 -25 0
-28 -23 -10 -45 0
-35 32 -52 -36 0
53 -23 16 -8 0
-7 22 -13 -59 0
-12 28 21 -25 0
-2 58 30 -45 0
-57 26 -18 15 0
34 3 28 -36 0
-50 -23 -57 -33 0
-48 -38 -52 30 0
-35 56 -9 24 0
-10 -58 20 -51 0
-12 54 -23 -18 0
13 39 -1 -44 0
-5 -23 -13 22 0
-34 51 -41 -12 0
20 34 -8 -25 0
-59 -49 8 -18 0
-25 -41 -36 -23 0
-25 53 -49 -1 0
47 -51 53 29 0
42 -49 48 13 0
-18 -12 -26 27 0
56 -16 -20 -4 0
-17 -2 -4 9 0
32 23 -24 -50 0
60 -57 -40 6 0
-40 -26 -54 -50 0
55 -51 -43 53 0
4 58 -47 18 0
15 4 17 -28 0
-37 38 -59 -43 0
58 -42 -49 -10 0
-40 -10 -17 18 0
-29 -35 51 36 0
-45 -52 -57 56 0
-35 -24 2 45 0
-18 28 4 40 0
-46 -38 30 -15 0
51 -24 44 -19 0
-10 -28 18 -21 0
39 -47 -3 -16 0
-43 -44 42 25 0
-30 -5 -16 -9 0
