c family=4-SAT n=60 instance=3 seed=726001144 models=30
c order 46 35 39 51 48 9 40 8 52 32 43 15 14 36 3 5 55 1 11 13 27 29 25 44 45 50 57 56 6 53 17 60 26 54 41 34 24 59 42 10 12 22 21 20 38 31 7 16 58 19 37 23 28 2 4 33 49 47 18 30
c order 33 27 53 22 44 12 13 55 20 16 57 34 32 40 6 26 48 38 14 3 50 24 45 59 47 5 10 23 56 43 31 35 41 4 36 15 18 8 19 9 49 29 7 46 17 30 54 2 39 60 1 25 42 11 51 28 37 21 52 58
c order 36 3 32 2 18 26 24 44 43 6 9 28 38 55 49 46 53 11 10 15 60 29 57 37 13 45 1 56 12 59 8 33 4 40 50 5 7 51 39 16 54 48 47 22 27 20 31 23 14 42 19 25 41 35 17 58 52 34 30 21
c order 51 9 12 4 29 59 1 49 56 47 57 48 37 33 10 26 17 7 21 24 34 20 32 55 23 50 52 11 14 19 25 44 13 45 41 39 36 40 31 54 46 22 15 42 3 28 18 43 35 30 16 8 60 27 58 6 5 38 2 53
c order 42 50 26 48 11 1 3 25 36 15 29 55 40 47 19 49 9 51 2 5 38 21 46 45 56 6 12 30 18 7 10 44 27 33 13 35 41 34 20 16 39 54 4 8 53 23 22 58 43 24 52 14 57 37 59 32 17 28 60 31
c order 3 53 13 44 17 10 26 36 45 7 42 46 28 1 22 29 38 58 30 37 18 21 14 27 23 51 2 47 43 59 31 19 39 11 4 16 56 54 12 40 50 55 57 8 9 5 52 34 48 49 32 41 20 24 15 6 60 25 35 33
c order 57 3 54 60 18 27 43 42 33 13 38 26 56 23 53 25 14 52 17 28 29 37 34 55 49 10 5 44 9 2 24 41 50 15 48 8 32 7 22 20 40 19 39 6 51 30 16 35 21 12 1 11 47 46 45 58 31 36 59 4
c order 31 45 37 26 39 30 60 57 6 34 23 36 40 49 1 9 53 29 25 58 48 38 28 46 21 47 50 52 17 18 59 5 16 7 22 20 12 2 11 43 19 42 24 35 33 3 41 32 13 56 14 15 44 27 51 55 10 8 4 54
c order 26 9 3 54 55 38 40 10 22 32 1 41 13 56 18 31 49 48 20 59 36 12 14 37 53 34 29 51 33 4 17 16 57 30 52 23 39 47 35 58 21 45 15 19 8 44 25 11 2 24 5 7 60 43 27 42 6 46 28 50
c order 54 2 37 33 24 60 56 51 10 55 26 32 21 19 15 44 39 3 22 59 16 20 28 13 45 5 9 4 27 18 1 41 58 30 42 29 50 52 11 46 36 38 31 34 12 49 6 35 40 57 17 43 48 14 7 47 8 25 53 23
p cnf 60 576
-20 -4 -25 -48 0
26 -30 27 -32 0
-10 -58 -23 -7 0
25 19 48 -59 0
31 34 14 -5 0
52 -10 30 36 0
-37 -48 -59 46 0
51 -48 -10 28 0
59 -43 -6 -51 0
-32 -60 14 52 0
46 -59 16 -3 0
-27 -57 30 10 0
41 29 -43 -5 0
14 -23 -32 -19 0
-31 -18 -2 -50 0
-39 55 41 -5 0
-32 -23 -5 -3 0
-19 53 -5 -18 0
27 16 29 22 0
-34 -10 48 43 0
49 50 54 -17 0
35 31 -50 52 0
-11 32 28 40 0
2 -29 59 9 0
39 -2 51 -17 0
59 20 54 21 0
-54 26 14 -6 0
-12 17 10 -18 0
25 49 -60 -42 0
-45 13 -28 36 0
19 57 56 55 0
18 -31 10 -48 0
51 -35 21 46 0
17 -12 32 -19 0
-41 -33 38 25 0
25 3 22 -18 0
7 2 -17 -49 0
12 19 35 16 0
8 -44 56 9 0
-59 -60 31 -56 0
28 -46 -31 -51 0
-24 1 -7 -45 0
15 -16 49 59 0
-52 17 -9 7 0
-20 -25 4 -57 0
44 45 33 -14 0
1 -29 58 -31 0
31 36 -9 5 0
14 21 -3 -37 0
48 45 -10 -36 0
18 -53 16 54 0
-50 -53 -10 2 0
-12 40 17 -13 0
-33 10 -59 38 0
-50 -4 -14 2 0
-38 -24 -41 -50 0
-54 53 -55 39 0
-37 -3 46 1 0
-22 -52 -11 59 0
-23 44 9 47 0
-26 -53 -54 28 0
-51 12 -6 -21 0
1 -17 -18 -54 0
11 17 29 13 0
1 -11 -36 -33 0
-20 36 35 1 0
-40 -9 -45 -48 0
-11 -12 7 -49 0
-41 14 -51 23 0
-43 51 34 -30 0
24 -19 32 -29 0
1 22 -19 -24 0
37 -41 29 4 0
25 -5 15 7 0
-42 -24 -23 -16 0
2 -9 -48 30 0
-19 55 -56 44 0
-56 -28 -7 13 0
-49 15 -44 14 0
-35 -48 -16 55 0
-16 -22 41 -14 0
-16 26 18 48 0
-41 48 -1 -30 0
45 49 -30 -41 0
41 -38 6 29 0
-28 5 -13 40 0
34 -22 -54 13 0
34 3 29 -58 0
47 -55 12 -50 0
60 -45 -44 42 0
57 6 -41 24 0
-53 18 44 -23 0
-56 36 34 -8 0
-11 -16 -8 -39 0
-15 -4 23 -5 0
54 25 -5 -36 0
-2 6 13 -31 0
17 -53 -45 -42 0
-52 55 50 -20 0
59 -1 -42 -28 0
-34 40 13 39 0
-16 -5 23 -18 0
19 7 -51 -50 0
21 -13 14 -40 0
35 -13 45 58 0
3 -22 4 -31 0
-51 -31 -48 -52 0
41 33 -37 -7 0
51 37 -59 57 0
17 -46 56 49 0
27 -47 -10 28 0
-60 -58 -28 17 0
-12 13 7 -58 0
-32 58 60 51 0
-60 -59 -56 12 0
-31 -53 51 -56 0
-52 23 -15 50 0
34 2 -19 49 0
36 22 50 3 0
33 16 -38 -46 0
15 -46 -59 31 0
37 -54 50 29 0
-16 12 36 56 0
-58 2 32 9 0
46 -20 36 12 0
39 -23 -25 -21 0
55 -46 37 -1 0
54 -35 1 -47 0
-12 -8 -45 -36 0
-14 18 19 10 0
-25 4 57 27 0
-28 -17 1 -26 0
2 -37 -10 6 0
-34 -5 42 7 0
13 -59 24 -10 0
42 -46 -58 12 0
-52 14 30 46 0
18 7 -53 -52 0
-6 44 -30 59 0
44 5 -4 47 0
20 -21 -11 14 0
14 -25 -59 -39 0
13 -22 -7 -12 0
43 -39 -31 -14 0
44 -45 49 26 0
-49 23 56 24 0
30 60 34 -49 0
36 33 5 -53 0
29 -28 -53 -39 0
-5 10 -54 -36 0
37 -44 60 -50 0
57 50 -13 -45 0
58 34 25 7 0
-5 -41 49 54 0
-14 59 13 -16 0
55 13 38 -28 0
7 11 -5 28 0
-11 -44 -57 -60 0
-51 7 -35 -5 0
-4 60 57 32 0
-48 -30 24 -44 0
55 9 -11 -58 0
58 -30 -43 19 0
22 7 -2 -58 0
28 -12 16 44 0
-57 40 -11 -47 0
-13 -20 51 40 0
36 5 -25 -58 0
-24 14 -56 -44 0
34 -35 18 22 0
-4 5 10 -12 0
24 11 -3 -37 0
-40 -50 5 25 0
60 -35 -23 10 0
-51 -60 -38 -8 0
-10 58 48 37 0
55 56 -42 21 0
44 -37 -51 -45 0
-27 3 -8 5 0
-29 9 -1 -32 0
-51 -52 -9 -16 0
-33 55 -52 5 0
-26 37 16 -5 0
1 -8 -19 26 0
14 -24 12 -43 0
-41 12 5 3 0
-12 -21 -13 40 0
15 46 5 -43 0
40 -17 13 -33 0
-23 55 -36 -46 0
-50 43 11 -42 0
-34 4 -46 16 0
-24 -50 42 -32 0
-5 -40 11 -59 0
25 3 -45 52 0
-24 -17 -2 -14 0
-26 55 -40 -53 0
17 -51 -6 49 0
55 -38 -18 60 0
-10 15 -43 -57 0
-56 -50 25 22 0
28 43 46 -23 0
5 -23 -15 40 0
-46 -24 23 49 0
3 -28 -24 47 0
31 58 -7 29 0
45 46 -48 28 0
4 20 -42 -51 0
-38 34 -32 44 0
-21 -12 -32 -8 0
-39 41 30 -20 0
10 -17 -33 -48 0
14 -34 26 47 0
58 25 59 -7 0
-59 -15 -16 -28 0
-37 -6 7 -42 0
53 -46 -54 14 0
-15 57 -53 -9 0
9 28 -20 29 0
-52 -1 -40 13 0
-48 -7 54 -31 0
31 50 -4 -32 0
18 -32 59 -53 0
40 1 58 -26 0
-50 22 11 -28 0
17 -7 23 -25 0
20 -4 30 -59 0
7 -27 11 52 0
49 -28 -55 33 0
21 -30 47 11 0
55 -10 45 -14 0
-15 -25 -52 -50 0
-21 -41 -5 -26 0
-60 -29 16 7 0
48 -49 35 -7 0
-44 8 48 -58 0
41 -45 -19 -47 0
7 -11 -21 30 0
-18 -58 -54 9 0
-43 -56 -48 28 0
-44 -2 -16 25 0
-52 39 11 -23 0
-18 -36 -59 -10 0
-60 3 58 -14 0
-41 23 31 -37 0
-8 14 47 -57 0
31 40 13 2 0
31 -24 44 -49 0
30 15 -7 51 0
9 -44 30 50 0
18 -30 44 36 0
8 -25 26 24 0
48 -35 33 26 0
-21 -15 -18 -34 0
-13 7 50 9 0
-32 11 9 56 0
41 -16 26 55 0
2 42 -38 -45 0
-47 38 -24 40 0
-55 52 9 -49 0
57 42 4 -47 0
-44 -40 1 -8 0
2 17 -12 -24 0
-60 -12 29 34 0
-60 -21 -44 -12 0
-26 48 -57 18 0
-13 53 18 -55 0
48 33 -36 -54 0
15 36 -55 29 0
-1 -33 55 -60 0
-6 35 -17 24 0
27 4 6 45 0
-19 51 33 10 0
-30 49 -28 16 0
-38 20 34 -54 0
52 3 45 55 0
59 -13 -6 9 0
-39 21 -2 -30 0
-34 15 -26 16 0
-26 55 41 33 0
-21 42 49 -34 0
48 56 -51 -32 0
-47 -4 -3 -28 0
-38 -5 -30 -10 0
-42 -16 -59 -37 0
29 38 2 23 0
21 45 2 54 0
-32 -51 4 -40 0
-53 25 -39 -12 0
41 44 -42 36 0
-20 -56 49 9 0
31 -35 -59 8 0
-55 25 58 -30 0
-32 15 17 36 0
41 -25 28 -24 0
-31 -16 39 24 0
-49 -12 22 -17 0
32 18 -48 57 0
-36 -35 -11 -24 0
30 -14 55 -57 0
-35 41 -30 -52 0
-38 -3 23 49 0
-44 47 2 -21 0
28 -3 8 -45 0
-44 -25 40 -47 0
-39 11 -14 40 0
-5 -40 -50 4 0
51 -40 35 -27 0
-27 -16 7 -6 0
-22 48 11 41 0
-25 47 -18 -23 0
45 -54 38 -28 0
-40 13 54 -60 0
53 37 14 -4 0
-26 -21 52 -19 0
-10 15 -57 -34 0
4 -40 -41 -26 0
12 -56 39 -37 0
-41 45 -23 -40 0
-42 25 55 -5 0
-14 -6 -10 -15 0
19 1 -22 57 0
4 -59 -50 16 0
1 4 -45 40 0
-26 -45 -7 29 0
-10 34 39 7 0
-52 -42 25 29 0
-12 11 -44 14 0
-53 -31 -44 -42 0
-9 -4 -18 -16 0
-51 -47 21 -18 0
-8 -33 15 -42 0
-46 -21 49 -45 0
-20 -5 6 24 0
-52 -24 9 59 0
-13 34 27 -22 0
23 4 -6 27 0
-27 -45 -38 10 0
-36 -8 22 26 0
-12 -7 -31 -51 0
29 52 51 -32 0
-30 44 12 -15 0
16 -55 -54 50 0
-56 44 22 16 0
27 -36 60 -15 0
21 -15 -17 26 0
-12 -52 6 -59 0
-5 -42 -54 41 0
-37 -4 -6 -58 0
-33 52 -19 53 0
18 59 -5 28 0
-53 -25 45 -34 0
60 25 -33 -5 0
-3 -1 -4 -26 0
-33 23 40 36 0
-25 35 20 1 0
-38 -52 7 20 0
-29 -20 -35 -3 0
26 2 20 -25 0
58 -32 55 -19 0
-9 -45 -34 -50 0
14 15 -28 -59 0
28 -48 -42 -12 0
55 -35 -13 -23 0
-37 2 23 22 0
-6 -39 53 -10 0
-15 -1 -4 -32 0
-7 -26 55 -19 0
28 56 43 -46 0
-31 53 -1 -50 0
-42 -1 30 45 0
-14 48 43 2 0
58 7 -27 -38 0
48 57 -50 22 0
-15 13 55 -42 0
-6 54 -43 -33 0
-16 -15 39 -58 0
59 -25 -2 -10 0
-7 -42 -47 -17 0
-57 23 27 6 0
-58 59 38 24 0
60 47 41 22 0
20 -19 27 54 0
24 11 3 -30 0
33 35 -47 -4 0
43 15 28 25 0
-47 -60 22 29 0
43 3 22 -60 0
-1 -60 -50 -18 0
39 32 -10 19 0
59 -56 51 -29 0
46 -1 -45 -56 0
-57 45 -15 -17 0
6 57 -10 -54 0
52 -36 38 -20 0
-28 7 49 25 0
-44 15 -4 55 0
-43 10 46 -28 0
-58 -2 26 1 0
-38 54 -51 -50 0
-1 -40 -52 31 0
-38 -52 -27 14 0
47 56 -59 -54 0
-19 -22 -41 9 0
-38 27 25 12 0
-41 -10 -23 27 0
29 60 -58 -15 0
-58 -59 -60 -29 0
-46 -12 -52 30 0
13 -34 -53 -25 0
-8 33 59 -58 0
48 9 -34 -25 0
-41 34 26 47 0
54 -7 38 -42 0
-22 -27 11 15 0
38 48 60 -3 0
-27 57 -26 49 0
-5 13 -3 -24 0
55 13 -2 40 0
-15 -60 -30 20 0
-5 51 21 -55 0
-49 -30 5 -55 0
60 24 -25 50 0
-7 -12 -37 -41 0
33 27 14 28 0
-31 -13 29 1 0
-56 -42 43 -39 0
-25 32 29 52 0
39 -50 56 41 0
-58 48 44 6 0
-6 -36 48 -58 0
-21 1 58 6 0
18 -9 -7 -50 0
39 19 -45 -33 0
-52 -17 58 -2 0
47 27 26 -34 0
2 19 -45 -31 0
46 45 39 57 0
29 -14 7 1 0
-32 6 45 -44 0
-20 -57 -44 -3 0
24 17 -40 -16 0
27 -11 -43 13 0
-3 -42 11 -13 0
-6 -46 55 56 0
16 -32 -50 -26 0
58 -38 25 15 0
35 33 25 49 0
-40 -49 39 -12 0
55 58 60 10 0
38 -56 22 26 0
7 33 -18 -17 0
57 2 -35 43 0
-26 52 -44 5 0
-60 -9 -51 -2 0
-55 -27 44 -56 0
60 22 11 37 0
-60 -55 -4 28 0
-52 -4 -16 10 0
33 -41 42 -46 0
-31 -8 5 7 0
53 -18 -19 -13 0
3 25 -52 -44 0
58 -9 -29 21 0
-4 -24 16 6 0
23 -18 -52 -25 0
27 -25 -20 -52 0
-44 -46 47 53 0
-8 -23 31 28 0
-20 39 -28 18 0
-44 -42 -22 -20 0
-36 -9 21 31 0
-28 -16 -12 36 0
-26 57 -11 -33 0
-50 -26 -54 59 0
31 40 19 33 0
-35 54 28 43 0
-16 -29 -3 -25 0
56 -59 -12 40 0
-12 -26 36 -44 0
-48 -16 43 -9 0
-35 46 23 -47 0
51 2 17 19 0
34 20 32 56 0
47 56 40 49 0
1 -29 -37 -19 0
24 59 23 15 0
-54 9 35 -49 0
6 -40 37 -5 0
-13 16 -12 -52 0
52 19 29 -35 0
-12 13 5 32 0
-21 -51 29 -18 0
49 13 26 -36 0
-18 57 27 -55 0
28 23 -10 41 0
5 -12 -38 -56 0
-25 -51 3 -9 0
14 -23 -57 -33 0
-25 43 -58 18 0
5 -57 2 16 0
-10 -23 43 -46 0
37 33 -3 11 0
-31 -49 23 -17 0
-5 -12 2 57 0
-43 49 31 -27 0
50 -39 44 -56 0
17 -57 32 45 0
-59 -29 -45 33 0
42 57 -58 -59 0
-11 -42 -41 54 0
-21 54 1 -31 0
29 10 60 -48 0
-30 -23 -57 -5 0
-60 28 31 4 0
14 17 60 22 0
-26 -18 -3 2 0
26 -30 -13 -33 0
-3 11 29 23 0
14 -34 -33 -54 0
-7 -24 43 2 0
-8 -38 32 10 0
-11 -52 33 54 0
-33 -30 32 52 0
38 28 -39 -50 0
-16 -39 -4 -22 0
-38 -49 -45 -26 0
-23 -59 47 60 0
-1 -29 -47 54 0
25 46 19 3 0
-21 17 26 -60 0
-49 -58 33 -39 0
-24 60 -1 10 0
2 16 47 20 0
35 2 -41 -49 0
2 -19 3 -38 0
-52 -10 -36 59 0
-33 3 -59 36 0
-48 15 33 7 0
-17 22 -60 15 0
18 26 -6 42 0
1 57 -43 -24 0
-48 27 21 5 0
33 25 -60 -3 0
-3 35 -14 20 0
-31 29 -34 -49 0
-55 8 3 -18 0
50 -48 -36 29 0
19 -1 -50 -40 0
41 6 45 -25 0
-1 47 60 -2 0
-31 -50 -9 -42 0
45 -41 15 -50 0
10 30 34 36 0
-27 4 24 55 0
58 3 35 52 0
5 -52 -58 -24 0
-12 -47 -14 -46 0
-56 -19 -41 49 0
25 5 55 28 0
30 49 45 -34 0
42 -12 38 27 0
-5 -60 12 -56 0
47 60 37 16 0
-44 27 -31 46 0
-13 45 53 9 0
-1 -43 -7 -59 0
10 13 -23 -27 0
44 -24 -3 -47 0
5 -38 30 -60 0
-53 48 10 58 0
40 -23 37 19 0
-41 56 10 30 0
57 45 -29 -11 0
-12 16 -35 13 0
52 -28 20 50 0
