c family=4-SAT n=70 instance=7 seed=726001144 models=230
c order 35 60 10 5 30 65 51 31 70 29 27 37 39 17 57 41 34 61 46 33 38 22 47 67 52 56 62 24 14 2 42 12 6 1 28 8 21 25 18 64 20 7 11 66 49 4 9 55 32 54 48 45 69 44 26 19 15 58 63 40 50 23 43 53 59 13 36 16 3 68
c order 43 23 36 10 5 37 24 63 4 11 52 56 34 18 12 44 42 48 15 3 35 8 1 38 25 27 62 39 47 57 64 14 7 20 9 19 6 61 58 16 26 13 21 17 49 40 65 59 53 50 60 2 41 68 67 46 69 66 54 55 32 33 30 29 51 31 28 70 22 45
c order 25 40 53 65 60 41 6 48 28 58 23 4 33 9 56 12 59 32 68 24 46 14 22 10 11 31 67 17 15 26 52 63 35 45 2 37 57 66 55 54 18 38 61 51 34 39 29 69 50 7 1 19 27 21 8 20 13 43 70 3 36 16 64 44 49 30 5 62 47 42
c order 64 8 5 52 12 65 31 22 14 13 45 60 57 43 6 49 35 42 23 58 20 38 32 46 50 4 67 36 55 25 34 41 33 56 19 68 30 17 21 26 10 28 39 18 7 47 63 29 9 40 15 37 66 16 24 27 51 70 69 61 1 3 54 11 44 59 2 48 62 53
c order 13 62 1 67 7 30 24 28 58 63 33 70 22 39 15 4 3 36 49 46 61 59 10 25 51 38 23 34 44 12 42 20 11 69 19 8 9 65 18 68 52 56 29 5 16 50 31 35 27 43 41 64 45 6 47 17 53 32 21 60 26 66 54 48 55 14 2 37 40 57
c order 3 28 9 5 55 8 50 37 36 22 57 7 24 1 4 34 35 53 48 54 41 11 17 43 40 32 69 27 47 67 70 2 66 26 65 61 33 51 39 46 16 21 64 31 18 23 30 49 68 29 44 59 25 14 20 38 56 62 15 19 12 52 63 42 58 10 13 6 60 45
c order 54 17 26 53 46 24 48 60 52 16 50 44 15 3 69 5 10 11 22 25 49 9 35 41 55 7 38 51 57 36 70 18 21 20 28 32 56 64 30 23 58 67 31 59 39 45 43 34 68 29 27 65 19 8 40 62 63 4 61 42 47 2 14 13 37 66 6 33 12 1
c order 64 14 68 66 57 52 40 39 13 44 35 6 15 31 28 19 26 34 18 42 48 3 32 67 50 2 70 45 60 1 16 65 20 47 8 30 46 41 37 63 33 54 62 27 10 36 9 53 69 29 51 43 12 49 61 5 24 11 4 25 58 55 17 38 56 7 23 22 21 59
c order 53 25 9 59 57 19 50 8 37 39 17 1 15 30 36 47 65 7 28 13 23 40 22 2 12 69 38 43 48 46 64 32 34 4 55 70 11 68 18 52 58 33 45 31 21 54 29 35 49 42 16 24 66 27 6 20 51 41 56 61 26 44 5 10 14 63 60 67 3 62
c order 23 31 47 49 39 22 70 10 9 44 38 4 52 68 26 40 42 20 7 62 69 63 65 64 3 14 41 16 34 30 51 25 50 15 46 1 67 24 6 54 5 36 55 58 32 53 2 48 19 12 35 17 8 56 27 61 13 18 28 43 45 57 59 37 21 11 60 66 33 29
p cnf 70 672
-69 -17 -13 -20 0
70 -37 -46 13 0
-37 -27 46 36 0
25 18 24 11 0
53 10 50 -60 0
6 -55 53 48 0
38 21 -54 59 0
-69 -62 67 -20 0
6 36 -24 -33 0
-22 -50 -33 -26 0
-64 68 -58 20 0
-16 31 -66 6 0
7 -3 36 46 0
69 -22 -64 54 0
-49 62 47 43 0
-48 -25 26 -39 0
25 63 -3 -14 0
4 23 -48 -16 0
-54 4 -9 51 0
-68 54 -55 -3 0
69 -62 -26 27 0
-55 67 -69 24 0
1 20 -17 -27 0
64 52 -20 -21 0
3 43 -34 16 0
40 -22 -3 -7 0
-7 39 20 -23 0
-4 -36 -40 55 0
-33 39 52 -60 0
-47 -8 -58 -11 0
-30 50 -54 65 0
10 -45 43 31 0
11 21 5 -42 0
-40 45 39 -18 0
26 43 55 -41 0
-45 12 53 43 0
-53 27 40 -51 0
68 -12 50 -26 0
-1 -68 -9 51 0
-52 1 -12 -17 0
20 15 -67 -3 0
68 -59 -29 40 0
30 39 47 -27 0
-7 -4 27 60 0
-31 -23 39 -15 0
-31 -70 14 -13 0
-65 -51 -6 -56 0
54 34 3 -67 0
-59 -52 -6 -34 0
8 -63 26 20 0
14 2 -43 -20 0
4 -62 -31 59 0
52 -63 -11 -17 0
62 10 -54 22 0
-16 -35 55 -47 0
52 -42 -13 -11 0
-7 -6 -16 -15 0
-50 -21 -32 -6 0
-70 -62 50 24 0
21 37 -35 -47 0
58 -52 -19 -37 0
-8 -40 -46 -55 0
-25 24 43 46 0
-58 53 8 -27 0
57 61 -47 55 0
-48 19 -62 -12 0
-31 -25 41 -50 0
-35 -43 13 45 0
66 -50 40 12 0
29 -11 23 -54 0
-23 35 -19 -18 0
-7 61 -33 21 0
-56 64 -45 -13 0
-14 56 5 -61 0
-8 27 -22 3 0
-14 57 -39 -52 0
24 -43 7 27 0
57 -60 33 21 0
-12 -14 66 -38 0
40 -44 36 24 0
32 -57 49 -7 0
-17 -29 56 26 0
57 -39 -27 1 0
-66 40 -67 25 0
-46 -29 35 11 0
33 -47 -38 -56 0
-14 -33 11 66 0
-20 48 -49 -18 0
-49 -28 42 23 0
-2 27 -40 -55 0
-28 -19 -21 14 0
16 19 -64 -67 0
25 7 -16 -31 0
43 46 58 -47 0
59 9 -66 51 0
-41 8 -34 26 0
-36 -15 70 -7 0
39 -15 -30 32 0
-36 24 44 -32 0
67 -65 47 44 0
48 19 -7 -15 0
62 -23 -45 -61 0
-68 60 -21 -5 0
-54 -22 67 16 0
10 20 53 22 0
-26 38 29 -37 0
-32 52 -49 -60 0
41 21 5 30 0
56 -7 -14 -25 0
-4 -52 11 51 0
17 22 -62 -60 0
-63 -43 41 -48 0
-5 44 4 -59 0
23 -46 18 -31 0
47 -2 -53 -8 0
-37 -36 -55 67 0
11 -68 48 -64 0
-49 -38 -34 65 0
-54 20 38 -18 0
69 12 -37 -40 0
62 51 50 17 0
34 31 -42 -19 0
54 45 -5 -47 0
-68 38 15 -45 0
-52 7 4 -45 0
68 -52 -38 8 0
-15 -5 -8 -66 0
-31 59 23 67 0
-31 24 -26 -50 0
11 -53 14 -13 0
68 -70 29 13 0
67 51 57 -65 0
50 3 -64 -33 0
-40 57 -42 -6 0
-62 -56 -41 11 0
-37 43 63 -18 0
-11 -5 58 1 0
-47 42 43 -2 0
15 5 -7 -62 0
59 -41 -23 -45 0
-31 51 -50 -42 0
31 11 14 59 0
-49 -1 -12 -24 0
51 -50 36 30 0
-11 -60 -66 56 0
-57 -19 39 48 0
49 -63 -33 -32 0
-24 49 11 44 0
-30 -38 -32 -15 0
1 66 -29 -39 0
45 -28 22 -37 0
-53 -59 26 31 0
15 34 -68 -12 0
-48 -63 -65 -29 0
-42 21 -50 -56 0
-17 -49 -26 61 0
-66 20 43 15 0
53 -65 39 52 0
-33 -27 -50 -70 0
-15 45 64 -53 0
27 -61 11 -13 0
-24 52 -48 40 0
-29 42 61 -21 0
-25 51 50 -52 0
4 -67 -49 61 0
-70 22 59 55 0
18 -61 -25 -52 0
-16 -31 59 -57 0
-1 33 -9 -10 0
-30 11 -5 45 0
4 3 13 37 0
-67 -5 -15 52 0
69 19 30 67 0
41 -52 -26 -8 0
-55 -38 5 -32 0
-7 -43 -60 21 0
16 -21 42 29 0
-38 -70 13 -65 0
-56 61 64 1 0
43 -15 -38 8 0
33 -1 58 -41 0
-6 -69 46 11 0
48 -49 -6 36 0
-19 29 -15 -51 0
-47 -40 -34 -63 0
61 65 -31 38 0
-44 -50 -58 43 0
4 66 -40 -42 0
61 -24 60 -1 0
16 -41 14 -34 0
7 -46 23 -12 0
46 49 -39 -19 0
-37 -42 -7 -38 0
69 -36 -62 -30 0
44 -62 42 -65 0
-57 -47 -26 52 0
54 -31 -14 -20 0
-43 51 25 6 0
-47 49 -3 56 0
-1 -16 14 46 0
-33 -18 -59 10 0
-5 -54 -58 -43 0
-52 -65 -45 66 0
-40 -4 -39 21 0
39 -12 22 -42 0
14 -64 -40 57 0
63 -14 -27 -65 0
-67 13 -3 -45 0
-39 14 26 -3 0
11 27 -45 15 0
-31 -7 -61 45 0
-16 -53 -11 -44 0
35 23 -70 49 0
9 1 -39 -27 0
-4 -9 10 25 0
-30 49 2 -43 0
33 6 -57 -17 0
9 -14 -32 -21 0
54 41 -12 -19 0
-69 13 6 36 0
-4 23 -50 -41 0
-66 49 -20 -56 0
29 -52 -4 5 0
-46 14 30 -67 0
-41 68 39 -18 0
-65 61 63 47 0
-16 -56 -26 -15 0
6 69 9 59 0
17 -30 -6 58 0
50 -15 -33 -51 0
3 23 52 -30 0
27 58 51 -60 0
67 -59 5 60 0
20 -64 48 -3 0
-38 1 -52 2 0
66 -54 55 24 0
-44 24 -1 45 0
15 -57 -28 37 0
-63 -58 -15 -46 0
-24 -32 -56 -50 0
47 60 63 40 0
66 -15 -38 18 0
-20 -36 -28 -48 0
-10 5 -14 -25 0
-28 18 59 48 0
-33 18 47 10 0
26 -11 -1 -64 0
10 52 64 -38 0
-4 -66 26 -44 0
27 17 -31 -14 0
-44 43 -33 58 0
23 -31 -17 2 0
44 -37 70 56 0
16 -40 32 23 0
-69 -34 -2 -4 0
13 40 -3 35 0
-44 52 -49 -57 0
-10 65 -61 -31 0
13 -38 46 23 0
68 4 -41 15 0
-63 43 -54 69 0
29 46 -51 32 0
-22 -15 40 26 0
-10 56 -66 -2 0
-3 -46 68 54 0
38 -37 18 -61 0
-61 -63 -47 44 0
7 -57 -61 -28 0
-16 4 -6 57 0
-67 33 -57 -2 0
-44 -19 -36 -42 0
-12 -69 3 -6 0
-30 -20 -48 26 0
-24 -23 57 -1 0
31 -34 48 53 0
-8 -35 28 -15 0
-44 55 -32 63 0
-7 14 68 -20 0
-42 -8 -43 -51 0
-42 44 33 -30 0
-28 12 -13 -32 0
-39 66 26 28 0
18 -4 55 45 0
56 -51 -24 -13 0
-2 -19 -16 -45 0
56 68 -54 60 0
15 24 -23 -48 0
-3 -22 -33 -69 0
-13 10 57 -14 0
-28 11 46 -33 0
14 -46 34 50 0
-17 3 38 2 0
43 -36 -15 -11 0
67 -2 -32 -26 0
-12 -46 -69 48 0
26 29 -52 2 0
44 -5 47 62 0
56 -63 -21 16 0
57 -55 21 56 0
-32 -27 69 -36 0
-6 -29 3 21 0
-18 15 62 4 0
50 67 -15 24 0
52 43 -21 14 0
-41 -42 -62 15 0
62 38 -52 -42 0
-37 -36 -43 20 0
-10 67 -23 30 0
55 -24 -58 -26 0
-17 -42 -3 9 0
5 -30 -29 -11 0
-1 -66 -17 22 0
-50 -53 21 44 0
44 -7 -13 54 0
-2 9 -50 34 0
1 -39 -25 -42 0
51 -35 -47 2 0
-5 22 38 -15 0
69 25 -17 -62 0
29 -63 17 -32 0
32 -56 -27 -22 0
-33 52 -29 -19 0
-24 3 51 -6 0
43 21 -26 10 0
63 -35 53 -57 0
1 31 -5 -24 0
-17 26 -29 -55 0
59 19 40 -10 0
-50 56 66 53 0
61 36 -35 -3 0
40 25 -66 46 0
-49 -53 7 67 0
54 -46 3 60 0
1 69 28 12 0
24 -43 -4 30 0
-28 -64 -66 29 0
16 44 -22 34 0
27 -59 70 -29 0
26 -16 35 57 0
-37 51 -64 46 0
-69 -49 -6 -2 0
-27 32 -39 -37 0
-62 -8 31 -36 0
23 -45 56 -8 0
-4 50 66 2 0
58 30 40 -42 0
29 -30 26 49 0
61 -63 -62 37 0
54 40 -50 -36 0
-20 65 67 47 0
-6 -48 -65 -59 0
-67 -32 -37 -70 0
70 -5 -31 64 0
-15 49 -55 -57 0
69 51 -35 -20 0
-53 -23 67 -65 0
-35 -59 45 -61 0
-13 -3 45 -68 0
-70 -67 63 46 0
65 66 -36 61 0
-45 -35 -58 -43 0
5 43 44 19 0
33 -22 -48 -1 0
-27 -42 -62 -68 0
-55 16 -67 -45 0
-39 -70 -33 -3 0
-36 -70 -24 -16 0
7 -61 -18 29 0
-2 -67 -25 50 0
16 -42 -45 -31 0
-43 53 -26 -49 0
-64 9 -42 3 0
-11 -37 -15 -10 0
-34 37 66 26 0
-69 49 -24 47 0
68 49 -7 57 0
-20 66 -38 62 0
-1 -21 6 35 0
-26 -65 15 46 0
36 -10 26 60 0
-60 -17 -58 -39 0
42 -44 -17 -39 0
1 -17 34 -32 0
-58 -2 15 34 0
63 -43 18 5 0
12 67 33 27 0
-29 43 2 -32 0
32 -49 35 48 0
45 -38 -10 -12 0
20 -39 66 60 0
43 33 -48 67 0
2 -67 29 69 0
10 20 -58 48 0
48 59 -45 47 0
44 -15 24 50 0
66 41 31 28 0
4 9 12 61 0
-55 -65 40 68 0
54 39 -40 44 0
63 -43 49 42 0
4 -59 -33 -9 0
27 -22 -3 61 0
-49 -25 -20 16 0
65 38 -22 35 0
-58 -65 9 -37 0
-50 -1 -30 48 0
-26 -64 -66 69 0
-53 -3 56 41 0
-31 67 18 60 0
-28 42 35 47 0
-64 66 -12 -57 0
-59 50 22 2 0
65 -46 -31 30 0
-15 17 65 54 0
-18 60 -35 14 0
62 31 47 48 0
13 4 -18 -25 0
13 47 -12 16 0
-65 -50 37 -41 0
-52 16 -38 49 0
27 -60 -30 -52 0
19 -7 -15 52 0
-43 -1 -48 -55 0
-1 -5 39 -64 0
-35 44 -22 36 0
-29 -36 -4 -3 0
34 -56 -30 39 0
29 10 -26 57 0
-60 27 4 -21 0
-56 25 7 23 0
70 -60 -7 67 0
-64 -18 -29 -58 0
-3 33 9 -62 0
-41 55 -52 -59 0
-5 -34 -38 46 0
-45 -61 56 -47 0
-36 -64 66 -57 0
3 13 65 34 0
17 41 40 30 0
26 68 32 -61 0
46 -39 47 -65 0
50 -56 -6 -37 0
14 1 60 47 0
59 -64 68 36 0
3 -60 -48 55 0
42 -22 -56 -49 0
25 26 -61 -27 0
63 -52 -36 -48 0
-51 27 14 38 0
-13 25 41 -66 0
16 36 -20 -39 0
-31 -69 -35 55 0
55 10 -19 14 0
15 14 18 53 0
58 -55 33 25 0
-69 22 64 -24 0
36 35 -37 -42 0
-39 44 23 -32 0
27 -22 -5 -67 0
58 65 -69 -42 0
46 27 34 -67 0
6 14 61 -5 0
-46 -42 -16 -35 0
46 5 59 -35 0
-36 35 -32 -38 0
13 22 58 -11 0
-34 -36 -37 -24 0
12 25 -56 43 0
-50 43 39 51 0
50 47 -19 52 0
-12 -64 -19 -33 0
-11 18 16 54 0
60 -26 43 -32 0
15 46 5 -45 0
-54 -55 39 -50 0
-70 -3 -48 60 0
-67 -56 33 37 0
25 48 1 -11 0
-53 13 35 -39 0
19 -21 -26 -6 0
-26 -1 3 -25 0
-34 67 17 41 0
42 -20 -48 46 0
-27 4 -46 -5 0
15 -5 23 -40 0
61 -42 -60 33 0
15 -37 -58 30 0
-13 -52 7 -47 0
-55 49 34 -36 0
-29 -46 -56 61 0
-23 -2 -18 59 0
14 -61 25 -24 0
28 55 -10 36 0
68 66 24 40 0
62 -2 -34 33 0
23 19 -56 -27 0
64 14 57 5 0
29 -13 -43 46 0
-60 -33 34 -21 0
5 -38 56 64 0
62 -23 67 -48 0
-38 12 -6 28 0
38 54 -57 -53 0
37 -29 -64 54 0
-67 -12 7 10 0
-64 37 27 60 0
34 -31 -48 70 0
-49 -20 -31 -28 0
2 -64 61 -25 0
-19 11 49 -54 0
38 -7 -68 61 0
-43 46 29 -54 0
-62 13 -2 33 0
-37 7 20 36 0
69 -61 -39 -45 0
37 -69 3 67 0
-37 70 7 -30 0
-14 30 -49 -70 0
14 56 31 30 0
36 -38 -13 -25 0
69 24 11 -13 0
-31 26 -68 49 0
-8 -24 -35 6 0
-8 -61 -62 -48 0
9 -53 24 49 0
-10 11 -69 -3 0
21 -65 -55 16 0
5 -64 25 57 0
54 20 48 -26 0
-60 51 23 -55 0
37 34 35 42 0
-3 -55 -12 -44 0
3 -68 60 46 0
-62 23 -29 61 0
50 -16 5 15 0
56 -7 -28 3 0
-43 70 -69 -60 0
-12 52 21 -8 0
-38 28 -49 55 0
10 24 17 43 0
1 -10 35 33 0
-31 -61 38 59 0
-66 37 68 46 0
-1 33 2 -41 0
-8 -5 -3 24 0
61 43 37 50 0
5 56 -66 -14 0
67 -5 68 2 0
23 -21 -56 25 0
-48 9 58 -70 0
69 2 55 65 0
-64 -24 -20 -3 0
-33 -43 15 -69 0
4 66 7 42 0
57 40 41 7 0
-37 -58 21 -22 0
24 -41 23 -17 0
1 52 -9 -32 0
54 -26 -56 12 0
-70 41 29 18 0
-67 -39 61 -59 0
40 -6 -47 -61 0
-55 35 -18 -65 0
-69 -68 -35 -1 0
16 -33 23 19 0
-49 -66 -21 22 0
-33 -3 -65 17 0
10 16 -70 67 0
-21 58 -52 42 0
-70 -29 -6 14 0
-2 -14 4 -10 0
-14 69 -37 4 0
-31 7 11 66 0
37 -36 -56 -20 0
-6 53 43 28 0
-57 -3 -48 50 0
7 -70 67 -37 0
-33 -38 -34 -25 0
-67 -18 14 48 0
-34 50 -55 -9 0
-54 42 41 -51 0
-30 -10 -67 29 0
-55 58 -14 53 0
7 9 -6 52 0
7 -39 -8 18 0
-15 23 -35 19 0
-56 46 69 -67 0
31 66 -25 11 0
-33 2 17 -12 0
48 12 -34 -52 0
-58 -6 -21 14 0
45 30 -10 12 0
18 -20 -7 37 0
-7 -33 55 66 0
6 60 14 35 0
12 19 39 -8 0
28 -70 -32 -53 0
-7 21 -19 -59 0
-7 -39 24 -67 0
-25 49 -50 58 0
-4 -28 -5 48 0
45 -37 -27 -43 0
-62 -55 -11 58 0
-33 13 37 -57 0
-18 31 8 -54 0
24 -53 -31 4 0
-59 57 -12 61 0
-52 18 -22 57 0
24 -37 44 19 0
30 -5 59 -66 0
-41 27 51 -61 0
-48 26 -59 -52 0
-5 -37 36 38 0
-48 68 37 -24 0
63 -16 -19 -8 0
11 26 9 62 0
49 -24 -46 -10 0
18 47 -55 34 0
-6 -17 26 -1 0
-46 -31 6 -33 0
-9 -31 -10 25 0
67 24 -23 9 0
-14 53 12 27 0
26 13 -19 -7 0
-7 26 19 10 0
-54 38 50 -1 0
70 -21 32 -50 0
13 54 -21 -67 0
-4 38 56 8 0
-32 58 42 19 0
-24 -36 53 21 0
-15 -20 -63 55 0
51 70 68 7 0
-50 43 -37 45 0
27 -46 42 -35 0
-48 -16 58 -22 0
-47 21 10 -44 0
19 22 -57 47 0
-63 25 -13 -32 0
-1 -60 -48 65 0
46 20 38 41 0
37 -35 64 11 0
40 8 36 -23 0
-4 -32 -22 -54 0
62 18 -20 10 0
18 61 14 50 0
15 -26 -31 35 0
-13 -62 -59 -56 0
2 -60 -5 -3 0
-68 59 -69 58 0
-25 37 39 -49 0
-52 67 -60 13 0
-45 48 36 69 0
-58 33 36 5 0
57 45 19 27 0
45 -19 60 -55 0
7 15 -20 6 0
-26 62 -70 24 0
-20 5 -37 40 0
29 3 -36 39 0
64 -19 -28 -58 0
-35 70 -45 25 0
41 -59 54 -62 0
47 18 50 -53 0
-45 1 25 -28 0
-61 63 28 -24 0
63 35 1 23 0
-21 -23 64 24 0
-51 49 27 -59 0
-17 19 49 -7 0
64 -57 -62 28 0
-68 -24 50 39 0
