c family=4-SAT n=70 instance=3 seed=726001144 models=35
c order 27 19 55 37 59 3 49 66 53 67 26 5 1 65 38 22 33 58 64 10 18 41 52 23 42 48 47 30 54 21 29 8 35 70 44 43 15 39 36 16 69 2 61 57 32 20 25 24 6 17 68 31 28 14 62 50 45 11 40 34 60 4 51 56 63 12 7 13 9 46
c order 64 16 42 44 55 34 51 63 23 47 2 48 35 62 46 15 13 31 56 70 27 61 57 50 21 3 14 7 17 36 67 65 12 69 59 9 52 8 24 22 1 4 68 29 10 43 11 41 53 25 28 54 6 37 45 5 38 58 18 49 60 66 26 19 20 39 32 33 30 40
c order 48 39 21 58 2 38 47 6 3 8 17 54 55 61 50 9 40 1 10 36 45 60 26 69 56 53 13 7 44 18 30 37 11 51 62 34 4 63 23 29 52 66 25 68 15 70 5 32 22 33 35 46 16 59 64 41 27 43 31 49 19 28 14 24 65 42 12 57 20 67
c order 11 66 67 27 38 47 62 34 42 36 46 55 28 69 45 51 16 26 8 25 56 63 29 44 33 40 13 9 43 58 52 70 65 17 12 30 32 14 24 3 41 49 6 68 21 1 39 37 7 15 57 61 35 20 10 54 22 5 4 18 23 48 64 53 19 50 2 31 59 60
c order 2 65 28 29 67 53 41 52 12 69 13 1 34 7 26 10 30 5 6 39 4 70 20 16 18 55 64 3 25 62 32 27 37 17 22 48 14 61 35 31 63 42 51 33 57 68 66 43 38 19 58 46 15 50 44 45 49 36 54 8 11 40 24 59 9 23 21 47 56 60
c order 29 41 3 67 63 18 59 31 14 65 25 62 13 8 66 39 44 52 22 70 38 17 56 58 43 55 60 16 35 37 47 19 32 50 7 27 28 48 49 34 53 64 9 2 1 40 57 36 61 33 4 45 30 6 23 5 15 12 10 69 46 20 51 68 24 21 42 26 54 11
c order 35 25 21 66 60 58 30 50 70 37 34 1 3 44 41 49 22 39 46 27 59 16 2 9 38 48 47 18 12 28 61 31 5 43 65 23 13 67 69 8 53 52 64 7 56 14 11 54 26 20 29 63 55 33 10 45 36 6 15 19 51 57 4 62 42 32 40 17 68 24
c order 3 2 70 23 48 63 59 35 43 54 1 30 67 36 32 50 51 64 65 44 28 20 11 69 66 10 21 49 39 18 5 41 56 45 17 57 16 22 55 4 33 34 31 12 58 14 9 37 25 60 19 8 42 62 61 46 53 15 40 26 52 7 38 29 24 13 27 68 6 47
c order 20 27 24 48 40 43 31 29 9 19 22 64 36 7 56 58 63 34 54 12 30 10 46 3 49 17 6 44 62 47 15 51 57 50 69 35 39 1 60 41 8 67 2 26 38 5 66 32 14 16 28 37 70 68 61 53 59 25 45 21 18 52 33 65 4 55 11 42 23 13
c order 25 21 57 28 67 37 17 64 27 55 16 63 41 47 7 23 8 15 39 1 50 6 51 19 33 44 20 54 10 40 59 14 66 5 70 9 29 4 12 24 38 60 35 53 61 42 43 18 11 26 36 45 13 2 65 56 62 69 22 52 58 32 30 48 68 49 34 3 46 31
p cnf 70 672
-42 55 -54 13 0
-14 -31 -22 11 0
35 69 -42 -28 0
3 1 -68 51 0
-45 -67 28 -11 0
19 -32 -25 62 0
34 -6 -33 54 0
-70 -14 -40 -65 0
-9 -6 -24 26 0
-63 1 -15 -22 0
-69 -29 31 51 0
-55 54 -1 -66 0
16 -63 -29 -27 0
-1 17 32 6 0
-41 25 -28 -10 0
-8 -11 -21 -55 0
-57 4 -47 49 0
-25 31 53 -7 0
6 -18 -33 54 0
-64 -17 -19 52 0
11 14 26 -32 0
21 -39 -5 -36 0
5 27 45 -60 0
8 29 -2 -33 0
58 -65 25 56 0
18 -4 7 -42 0
-7 -23 -60 -37 0
-18 -35 57 6 0
-18 -51 -43 38 0
29 -28 42 -16 0
70 -49 -31 -45 0
-6 -26 -53 -12 0
-35 48 65 43 0
68 -7 -31 20 0
10 62 -34 67 0
-25 26 -67 8 0
8 -24 -58 -29 0
46 -20 29 -68 0
-34 -59 27 -35 0
-18 37 65 23 0
-11 32 69 8 0
30 -49 66 -65 0
53 9 34 -14 0
-33 11 6 -30 0
-16 -32 35 -68 0
-67 -57 -60 13 0
64 -3 -61 30 0
-12 -48 51 61 0
-62 -63 -12 6 0
-47 16 39 10 0
-29 -63 13 35 0
22 -12 24 -69 0
-39 14 -26 -45 0
-28 16 52 -29 0
-45 -67 -5 -40 0
-15 -27 55 -14 0
54 43 60 -48 0
-40 -54 -17 -18 0
-24 -36 -60 -42 0
-60 -14 -11 48 0
1 -23 58 -68 0
26 23 -40 -11 0
-33 23 52 37 0
39 50 15 21 0
-66 -8 20 29 0
-14 58 5 -52 0
34 61 -44 19 0
34 50 2 -16 0
51 -66 -22 36 0
50 46 -40 -21 0
64 68 -23 55 0
56 58 -32 -18 0
-43 -59 -29 -69 0
-31 -27 59 -64 0
-8 -30 50 39 0
15 18 -10 -70 0
-47 40 68 -33 0
56 63 -70 17 0
-25 -21 41 -26 0
-31 -35 36 49 0
-40 -41 -9 58 0
21 -27 3 -57 0
-45 -34 -36 -5 0
10 -43 70 -14 0
7 3 -18 -46 0
11 -14 68 29 0
-6 -58 -5 50 0
-57 -39 -66 -40 0
28 43 68 27 0
52 61 57 23 0
3 10 13 -63 0
32 -6 -42 51 0
-48 -3 -47 -31 0
-11 -34 40 -21 0
53 -12 34 24 0
2 57 -34 21 0
68 -59 63 -65 0
-7 -5 11 26 0
-33 43 -23 46 0
38 -27 -51 -52 0
8 -38 36 -45 0
-22 -18 62 56 0
39 60 24 66 0
43 -62 55 -69 0
-12 -69 28 7 0
-28 -69 27 -36 0
-40 -66 38 -58 0
28 69 -50 8 0
-32 -2 -9 58 0
31 51 -7 26 0
-34 -52 47 -62 0
-25 30 -60 21 0
9 5 -32 68 0
60 -70 45 51 0
11 57 14 -35 0
-64 12 -19 -38 0
22 -23 -33 -48 0
-27 62 52 31 0
-30 -51 -41 -57 0
11 -42 27 26 0
11 -64 -10 68 0
-50 -61 39 2 0
32 24 -49 29 0
-32 -28 -7 15 0
-51 -59 9 10 0
58 -21 14 53 0
-7 9 -11 48 0
-55 -51 15 41 0
-20 -53 13 -49 0
18 -10 -63 -59 0
-7 -45 -41 -59 0
42 20 60 -47 0
-28 51 -17 37 0
32 -48 15 52 0
13 51 -35 46 0
-62 26 -19 22 0
-40 -58 2 60 0
-47 27 46 -48 0
-14 46 -28 -41 0
14 27 -68 -67 0
-59 37 33 17 0
50 -36 -34 47 0
-41 -49 4 -48 0
4 15 56 60 0
38 68 -8 48 0
-35 -17 25 16 0
56 16 41 57 0
-17 -63 5 22 0
-63 -48 59 -58 0
37 24 45 51 0
-62 -37 -36 66 0
-4 -49 -30 3 0
62 -52 -66 40 0
-55 68 -27 -19 0
68 61 15 -57 0
-62 6 20 63 0
8 50 49 56 0
29 12 -51 -48 0
-32 -51 -67 68 0
24 -37 -1 67 0
-10 56 55 -45 0
-47 -69 49 -17 0
43 20 -5 -41 0
-52 27 -53 -57 0
-42 43 -56 40 0
-6 -18 1 46 0
24 -39 -49 -33 0
46 -54 47 15 0
-17 18 -40 -32 0
-12 41 -25 -21 0
4 -21 -22 -69 0
-42 -32 -58 -1 0
-10 -58 54 -8 0
-40 -39 48 -44 0
56 -29 -48 21 0
-25 -38 64 -36 0
-29 -70 -33 32 0
50 59 -51 -14 0
-43 -18 41 9 0
12 -23 -44 -55 0
4 64 66 38 0
-42 -1 8 -12 0
4 -45 -70 -57 0
8 26 -60 23 0
24 66 -69 8 0
-38 -24 -53 -59 0
42 44 57 -3 0
31 1 -28 5 0
-37 3 -18 -52 0
-26 -3 50 38 0
66 12 -25 45 0
15 52 23 19 0
-20 22 57 -13 0
24 26 48 -12 0
22 -25 -16 -42 0
-70 -36 -68 -60 0
-30 -61 23 1 0
-38 -36 46 68 0
-39 53 -1 36 0
-18 -64 32 -10 0
-6 -54 36 17 0
-3 -26 13 -22 0
-14 31 49 13 0
-6 5 28 -27 0
-45 36 -30 66 0
67 34 -29 -9 0
-3 4 50 42 0
43 34 -22 6 0
12 14 -44 51 0
53 -11 -27 -69 0
-52 -62 70 -55 0
-32 -70 -16 38 0
-60 -24 23 -22 0
34 65 -35 -69 0
-13 -52 12 14 0
-65 -41 9 1 0
7 -61 -25 -33 0
-51 -47 69 -15 0
-60 -10 -69 33 0
-49 34 17 57 0
-66 -33 26 15 0
61 -14 3 52 0
6 -19 43 66 0
33 -21 -50 -45 0
10 -26 -47 40 0
-18 43 -38 -28 0
58 -59 -41 -1 0
-19 -67 -11 3 0
70 -29 -10 23 0
63 27 59 -19 0
61 46 39 17 0
-56 60 -65 46 0
-17 53 3 -7 0
60 30 -66 64 0
70 13 24 -32 0
-21 42 -15 -52 0
60 -30 -46 -36 0
-17 -62 -45 67 0
-10 -6 -16 26 0
19 -60 -30 55 0
-3 53 -32 40 0
15 19 48 49 0
39 43 31 57 0
-22 -23 52 -49 0
38 49 66 23 0
-10 21 33 -24 0
70 45 -16 -11 0
37 -64 6 -53 0
29 -18 -15 68 0
41 24 56 52 0
60 57 17 15 0
-23 11 2 20 0
41 15 -63 31 0
-3 52 50 -58 0
16 27 1 36 0
-41 -28 34 35 0
-54 33 53 49 0
36 -68 -70 56 0
9 -58 64 56 0
47 -43 -15 -67 0
7 -46 5 -14 0
-56 25 -43 26 0
-27 -62 -69 15 0
20 -49 53 -5 0
-25 -22 -55 -53 0
34 -53 41 19 0
31 -67 -40 37 0
35 -9 51 13 0
-42 38 -12 20 0
68 52 -54 30 0
-35 40 58 -64 0
13 -10 65 5 0
-60 -54 29 7 0
31 -43 -32 9 0
-1 -47 -63 -44 0
46 24 -43 -26 0
61 -60 23 52 0
-23 -32 -29 51 0
-70 -52 -68 45 0
-19 29 14 -2 0
-24 -26 -63 23 0
8 18 32 64 0
-58 8 35 -68 0
69 -33 -55 -14 0
35 59 -56 24 0
-33 41 -57 -50 0
-53 27 -20 59 0
65 45 -42 37 0
15 20 49 61 0
-7 -16 19 38 0
-58 41 -25 -6 0
67 -61 22 21 0
-70 -44 42 66 0
-15 54 -65 69 0
-48 -50 25 -33 0
39 -42 58 -23 0
62 -64 11 -32 0
8 10 3 -63 0
62 -68 -10 44 0
27 36 -35 46 0
-54 -19 -39 -23 0
50 -4 10 -62 0
-60 67 64 -46 0
14 9 35 -45 0
8 -33 -57 37 0
11 -1 -34 2 0
58 45 46 -13 0
15 42 -44 -7 0
68 21 65 -6 0
-63 5 -13 44 0
64 23 -43 -26 0
-60 -20 68 17 0
6 8 -41 39 0
57 55 44 -70 0
-62 70 53 4 0
-53 7 4 44 0
1 54 -42 29 0
-31 34 -33 -52 0
28 -46 -67 16 0
8 67 45 57 0
64 39 -41 61 0
-5 12 55 7 0
70 29 26 -35 0
-58 50 21 -61 0
36 -70 -39 57 0
7 -51 24 -56 0
47 -36 24 9 0
-59 -45 52 -25 0
55 -59 -28 -48 0
-26 40 30 15 0
13 -22 10 -3 0
44 -66 70 5 0
-52 21 -66 -41 0
-51 -37 20 -23 0
63 49 -22 -11 0
-31 -16 20 55 0
-44 49 26 20 0
-9 13 -6 -31 0
10 -19 -1 3 0
-13 -49 62 47 0
-14 4 -36 30 0
-41 18 68 -49 0
-58 -42 -63 -48 0
-59 46 -12 31 0
-20 -54 9 -53 0
-48 28 51 54 0
-5 -40 -7 66 0
2 -12 13 -52 0
-67 12 -43 -59 0
-20 -36 7 22 0
33 -2 -8 -25 0
-61 41 -6 -1 0
-46 9 -40 58 0
-62 -20 44 58 0
-20 -23 -30 -3 0
21 24 -15 14 0
30 19 -9 -39 0
-40 44 -10 -27 0
-7 -22 69 66 0
-6 2 4 -38 0
-10 -30 -46 -67 0
7 14 -56 69 0
59 10 -53 22 0
46 -34 31 32 0
41 -24 14 51 0
-18 -65 6 44 0
-52 -29 8 -43 0
31 11 -58 -3 0
-27 -22 47 -62 0
-26 -27 59 -8 0
-59 -22 -9 32 0
27 61 59 33 0
-8 42 19 -50 0
-52 39 20 -65 0
45 10 -29 64 0
10 42 -46 24 0
29 -13 58 8 0
70 38 -55 33 0
-22 -5 -35 65 0
35 -39 -9 -55 0
46 -27 19 6 0
55 24 -9 15 0
5 -27 -15 -23 0
59 -26 -58 8 0
27 -52 7 58 0
-64 42 54 -60 0
50 51 -41 -27 0
18 25 59 -5 0
12 62 15 -7 0
5 -39 20 -6 0
-13 -24 35 -55 0
32 -12 -52 34 0
-36 -62 -54 47 0
-58 -26 68 33 0
-40 21 -66 -37 0
-7 18 17 -14 0
37 3 9 -43 0
-52 -61 8 -50 0
-43 42 14 55 0
15 50 13 8 0
-66 -22 53 -25 0
31 -57 -50 -70 0
-43 -8 -52 26 0
-40 12 55 53 0
57 -21 62 46 0
5 -69 -2 -36 0
-8 16 47 21 0
1 45 21 -57 0
10 -70 -13 -3 0
8 -1 -25 29 0
-66 51 67 39 0
-13 17 66 -27 0
-37 -4 14 -17 0
23 11 -35 -14 0
-18 55 -21 -60 0
7 24 20 64 0
55 -24 41 -21 0
-60 -19 15 -36 0
-65 32 59 45 0
44 46 -66 33 0
53 -59 9 13 0
7 -45 -50 -10 0
-5 33 -61 -6 0
36 -33 -32 44 0
51 45 61 47 0
11 3 46 -18 0
-10 -33 11 14 0
25 41 30 31 0
6 3 4 45 0
2 70 -31 -23 0
6 7 14 18 0
-3 40 -60 19 0
-59 63 37 50 0
-16 31 -18 -50 0
-15 53 60 -34 0
-30 -69 -26 -23 0
-67 26 -49 69 0
4 50 44 39 0
-61 -28 4 -58 0
50 57 29 -5 0
-54 70 -42 15 0
27 -16 50 7 0
50 20 51 10 0
-1 -35 -21 50 0
38 14 21 -60 0
-67 1 28 -8 0
-31 -40 -45 -68 0
-49 -48 -37 -61 0
-41 59 24 -19 0
62 24 51 31 0
-16 -10 -4 51 0
49 14 -35 3 0
34 58 23 -42 0
15 -4 34 -61 0
-11 -66 -50 47 0
50 37 9 26 0
11 61 68 -65 0
44 -70 68 63 0
52 -36 16 14 0
-56 -18 34 54 0
-1 18 -47 -27 0
-30 -41 -59 -24 0
54 63 -5 -64 0
40 -31 -21 -53 0
-22 51 -47 -10 0
-61 51 34 -7 0
-69 -46 15 37 0
51 19 31 -1 0
15 2 -64 19 0
59 16 36 14 0
20 17 24 -4 0
-10 4 12 -27 0
-22 -53 51 -29 0
57 -10 -17 19 0
27 40 -20 61 0
4 32 58 47 0
60 49 1 -44 0
12 45 -49 -1 0
29 62 49 -33 0
-60 -20 46 -59 0
-49 -67 38 -58 0
-16 -59 69 22 0
57 -27 33 4 0
-62 -67 38 24 0
-22 -33 65 32 0
17 14 61 65 0
-18 -44 41 -61 0
-37 -61 30 -28 0
42 5 -14 -20 0
69 33 -25 13 0
-60 -27 -32 -34 0
-8 -32 54 -2 0
1 -53 -45 -30 0
65 16 55 45 0
8 -54 70 43 0
-60 -46 42 -62 0
51 -68 5 12 0
50 -41 -27 8 0
9 -13 62 20 0
45 25 14 -16 0
21 -7 57 3 0
-29 -55 -69 46 0
-70 -67 37 -5 0
14 -2 -52 -20 0
-18 -32 1 22 0
-41 -44 -60 -1 0
52 -42 13 -16 0
19 -29 -39 -25 0
-58 -51 5 59 0
53 -31 52 -8 0
54 31 50 -61 0
54 60 53 -19 0
47 45 -14 -15 0
-37 50 3 58 0
-33 41 37 -2 0
-7 63 35 -9 0
47 17 -57 -70 0
16 -5 -51 35 0
-40 10 59 -66 0
-21 10 -12 19 0
-18 63 11 -12 0
19 37 -36 24 0
-26 -6 -14 15 0
70 68 51 33 0
58 18 15 28 0
-53 -22 63 -42 0
45 -11 7 -26 0
60 -17 -45 -25 0
-4 6 57 -38 0
-52 -60 33 -4 0
-12 -25 -52 -23 0
49 8 67 58 0
33 -51 -11 -57 0
14 -69 -36 51 0
6 36 -57 24 0
57 -37 14 69 0
-58 69 20 52 0
24 -9 -4 21 0
60 -27 6 64 0
53 -28 -52 -56 0
11 22 -57 8 0
-42 -9 47 -13 0
16 58 50 -20 0
-56 42 5 55 0
-47 24 -15 -12 0
61 -34 -5 -37 0
57 -48 -12 68 0
6 -20 -17 41 0
62 -52 -64 -20 0
6 -44 57 -43 0
-15 20 -46 49 0
45 34 27 -30 0
-34 -6 -59 -58 0
5 -34 -49 63 0
-51 -58 69 36 0
-13 34 31 -42 0
2 -18 -51 -49 0
-17 41 26 -34 0
-14 -26 4 20 0
30 -18 -62 54 0
-67 -60 -39 -70 0
52 -26 -20 -35 0
5 -38 20 52 0
4 -43 31 48 0
-29 67 35 -50 0
-47 40 25 34 0
17 -59 31 -32 0
42 -58 9 -46 0
11 64 70 2 0
-31 -57 -15 60 0
23 -34 24 -59 0
45 -28 -25 65 0
-58 61 50 67 0
21 -64 44 -51 0
66 -15 57 42 0
-50 41 65 -70 0
28 -33 -2 64 0
-51 22 29 -50 0
-40 33 -63 -44 0
-15 -44 -34 -68 0
40 46 3 -61 0
-66 -41 27 19 0
50 -56 8 -59 0
14 -23 7 49 0
61 -19 -54 -17 0
24 2 68 23 0
56 29 -11 -18 0
-9 -15 -45 41 0
-13 -54 68 -29 0
-11 -47 20 -8 0
-52 63 -51 -30 0
8 -14 -32 22 0
-40 3 -36 68 0
-24 -32 3 -44 0
43 -34 9 -52 0
-12 -28 57 62 0
31 -1 -46 -35 0
23 -46 1 -64 0
22 10 14 -65 0
-12 41 7 -36 0
-43 -62 -28 -61 0
-51 57 -39 -34 0
49 -68 -14 55 0
-48 36 -44 -57 0
4 37 22 7 0
69 61 -48 -65 0
51 -19 69 -44 0
11 -46 -36 69 0
8 -19 -69 -63 0
-1 42 -23 54 0
-34 4 44 -55 0
15 28 69 52 0
42 17 -54 -47 0
-3 5 30 17 0
35 -60 -8 49 0
64 24 63 -25 0
-48 -57 23 -14 0
58 54 -52 24 0
30 -63 -38 59 0
-46 8 34 57 0
43 39 25 49 0
-47 6 -30 43 0
-10 -62 46 5 0
-62 -2 33 -15 0
28 -39 -41 -20 0
-19 68 2 -21 0
4 22 36 32 0
33 -47 70 68 0
25 39 -21 -55 0
-26 17 64 -13 0
41 6 -36 44 0
20 -50 -41 27 0
-4 -45 18 -29 0
42 -7 2 44 0
-43 64 -27 30 0
45 15 -9 22 0
-41 -9 -50 -65 0
-20 52 -8 25 0
16 -68 20 21 0
60 68 -46 69 0
-22 -36 -5 9 0
-22 -3 -18 56 0
-31 57 36 -2 0
-9 -68 -59 13 0
42 69 -22 31 0
15 -7 22 63 0
-67 -70 -20 -19 0
-16 -28 -22 -66 0
-5 -18 -2 13 0
58 -42 -21 -1 0
-20 -47 -11 -5 0
64 -20 -2 -33 0
42 -8 -3 58 0
64 52 7 -9 0
61 46 -33 -69 0
-66 -41 -9 64 0
-9 25 -24 -28 0
43 44 28 8 0
29 -61 51 -24 0
42 40 9 -11 0
-6 29 17 9 0
43 -14 52 34 0
-12 55 19 41 0
-5 -51 7 43 0
4 -55 50 -60 0
51 7 -44 46 0
-41 -52 -6 -60 0
-2 -8 40 -29 0
62 -50 -52 40 0
55 19 43 18 0
-39 29 14 -61 0
-64 -39 70 -66 0
