c family=4-SAT n=70 instance=8 seed=726001144 models=33
c order 17 5 25 7 23 49 47 28 32 66 58 18 55 38 1 57 26 60 65 9 52 50 8 42 22 37 4 59 56 68 70 31 51 21 11 63 54 19 48 34 61 10 53 29 40 43 14 15 16 20 39 36 64 41 46 30 24 2 62 27 45 12 33 69 13 3 67 35 6 44
c order 33 69 62 26 32 34 11 15 19 22 28 60 5 23 14 53 4 21 47 41 9 43 52 39 46 36 12 65 66 25 44 50 59 24 61 54 55 57 48 16 56 29 37 31 35 1 49 13 20 51 7 64 63 27 30 67 38 45 8 18 68 40 70 42 6 3 2 58 10 17
c order 68 26 36 27 32 41 50 29 30 57 2 31 19 35 25 34 1 43 17 5 47 16 54 23 24 49 4 28 62 15 18 64 53 65 51 59 70 10 12 6 40 52 60 33 3 42 56 8 66 20 39 13 55 58 22 61 63 46 48 38 37 9 7 69 21 11 45 67 44 14
c order 50 26 62 56 17 55 44 20 5 54 35 8 64 43 46 47 66 70 38 53 21 34 9 19 63 67 15 10 24 14 41 13 29 60 28 57 37 11 2 1 48 7 61 36 18 16 31 30 52 25 22 39 49 45 42 27 59 33 51 32 3 4 12 23 69 6 65 58 68 40
c order 29 4 14 19 31 68 69 63 22 62 28 47 41 61 35 58 59 17 42 45 43 70 40 33 13 26 3 67 53 23 34 15 55 66 10 54 49 51 11 7 65 57 18 56 39 20 36 46 16 30 38 5 48 1 8 50 37 2 12 27 6 25 32 44 60 64 9 24 52 21
c order 19 44 57 30 29 45 21 51 17 12 1 47 11 60 65 9 64 20 53 39 32 36 59 70 26 5 69 24 2 63 49 54 46 16 34 56 10 28 62 55 40 61 52 3 35 41 33 27 8 15 42 14 31 13 68 7 67 18 23 37 50 66 58 38 25 6 48 4 43 22
c order 4 56 14 13 1 15 44 38 7 62 35 5 70 6 2 33 26 43 45 39 67 68 46 57 47 65 27 19 30 50 51 23 16 49 37 66 25 42 8 48 18 9 22 52 60 58 53 36 55 34 54 63 12 41 11 20 28 21 59 64 17 31 40 61 3 32 10 24 29 69
c order 51 18 43 15 29 62 64 61 48 44 31 60 56 49 37 52 63 20 3 16 70 23 69 24 6 41 47 2 28 46 39 42 7 50 45 26 30 5 1 58 38 25 13 57 22 34 4 36 65 53 11 54 19 67 8 21 10 17 27 12 9 32 14 59 35 55 68 33 66 40
c order 36 21 31 61 10 42 50 56 51 33 53 5 32 64 13 20 57 43 35 54 27 4 38 26 18 6 67 39 22 19 49 1 52 30 70 44 62 14 29 28 48 17 8 45 34 7 59 11 68 63 37 47 16 23 55 40 25 66 15 9 41 2 24 65 58 60 3 12 69 46
c order 11 41 24 44 46 19 70 13 50 7 48 32 64 6 38 61 16 45 49 12 42 60 8 30 5 63 65 4 55 66 10 34 67 36 39 18 21 68 9 37 54 51 20 3 15 26 2 52 29 1 47 25 40 22 59 14 17 31 69 23 56 57 62 27 33 53 58 43 35 28
p cnf 70 672
26 32 33 -42 0
54 16 43 65 0
-19 -28 37 -45 0
55 -13 6 -60 0
-6 -4 -11 -67 0
-59 22 37 -18 0
19 -2 -35 47 0
-33 50 11 55 0
-38 66 31 -45 0
45 1 62 59 0
57 38 24 -43 0
36 16 21 -24 0
16 36 -33 48 0
48 1 -12 17 0
41 -62 -65 -3 0
-2 -4 54 -30 0
-25 17 16 -14 0
27 70 12 58 0
51 -18 34 -66 0
-40 69 -27 -53 0
32 -1 4 12 0
37 27 -34 -44 0
33 -38 63 9 0
69 -64 -21 20 0
-38 55 58 33 0
-44 -46 40 -61 0
-47 -60 6 -51 0
24 -19 30 -17 0
48 26 -37 23 0
64 -30 -41 36 0
-61 34 6 69 0
15 45 27 20 0
47 -52 29 -38 0
21 48 34 -18 0
-48 -32 -44 36 0
38 -45 -26 -44 0
11 -58 -16 15 0
-30 3 -34 36 0
-16 44 -36 32 0
66 5 67 -14 0
13 -33 17 -1 0
-38 -23 54 -29 0
63 7 10 -59 0
-20 29 -63 -49 0
-3 60 59 13 0
41 33 -1 14 0
9 33 -36 -51 0
-24 -55 19 -39 0
-4 -58 39 -30 0
4 52 5 -50 0
15 -34 -65 -67 0
-42 -55 -49 44 0
-27 -17 58 -68 0
26 37 -3 68 0
-15 -14 60 -48 0
62 -22 -58 68 0
2 -16 62 61 0
10 -1 -65 34 0
-37 -32 -28 35 0
-61 33 -36 -23 0
-61 28 -45 42 0
38 37 19 48 0
-27 -57 -65 43 0
-68 -67 -15 42 0
55 -64 58 -60 0
30 -67 34 52 0
44 -5 -19 -14 0
-65 -37 -22 30 0
-15 -27 48 28 0
-23 -62 63 -4 0
14 -66 -54 10 0
70 -53 56 -19 0
-7 48 -15 3 0
-5 -28 -67 -69 0
-55 -42 -18 3 0
-44 -19 -20 -70 0
-58 18 4 -61 0
-16 -9 62 -47 0
23 7 27 36 0
-24 36 -47 -31 0
41 50 -20 -58 0
66 -33 -55 -25 0
-53 -17 9 50 0
-39 -24 -38 -57 0
-3 -14 -37 -2 0
6 57 70 61 0
36 38 53 -6 0
-57 52 14 -42 0
42 -64 44 -39 0
-46 50 3 59 0
6 11 45 50 0
40 7 24 -12 0
12 -37 -63 56 0
-44 -63 30 22 0
-12 48 34 30 0
-42 -34 -15 -1 0
-5 53 -40 20 0
-52 -21 28 53 0
-56 12 -22 65 0
-53 23 -37 54 0
-16 -62 35 -39 0
-26 -16 25 52 0
-40 -68 31 20 0
70 -25 66 12 0
30 14 17 37 0
-21 -41 18 -49 0
16 15 35 65 0
-37 48 19 52 0
-31 24 -16 41 0
-17 -54 41 19 0
2 50 -7 54 0
9 -50 51 -29 0
-3 -12 23 -14 0
-13 -68 36 38 0
-7 -32 37 47 0
14 61 33 47 0
36 -29 -17 -54 0
27 46 68 -25 0
-16 15 -12 53 0
-36 -48 -62 39 0
3 -37 16 33 0
64 39 8 16 0
-54 28 -30 67 0
10 -43 -2 68 0
-32 -42 -39 -52 0
-62 -70 68 -3 0
-62 40 45 16 0
14 16 -32 -44 0
67 -54 14 9 0
54 1 -25 -47 0
44 -54 -21 42 0
7 -47 5 20 0
-10 50 14 34 0
51 27 44 -7 0
6 -23 -55 -5 0
54 17 -56 -32 0
-10 -29 -57 -59 0
50 52 7 -36 0
38 -35 -58 -44 0
-5 -31 -35 66 0
57 -3 48 -6 0
66 63 53 57 0
-51 57 9 -63 0
-6 -69 -35 -39 0
19 41 53 -32 0
2 -62 14 -45 0
-7 30 -53 61 0
-6 20 -47 38 0
-9 -8 -56 23 0
-49 -53 -44 11 0
-15 -29 -22 -33 0
-50 -13 -46 -55 0
-45 -8 -27 5 0
29 11 -37 -68 0
32 61 2 -52 0
3 44 -11 -41 0
56 65 -70 40 0
23 61 64 15 0
-3 41 52 -5 0
28 27 -33 -54 0
-55 -27 70 66 0
64 31 42 17 0
22 11 47 -27 0
50 -33 -42 -21 0
16 -60 39 27 0
-53 23 -18 -63 0
-2 22 -35 -11 0
66 -18 59 49 0
-45 13 42 -39 0
-59 65 -31 49 0
18 -68 -64 -63 0
-21 -48 63 36 0
-67 -31 2 10 0
-59 -14 -34 12 0
-22 -36 -48 -13 0
16 68 50 54 0
-58 -52 -48 -26 0
-17 -42 45 -33 0
63 -58 -64 -47 0
61 49 -5 47 0
8 -23 33 -1 0
-3 6 21 38 0
38 -55 -11 -32 0
-2 30 34 66 0
45 -4 -53 61 0
-41 -40 50 -47 0
6 -28 14 -53 0
-15 39 19 49 0
-54 18 49 -42 0
-22 -35 -13 59 0
-22 57 -65 9 0
32 -8 39 -35 0
-47 -34 30 65 0
56 50 -59 -51 0
41 -20 -1 -13 0
-59 68 33 -54 0
70 -39 -32 -9 0
17 -36 29 35 0
57 24 53 -43 0
15 -56 -25 6 0
37 -60 6 -25 0
33 -44 -43 42 0
-59 65 -20 -47 0
1 19 -21 -64 0
41 -43 -48 56 0
-32 8 19 -6 0
41 -8 24 -25 0
-27 34 29 -2 0
22 15 -51 43 0
-2 -28 30 24 0
-59 33 -62 68 0
-38 -62 2 -28 0
-15 7 -17 -30 0
2 62 -29 -36 0
-61 -69 -43 66 0
59 8 13 54 0
32 -40 66 34 0
-41 -25 -47 13 0
20 60 -1 53 0
4 24 40 -36 0
3 16 36 11 0
57 -6 37 -59 0
-12 39 -47 -68 0
9 42 63 -61 0
9 52 31 -15 0
18 42 23 39 0
67 -28 -32 -5 0
69 -41 43 34 0
1 -52 -4 56 0
46 -33 12 -21 0
52 66 -58 11 0
51 41 -65 -66 0
42 -30 68 44 0
38 47 14 -51 0
59 -46 7 31 0
-49 1 62 31 0
-32 53 59 39 0
-4 60 -28 -50 0
49 32 25 -57 0
63 29 -55 30 0
9 35 -28 64 0
35 25 26 -69 0
-20 56 11 9 0
-43 52 5 22 0
14 -18 -49 61 0
-63 -41 -1 -30 0
39 -21 4 42 0
15 36 -18 1 0
-46 -56 -58 -10 0
-18 -62 31 -37 0
27 64 13 -58 0
51 65 4 -49 0
-4 -7 -14 -54 0
-51 -40 59 31 0
-54 -46 22 -48 0
-33 -7 2 -29 0
21 9 -56 50 0
-5 57 -24 33 0
-14 -68 57 3 0
10 -70 -12 -66 0
-46 -30 -3 -49 0
68 -26 3 -34 0
14 -52 -70 -20 0
55 67 -70 62 0
-27 6 8 -26 0
18 60 -57 -34 0
-24 40 63 -3 0
-24 60 12 2 0
-25 -5 -45 34 0
-27 3 9 63 0
-69 26 22 63 0
-13 -50 -42 67 0
-39 -50 -51 31 0
-23 70 -60 -10 0
-61 -35 -62 39 0
58 -49 -47 -10 0
-37 -19 -6 -58 0
-16 42 -30 13 0
22 40 -51 -16 0
38 30 -17 -69 0
26 -46 -25 -6 0
-30 -12 47 10 0
24 2 -39 10 0
-15 -32 51 -40 0
32 19 -59 -26 0
-24 14 1 -61 0
-60 7 19 26 0
-32 -43 -24 -59 0
8 -52 3 -70 0
-68 -6 -48 -12 0
16 26 -38 30 0
12 -59 46 -24 0
23 21 -22 -45 0
47 -14 49 50 0
-24 -40 -7 23 0
70 38 7 40 0
-18 28 -63 69 0
-32 -56 -25 19 0
-44 -3 -22 42 0
-14 -64 -70 50 0
49 -67 12 -2 0
27 -28 -39 13 0
-29 36 8 57 0
-68 55 18 57 0
42 22 -63 -62 0
-41 -59 56 18 0
10 12 -47 28 0
22 -6 -64 -57 0
-66 -44 33 24 0
-15 44 -33 -48 0
-13 -62 34 -25 0
45 -4 1 47 0
-48 -62 34 7 0
-32 -62 -22 -23 0
-26 70 -12 20 0
-33 9 -63 -43 0
4 58 21 17 0
18 45 -52 69 0
60 -38 28 -64 0
57 43 -54 17 0
-6 -38 -17 47 0
-25 -8 -41 16 0
-4 21 47 -38 0
-21 -44 32 -48 0
-22 -16 19 -7 0
13 28 60 -62 0
-34 -63 65 -70 0
-24 -28 -50 -63 0
-17 -35 -28 -67 0
60 -7 23 42 0
-54 -70 39 10 0
-1 -67 -16 8 0
23 -22 -45 17 0
-23 -65 -27 52 0
-4 46 38 -64 0
-43 2 21 -50 0
66 55 12 -54 0
35 -6 -17 47 0
-51 -47 -28 63 0
-56 16 -63 55 0
23 16 42 69 0
49 33 5 46 0
-8 60 -27 -55 0
-58 19 8 4 0
-43 34 -33 30 0
-68 -53 34 47 0
-32 29 15 67 0
-61 54 -29 11 0
-27 16 25 -52 0
13 -12 -1 46 0
6 24 -26 -19 0
59 10 56 -15 0
-30 -33 -24 32 0
45 -14 -70 15 0
-26 -9 42 -39 0
25 45 -10 -24 0
-21 -5 32 -28 0
-35 67 48 13 0
8 -28 23 -54 0
-5 15 -14 46 0
-68 -27 42 62 0
-25 -46 -1 -51 0
65 -42 -67 1 0
-31 3 -19 36 0
-13 63 -3 -68 0
-61 68 6 -33 0
-63 32 -59 -44 0
70 42 14 11 0
-12 29 -49 19 0
-52 -68 -33 -60 0
-40 -3 -14 54 0
-49 54 45 9 0
37 -57 -3 69 0
29 -27 61 -49 0
34 60 -36 26 0
34 35 -6 21 0
-61 19 38 22 0
-2 -10 17 20 0
-3 -58 -19 -69 0
-2 62 1 68 0
63 41 -40 68 0
-34 2 17 67 0
-37 9 -46 -63 0
61 60 11 20 0
39 -28 -50 37 0
31 48 30 -3 0
-61 -45 22 -57 0
13 -56 -64 22 0
34 59 -24 58 0
-9 14 12 30 0
-45 -42 -66 47 0
17 -24 46 11 0
28 -26 8 -62 0
-69 18 -47 54 0
57 -30 -65 -40 0
25 56 32 12 0
-54 -48 56 2 0
-5 13 -56 -16 0
61 -47 -69 58 0
29 1 33 47 0
4 -51 17 2 0
68 -70 20 40 0
30 -38 57 -10 0
-38 -66 -42 24 0
-10 -15 14 -43 0
22 -19 -66 -45 0
18 -62 -11 24 0
19 -20 40 -16 0
12 -17 -63 -14 0
49 68 -32 -48 0
-70 -42 46 -33 0
70 -5 -66 -56 0
-16 -60 -42 -54 0
-23 50 -33 65 0
11 -53 23 68 0
53 56 -48 -13 0
54 69 43 8 0
45 65 11 68 0
36 -51 20 22 0
-43 -57 -70 61 0
-17 39 35 26 0
-26 8 63 22 0
-23 67 -57 -17 0
19 2 -13 37 0
47 -60 19 24 0
-51 50 60 29 0
-55 -51 28 -27 0
-29 -26 -57 28 0
-65 29 26 13 0
34 -26 -12 -17 0
-68 51 -11 64 0
46 20 1 7 0
-63 -40 43 -20 0
-36 -3 -44 -60 0
66 64 -1 38 0
-63 -16 22 6 0
51 43 -42 10 0
-32 -50 -60 -43 0
22 -3 -38 -9 0
-15 -17 29 49 0
32 4 -1 22 0
-56 -40 -70 55 0
-44 -51 18 -4 0
-61 -3 -2 7 0
35 3 -42 15 0
23 -33 -25 56 0
-23 53 57 59 0
57 -27 11 32 0
-64 -13 29 -39 0
21 -37 -55 40 0
30 4 -40 53 0
46 70 -10 58 0
51 33 8 5 0
-6 60 -59 -30 0
39 -44 47 50 0
43 -7 -49 -19 0
17 -32 -29 50 0
53 -52 -67 40 0
25 -21 66 54 0
39 35 7 34 0
57 -1 -17 41 0
64 3 -67 -55 0
-65 40 41 -47 0
-70 42 50 -69 0
27 -21 35 -56 0
-18 -25 -31 42 0
36 58 -9 -17 0
70 67 -21 -39 0
60 -24 55 37 0
-42 17 -8 -58 0
53 47 14 -4 0
-31 64 19 -17 0
39 -32 -19 -68 0
-69 5 -57 -40 0
27 -57 25 11 0
65 31 51 -48 0
31 18 58 -50 0
36 41 43 -64 0
-40 -51 39 -45 0
-37 -47 -27 -26 0
27 10 52 -56 0
-41 -7 52 3 0
44 69 18 -43 0
-59 69 -58 32 0
-70 59 -56 57 0
-22 -3 14 -48 0
-60 70 -34 12 0
-9 -5 -59 21 0
13 -11 -31 36 0
-15 23 -33 -65 0
-23 -3 21 50 0
44 -3 15 -65 0
55 -62 -41 -13 0
19 -8 -70 -28 0
34 -23 -8 46 0
-23 -18 -67 9 0
-17 -28 -58 -66 0
52 5 62 -46 0
48 -58 6 -28 0
4 50 -69 63 0
-51 -54 -48 9 0
-35 -2 -49 10 0
3 -9 4 -45 0
55 66 -33 -23 0
-36 38 -4 -15 0
42 26 -33 8 0
15 -35 -24 -30 0
-35 38 17 -12 0
61 -59 -28 20 0
-47 -55 42 46 0
55 62 1 22 0
-4 37 -63 61 0
-69 64 43 54 0
36 -64 -38 -28 0
-32 -20 -2 -69 0
19 27 48 28 0
36 -20 -61 -13 0
-47 -28 52 -23 0
-66 6 40 -34 0
-66 -27 57 41 0
-8 -44 23 68 0
-29 68 -4 -36 0
-27 -69 45 32 0
57 -13 65 43 0
6 50 54 -63 0
20 -56 59 51 0
44 -47 9 7 0
-28 -50 66 52 0
-52 50 49 -42 0
-19 43 -18 64 0
49 1 55 -48 0
29 -3 64 -7 0
69 -59 -53 56 0
16 -17 30 11 0
-57 29 30 68 0
-57 14 48 -37 0
64 -27 -7 -6 0
-54 -28 -38 -1 0
-43 51 -67 8 0
2 -18 36 -11 0
13 -22 64 62 0
28 56 -9 12 0
-54 2 -55 37 0
42 51 53 56 0
-20 -56 -42 -44 0
-23 -57 18 -22 0
-26 37 38 -7 0
70 49 59 61 0
40 56 33 -4 0
26 -20 11 36 0
-39 45 -19 37 0
-7 38 50 -67 0
-26 -43 -40 27 0
5 -46 -39 63 0
42 -62 27 39 0
52 -6 -19 -33 0
-4 -62 42 -46 0
-63 -66 28 2 0
44 64 53 51 0
-20 -7 64 -22 0
-13 -1 -14 42 0
-20 8 -19 -22 0
-15 17 36 -51 0
-3 -25 22 34 0
-38 -54 -42 -7 0
-48 -35 37 32 0
-40 -70 -56 63 0
-42 -20 61 -66 0
31 -69 -52 7 0
-21 7 64 -40 0
65 -14 -26 -31 0
-62 54 -17 -25 0
-53 -12 14 -44 0
56 -65 -26 33 0
-1 61 -65 64 0
-31 -13 15 -65 0
19 51 -66 -9 0
24 -40 20 -52 0
-31 -56 33 -51 0
-42 62 61 -1 0
16 -17 -51 -63 0
42 13 -33 -5 0
-48 24 -67 28 0
21 55 -20 -31 0
5 -21 -6 17 0
60 -23 -32 -14 0
15 -54 -26 5 0
57 -42 -17 26 0
24 -9 -38 70 0
34 61 25 -20 0
-49 -21 -7 -40 0
-34 -6 -44 -13 0
24 9 30 -7 0
56 70 65 50 0
-36 10 -57 65 0
2 70 -57 63 0
14 -10 -24 -23 0
-11 65 -40 61 0
-62 45 -12 8 0
39 -56 -12 -46 0
-54 51 -50 -49 0
-69 48 32 47 0
70 -19 2 -26 0
42 -15 -50 -54 0
-45 -11 36 52 0
59 -56 -9 -51 0
36 45 -54 -27 0
49 -50 55 -65 0
14 41 67 -63 0
34 -47 69 -58 0
29 -8 55 -17 0
33 28 -16 22 0
-62 68 -61 -19 0
12 22 24 34 0
-37 57 -40 61 0
31 -67 12 60 0
-46 15 22 12 0
-34 -20 -68 -70 0
-29 -30 -5 -70 0
38 19 -24 -67 0
-44 55 -22 51 0
9 -29 -57 -31 0
-68 -10 -6 8 0
-45 -40 8 -29 0
52 63 51 -23 0
-38 58 -68 57 0
25 46 -26 -41 0
45 -33 -31 49 0
-34 -58 -16 23 0
22 -55 6 65 0
22 -55 68 20 0
48 -68 59 20 0
-65 -5 -19 54 0
2 -56 9 -18 0
20 6 58 27 0
-17 -54 -27 21 0
-22 -47 -64 36 0
49 9 63 -17 0
-54 -12 -1 -64 0
-21 -14 -19 -53 0
-67 -1 -21 64 0
-50 -48 -13 -25 0
20 28 34 -70 0
-33 -54 -28 39 0
-5 -13 -51 -23 0
51 62 46 -37 0
-13 -47 -50 -15 0
24 -55 -3 20 0
21 46 -57 31 0
23 -10 -34 -24 0
49 -25 48 13 0
7 52 50 -20 0
-38 -26 12 -7 0
-29 -16 42 -64 0
-34 7 62 51 0
-29 62 13 -4 0
-14 -48 26 9 0
46 12 34 -16 0
52 25 -26 4 0
43 -24 -28 8 0
23 -69 -16 56 0
-9 -51 -23 24 0
22 48 30 -43 0
1 52 55 -25 0
-63 56 23 -48 0
-21 -43 38 -4 0
-32 -22 62 -45 0
-68 -2 -27 61 0
-38 -1 -4 54 0
24 12 -9 25 0
54 24 -66 -44 0
-15 66 7 -44 0
