c family=4-SAT n=70 instance=0 seed=726001144 models=12
c order 61 58 47 33 30 39 18 67 51 37 28 48 65 32 60 36 63 17 12 69 38 35 2 31 27 5 59 43 22 24 64 19 50 7 29 40 56 11 57 68 13 15 23 52 34 55 4 14 20 53 9 16 41 62 6 8 70 49 25 21 26 45 3 54 66 42 44 1 10 46
c order 54 60 11 23 13 9 40 18 17 52 3 26 61 37 31 5 59 48 33 30 2 68 10 67 63 4 65 43 45 57 39 42 41 25 50 56 38 14 21 53 64 36 6 51 62 7 69 20 15 28 19 29 22 24 46 70 49 66 12 32 55 47 35 34 27 44 1 58 16 8
c order 34 65 23 64 25 21 42 31 15 32 57 58 69 56 38 24 67 40 10 68 4 50 52 45 66 1 2 53 35 55 5 6 39 43 28 19 20 12 3 49 70 48 13 44 33 54 37 26 27 16 8 9 22 62 63 7 17 41 60 46 14 59 18 47 30 29 36 61 11 51
c order 57 2 20 15 28 46 31 50 43 49 56 16 67 36 6 58 40 69 23 42 60 26 63 33 17 48 5 18 4 25 12 62 47 1 53 52 29 44 11 32 19 34 13 7 38 24 39 70 9 61 45 64 68 41 37 21 22 66 54 35 27 55 8 51 30 59 14 3 65 10
c order 35 14 38 33 66 31 47 59 57 39 23 4 3 24 53 64 45 63 61 37 50 65 32 2 5 68 20 58 22 9 60 43 40 11 51 29 17 49 62 30 46 34 15 42 21 18 6 28 54 55 67 70 7 44 27 16 10 36 56 19 25 8 48 69 12 26 1 52 13 41
c order 49 34 39 51 20 43 26 30 22 31 25 58 7 3 44 10 8 65 14 19 50 41 46 32 37 29 21 2 55 61 9 23 40 16 12 42 64 53 28 60 27 33 54 6 69 36 35 68 47 15 11 59 18 4 13 52 5 17 63 45 56 48 1 62 67 70 24 57 38 66
c order 45 22 66 7 4 57 16 43 65 3 47 24 60 36 5 69 28 40 58 30 23 15 14 1 10 20 67 42 38 56 44 31 39 37 49 8 61 33 13 51 48 18 55 68 21 63 29 25 41 62 34 46 19 59 54 64 12 35 2 9 17 52 26 27 50 11 70 32 6 53
c order 7 55 42 54 67 70 22 63 16 6 56 59 17 11 38 2 31 12 43 46 52 60 15 41 3 62 21 57 25 35 9 39 19 58 40 37 27 44 28 8 30 5 47 49 23 48 1 32 26 18 13 24 65 33 51 50 14 4 36 45 61 10 66 29 20 69 34 68 64 53
c order 5 54 63 2 64 52 8 32 4 22 10 42 35 51 31 59 70 34 38 69 48 28 45 39 66 9 3 68 58 41 25 15 55 44 53 1 6 67 50 27 7 40 47 11 24 19 60 65 30 57 13 46 26 14 62 17 33 43 61 37 20 18 12 49 16 23 21 29 56 36
c order 24 1 61 70 56 47 69 31 3 12 23 25 22 14 39 43 28 15 9 17 11 48 62 49 58 34 67 64 68 35 50 66 7 46 33 4 55 52 26 42 36 59 57 45 32 53 37 16 51 18 41 29 63 38 20 2 60 10 40 30 13 21 27 54 65 6 8 19 5 44
p cnf 70 672
66 -52 -70 -16 0
-3 39 36 -37 0
53 23 -9 -5 0
-16 -54 -40 -50 0
-8 9 53 -44 0
-60 17 -41 39 0
-60 -8 5 54 0
-15 49 38 7 0
63 -12 69 33 0
26 67 -51 -12 0
3 -68 1 47 0
-68 -6 11 -40 0
46 41 -61 44 0
-58 6 67 54 0
21 67 -34 -27 0
45 46 -12 26 0
67 -7 22 26 0
49 11 -18 17 0
49 1 -3 -2 0
-63 -5 -54 37 0
-63 -38 -53 -7 0
-14 -57 -64 -44 0
28 -37 -66 45 0
23 -38 3 -62 0
44 2 -18 -16 0
-6 -24 -27 -41 0
47 -2 -14 -63 0
-60 56 68 -35 0
2 39 11 -9 0
19 54 -3 -31 0
-44 -31 -5 13 0
-41 -24 -13 16 0
31 23 56 -27 0
-30 55 -48 -3 0
-57 51 9 -10 0
-2 -30 19 -27 0
21 19 36 52 0
-9 46 18 36 0
13 -38 8 66 0
12 3 -54 -62 0
17 9 50 -65 0
-30 16 28 23 0
-52 24 47 22 0
31 -7 -24 -69 0
-15 -62 -16 67 0
7 -32 -19 -8 0
-30 28 6 -65 0
-23 39 6 -62 0
1 -26 -41 -50 0
-68 -51 -67 -4 0
59 -68 2 54 0
56 8 -36 -30 0
15 -10 40 63 0
-43 6 -30 28 0
-44 -50 5 -19 0
-34 14 9 -62 0
-4 48 59 70 0
21 -59 68 50 0
59 42 -41 -70 0
36 -9 -65 41 0
-36 -31 -62 34 0
-25 44 16 -69 0
36 -39 28 15 0
-35 22 -11 -50 0
65 -9 64 -8 0
26 -49 25 68 0
40 -14 -3 32 0
-26 60 9 29 0
44 -39 -36 63 0
33 7 15 -50 0
58 -39 45 -23 0
15 -43 62 -46 0
-64 -30 65 -17 0
68 48 40 51 0
-1 -34 19 -5 0
-44 16 53 -57 0
-37 -27 3 59 0
-16 -21 -47 -20 0
-60 36 61 70 0
42 6 -47 3 0
-21 36 -35 6 0
47 52 56 20 0
68 38 41 -45 0
-52 20 -63 -43 0
-68 28 -56 36 0
62 -15 27 3 0
34 54 -69 -7 0
50 66 8 -23 0
14 28 53 37 0
-54 38 70 -36 0
-44 14 66 -61 0
46 65 52 4 0
10 30 48 46 0
55 3 -16 23 0
70 -21 63 -41 0
51 -20 -57 -69 0
-12 -45 -70 -2 0
-5 -2 53 29 0
-5 -10 40 15 0
-14 20 -67 -44 0
65 29 43 -69 0
14 -57 -55 -42 0
53 -49 -65 41 0
-43 17 -55 -20 0
17 44 -14 11 0
15 19 47 -64 0
10 -41 51 59 0
54 60 35 -7 0
-53 50 -57 5 0
5 9 56 -7 0
2 30 -67 68 0
-58 -50 -46 66 0
11 9 -15 -47 0
45 3 -32 -16 0
24 23 -10 4 0
63 46 -20 -5 0
-39 -31 37 -64 0
-24 -46 21 -13 0
-20 9 2 -43 0
-63 64 36 4 0
9 31 3 10 0
61 65 -7 -34 0
-6 -42 5 3 0
-65 -24 3 -53 0
1 53 21 -49 0
61 -34 -66 -24 0
39 -47 4 -37 0
-1 -22 36 -24 0
6 2 47 -70 0
49 60 43 -70 0
-10 -4 67 24 0
-8 -26 64 -55 0
-35 -43 22 41 0
15 45 68 14 0
11 36 -12 -21 0
24 32 6 42 0
-60 21 -3 -40 0
-18 1 47 59 0
-12 15 -68 48 0
31 -7 -11 22 0
2 -57 68 45 0
17 20 -23 21 0
-37 44 -28 53 0
29 -56 -28 -49 0
-66 51 -37 -17 0
-29 13 -49 24 0
-34 -44 -30 -66 0
-49 -42 36 -18 0
37 51 -44 58 0
28 -27 -33 -60 0
-70 -6 31 28 0
55 10 -66 -6 0
5 61 51 30 0
60 -31 -53 -9 0
-39 69 -1 24 0
2 -46 -39 -40 0
-44 43 31 -61 0
-45 -41 64 -4 0
-69 -64 48 -8 0
40 21 48 34 0
-18 57 60 -70 0
-14 -45 51 -12 0
39 47 56 -26 0
33 50 56 66 0
-31 -18 -54 70 0
-17 -14 59 68 0
-1 -42 53 8 0
-48 27 -10 -34 0
37 69 31 -8 0
-38 -7 42 27 0
35 -56 -55 -50 0
-44 33 -9 23 0
-66 -17 -24 -57 0
50 16 -60 -68 0
-46 -55 25 35 0
-53 26 -61 -63 0
-44 -39 41 -31 0
-39 51 -42 -1 0
-9 25 -34 -63 0
-25 59 45 -65 0
-11 -52 -26 68 0
-24 41 -62 -66 0
-29 13 68 -57 0
-1 55 -44 -61 0
-13 -7 35 56 0
37 22 52 27 0
50 18 68 23 0
-68 28 29 69 0
-6 10 51 68 0
-56 23 4 -6 0
3 -5 11 4 0
31 -59 -10 -11 0
-38 -11 49 -26 0
30 -42 33 -52 0
37 -61 -14 10 0
-34 29 -65 35 0
-48 68 45 18 0
59 46 -36 65 0
12 -36 62 21 0
-68 -40 -54 9 0
58 -12 -53 -3 0
62 -3 -44 -38 0
-70 2 8 14 0
-53 9 37 -57 0
41 27 -10 -52 0
-53 40 25 31 0
-25 -54 70 56 0
-49 45 -50 -15 0
50 -19 26 -61 0
12 53 -60 -23 0
-21 -68 -26 11 0
-44 21 -67 -23 0
-47 -29 10 -61 0
-16 -69 36 27 0
-59 17 47 -69 0
49 24 50 -11 0
-40 58 30 -32 0
36 42 -10 9 0
-39 -14 22 -34 0
-5 13 69 -9 0
-1 56 -12 -65 0
-32 51 30 -54 0
-1 25 -19 10 0
-27 -9 -55 -41 0
-33 -2 -50 49 0
32 -38 46 -12 0
-58 -48 52 56 0
33 -67 40 19 0
69 -1 40 38 0
42 62 20 -46 0
60 -65 46 -36 0
69 -51 32 16 0
32 15 41 -22 0
68 7 62 53 0
-3 14 39 -23 0
-39 47 -55 -27 0
57 4 -3 65 0
5 34 -52 -40 0
41 35 -65 -51 0
38 34 -31 2 0
58 -1 44 15 0
-23 -54 40 9 0
5 64 -68 34 0
-33 -68 2 56 0
49 43 36 25 0
-19 -49 56 -50 0
22 26 -6 14 0
-14 62 52 -40 0
-8 26 38 -40 0
-59 18 -49 -64 0
61 -43 35 -3 0
27 58 26 19 0
-66 59 40 -54 0
-32 -48 58 26 0
17 -16 30 1 0
36 -65 -64 -5 0
-64 -29 35 18 0
-57 -7 -62 41 0
-61 -26 52 -23 0
23 -37 14 -41 0
-64 2 -62 -34 0
37 -20 34 46 0
-63 -2 -61 -20 0
20 -55 67 14 0
-64 22 20 8 0
65 59 62 14 0
6 12 51 65 0
29 -44 -28 41 0
-11 -50 3 -55 0
-67 17 36 -30 0
-23 50 68 -9 0
16 46 -38 -18 0
-63 60 39 -5 0
38 33 -35 16 0
-25 47 26 65 0
-65 1 -34 52 0
-6 -27 49 -18 0
64 44 -5 67 0
36 28 -47 -46 0
13 20 -43 2 0
-62 -52 -64 68 0
-57 12 -40 36 0
-53 -59 47 51 0
49 -31 39 -7 0
-44 -70 -39 -24 0
-43 15 50 57 0
-38 -37 35 55 0
-67 13 49 -23 0
-28 35 50 4 0
44 21 -61 -45 0
-26 22 -27 -14 0
-14 28 -62 -38 0
6 47 3 -67 0
-28 -65 -59 57 0
64 20 -5 -10 0
69 44 -42 21 0
12 53 -64 50 0
23 11 -37 58 0
59 -45 -37 -12 0
65 -41 -62 45 0
-27 42 2 10 0
-21 -16 -18 -38 0
-40 34 -63 -30 0
41 -52 50 -1 0
5 -42 -10 53 0
65 54 -59 -49 0
41 -70 -62 -64 0
30 18 -26 -24 0
51 45 -4 -62 0
-18 36 -28 16 0
21 -17 -68 65 0
62 -33 -20 63 0
37 13 7 63 0
8 -19 -33 27 0
-50 13 -41 58 0
-51 34 -65 -26 0
-47 -44 -61 -41 0
11 42 -43 53 0
52 13 -18 46 0
-35 47 -28 -18 0
60 -47 9 25 0
12 -41 -8 16 0
-62 46 -54 22 0
-9 61 55 -20 0
-52 26 -20 -13 0
48 50 -68 69 0
-16 -42 28 -48 0
56 -50 40 -24 0
25 -4 -16 22 0
-5 42 -7 -54 0
12 25 17 43 0
-41 30 64 -47 0
33 36 -27 -53 0
34 -46 -10 -32 0
3 29 -59 38 0
-54 51 -69 61 0
-56 61 69 27 0
-36 -11 10 5 0
-60 40 27 5 0
-64 -44 -9 66 0
5 22 34 -44 0
59 63 56 12 0
66 -9 8 22 0
-7 30 -67 -37 0
-55 -53 -49 -19 0
-46 14 -69 -48 0
-47 25 -35 1 0
39 -29 63 62 0
-19 -64 51 -33 0
-11 12 -38 24 0
-41 -64 45 -52 0
-52 12 -38 33 0
24 -64 52 5 0
-28 46 -33 -38 0
5 -9 67 -29 0
39 -51 58 32 0
-67 -56 69 -27 0
-65 43 17 22 0
-46 5 -53 15 0
-47 65 -16 2 0
67 16 60 45 0
-64 -17 -35 45 0
-15 -44 -8 27 0
-59 17 67 -15 0
63 -49 -8 28 0
31 -35 -46 -26 0
-48 -56 -3 53 0
55 -28 -32 -41 0
70 -20 11 -62 0
-1 45 10 -58 0
37 42 -8 -20 0
-13 -33 -55 -70 0
50 52 11 37 0
21 -29 10 -13 0
-26 -44 -63 58 0
45 -62 57 21 0
5 -9 69 28 0
62 -23 -49 -17 0
64 -53 -37 33 0
7 53 29 -32 0
-45 -47 -39 -23 0
-45 58 -70 67 0
49 69 50 -29 0
-64 37 62 -56 0
60 -48 36 24 0
-18 4 10 -70 0
41 65 45 -62 0
65 -68 -43 -50 0
9 -4 -43 -8 0
-54 58 29 -21 0
52 -23 35 10 0
-60 67 4 61 0
-51 57 -8 54 0
18 -29 -47 70 0
-7 -49 -28 23 0
-40 -17 -18 -50 0
41 10 52 20 0
38 -27 58 -9 0
-40 -66 34 63 0
58 -63 30 -21 0
65 54 24 -45 0
-26 -9 62 49 0
-58 -22 13 29 0
-37 -13 10 20 0
-66 -48 -52 37 0
-19 -7 32 -27 0
44 68 -51 -24 0
59 -17 -44 40 0
29 6 -41 -68 0
-48 -10 -64 29 0
-54 -33 -25 -41 0
-3 17 -23 -53 0
-61 66 -2 -57 0
37 -50 -22 -12 0
-45 -55 -32 31 0
-34 52 47 7 0
-15 56 20 45 0
5 7 -34 10 0
19 53 -36 48 0
53 44 11 -47 0
-63 33 -47 39 0
11 -44 -39 2 0
70 62 -25 -50 0
-51 -49 -31 -32 0
36 9 40 63 0
41 -25 -66 10 0
62 25 -19 -63 0
53 -28 32 45 0
-55 56 -4 47 0
57 12 60 59 0
-63 48 19 -54 0
-12 36 -31 -55 0
9 -30 -68 23 0
38 -17 -32 -63 0
21 -41 68 65 0
4 69 -41 50 0
-20 -17 56 -27 0
15 41 44 -48 0
43 -34 55 18 0
-38 51 -54 10 0
66 -40 -4 -52 0
-27 56 -30 4 0
14 -5 15 -65 0
50 17 -19 -12 0
44 -36 -46 41 0
44 -17 -32 65 0
-13 43 -56 26 0
-22 33 13 34 0
51 53 47 48 0
4 3 -12 -49 0
-67 3 17 -32 0
-39 -15 34 -8 0
7 42 10 13 0
54 -47 -13 19 0
14 -69 2 7 0
-66 -25 49 -32 0
-65 70 -12 -30 0
57 11 66 26 0
-68 -59 -21 39 0
60 -70 -20 46 0
65 10 5 -69 0
-66 -5 42 -15 0
-32 -19 56 -9 0
-36 -38 -65 -31 0
35 -20 48 25 0
-58 -46 51 70 0
38 27 -39 63 0
-69 -30 -45 64 0
-11 -9 -5 46 0
27 -50 -69 -16 0
-57 -35 -10 -26 0
-34 53 -67 -21 0
9 -70 19 37 0
17 43 47 65 0
53 -40 -35 65 0
-2 56 54 -55 0
-23 -55 9 63 0
-32 24 69 -13 0
36 -41 -6 -65 0
70 55 -65 57 0
24 57 3 4 0
-43 25 6 12 0
-5 14 -55 -23 0
-11 59 -50 70 0
-69 -9 -16 29 0
-37 26 11 -30 0
-1 -68 12 -62 0
2 20 -54 -28 0
32 17 -33 -34 0
-2 -34 -19 -20 0
45 -17 -69 -64 0
47 28 -54 42 0
5 38 53 -47 0
-4 -70 -22 36 0
56 13 17 42 0
-50 -8 -34 -16 0
23 55 70 54 0
-62 17 -12 54 0
32 -24 -4 38 0
-39 41 -6 53 0
-40 -51 66 8 0
-12 24 15 7 0
-39 -30 -6 70 0
-66 -50 7 -68 0
-27 16 -5 40 0
-51 -59 68 53 0
54 28 -2 -27 0
32 52 5 -26 0
-7 12 -27 -54 0
-26 -41 3 60 0
-49 7 61 27 0
-47 2 -45 53 0
13 -48 -43 18 0
25 -51 42 17 0
-51 34 -58 -29 0
5 4 21 17 0
8 42 49 47 0
-58 -65 -61 22 0
8 35 58 -13 0
-70 6 -13 30 0
56 4 70 -62 0
-39 10 -38 -54 0
-51 -9 -63 -36 0
26 -43 -8 -30 0
24 53 -51 67 0
-36 12 44 -53 0
-32 -57 -4 7 0
8 14 3 70 0
-40 -38 56 43 0
4 28 -23 -57 0
6 41 29 45 0
-19 -65 52 -49 0
56 5 38 9 0
-54 -7 -29 51 0
-62 -21 3 -12 0
16 -34 -63 55 0
1 -27 -17 56 0
18 -1 -63 50 0
70 -29 46 57 0
55 -39 -10 -36 0
59 -70 56 -5 0
11 -23 63 32 0
22 -17 46 -20 0
-22 -9 -58 20 0
59 -23 -63 -48 0
-49 35 59 -1 0
16 -48 8 -67 0
-10 69 6 54 0
-28 51 31 -17 0
43 -39 -30 51 0
-64 -9 66 12 0
-55 21 12 -14 0
-58 47 69 10 0
-59 -38 2 -58 0
-41 25 -19 65 0
57 -17 52 -30 0
17 2 70 8 0
48 -67 61 30 0
33 5 -46 -12 0
40 -36 -18 -65 0
-18 -32 29 -63 0
62 24 4 68 0
-53 -54 -13 -69 0
64 22 4 -51 0
-14 -30 -47 27 0
-59 19 25 67 0
68 -17 24 -53 0
57 50 31 -54 0
-41 30 -49 70 0
-17 -9 -46 -35 0
52 35 -4 -13 0
-25 -68 47 -20 0
50 45 -54 41 0
58 52 70 11 0
-69 64 -67 -29 0
47 -18 -28 -67 0
14 12 -44 64 0
1 -37 -35 -59 0
12 65 43 -21 0
-42 8 45 -13 0
-7 -61 -56 -62 0
9 -21 -28 59 0
-32 11 30 -60 0
28 56 -58 -49 0
-13 9 2 -21 0
49 -50 -33 -16 0
23 -16 -32 -3 0
-40 -62 41 5 0
-38 -62 60 45 0
-32 46 -61 25 0
-11 64 -69 -35 0
41 -32 51 58 0
-14 -13 -28 -5 0
26 44 63 -23 0
-64 42 55 66 0
36 -23 -60 -31 0
30 -13 -62 -26 0
-41 53 26 46 0
-37 -38 55 -65 0
-21 -64 -10 -32 0
52 -30 6 48 0
18 62 7 -49 0
40 12 -64 -45 0
-12 -54 -35 -16 0
-2 43 29 -17 0
-38 28 16 53 0
30 -54 -10 50 0
-55 10 54 -19 0
15 -19 69 40 0
-41 14 58 25 0
3 31 -30 -36 0
-13 -4 41 -50 0
56 -53 -33 46 0
43 -47 63 17 0
65 -39 -40 46 0
55 -56 10 -32 0
-57 -46 5 42 0
4 -45 48 53 0
34 -22 30 6 0
-25 -66 65 -2 0
33 2 53 19 0
-13 9 53 49 0
47 -14 -28 -43 0
-48 -1 -68 7 0
-5 39 -1 -29 0
-66 -7 54 -38 0
4 20 9 61 0
66 -54 -26 69 0
-10 63 36 -33 0
19 21 -50 41 0
70 -34 -41 -23 0
40 -22 68 13 0
47 13 -40 -38 0
55 -58 15 5 0
-31 -11 -30 39 0
-36 -53 -21 -51 0
-27 -14 -62 -39 0
-41 63 54 62 0
-22 13 -44 45 0
30 -60 -63 53 0
40 48 -15 56 0
12 66 -63 69 0
-28 -6 -26 -56 0
-9 42 39 53 0
-70 21 -52 -28 0
-16 39 -33 58 0
-11 10 -25 59 0
-12 10 -43 -25 0
-41 17 -11 22 0
23 12 -42 -17 0
31 23 51 -8 0
-5 38 44 -16 0
-59 -31 7 44 0
66 49 -38 41 0
-32 -26 8 47 0
-55 48 -24 -22 0
-63 -5 -17 59 0
49 -68 -30 22 0
-2 -53 -25 68 0
-60 45 61 54 0
36 -26 -68 -61 0
-51 63 8 32 0
-5 18 30 28 0
-62 -37 -32 -8 0
34 29 54 -24 0
-41 -58 16 67 0
-27 12 -60 38 0
19 -22 -13 -30 0
4 6 -26 -36 0
46 -29 -4 20 0
56 -23 -33 26 0
-64 -61 27 -70 0
