c family=4-SAT n=70 instance=5 seed=726001144 models=349
c order 70 29 34 68 32 5 35 4 2 19 50 64 53 6 31 66 8 41 12 27 59 58 46 7 22 65 36 33 54 11 61 20 67 39 38 21 45 24 57 10 47 13 18 9 48 16 23 42 43 56 40 30 37 17 15 28 1 69 52 51 63 60 55 26 49 44 14 62 25 3
c order 21 62 56 37 53 19 35 28 7 6 46 50 65 26 2 36 59 55 30 23 58 9 70 38 17 15 34 60 29 49 61 52 11 1 33 39 3 45 13 40 51 5 54 32 44 4 16 48 8 67 68 31 22 57 12 14 43 42 64 18 47 66 20 25 24 41 63 69 10 27
c order 6 16 1 30 17 38 29 2 31 60 42 9 18 13 59 8 46 57 66 20 11 41 54 52 69 3 63 39 12 10 56 33 53 62 44 4 47 7 55 50 25 27 61 34 14 48 26 23 65 19 51 45 5 28 43 40 49 58 64 22 70 37 67 24 15 35 32 68 21 36
c order 57 27 49 11 21 3 60 29 69 70 38 47 42 63 9 33 52 55 65 17 53 39 37 24 56 51 2 19 61 5 18 66 68 31 8 15 59 26 1 10 62 34 20 25 36 35 12 67 48 23 32 4 40 64 45 28 13 50 30 16 22 41 14 44 43 7 58 6 46 54
c order 24 52 28 69 61 33 10 58 30 62 13 20 9 51 18 46 1 67 47 23 41 3 36 42 31 4 26 60 49 25 29 68 57 44 2 63 34 45 14 65 55 22 66 7 16 37 59 19 38 11 12 40 15 43 8 35 53 70 50 64 32 39 27 48 56 6 21 17 5 54
c order 41 28 66 19 40 23 11 33 15 63 32 67 61 65 9 43 36 3 21 69 70 26 25 49 58 24 12 4 54 13 55 64 18 27 46 51 57 44 10 37 34 39 14 56 20 47 31 17 30 6 5 16 52 1 38 48 45 60 7 62 68 8 42 53 35 2 59 50 29 22
c order 66 42 38 7 16 24 32 54 25 59 29 44 19 21 40 11 60 65 48 70 2 43 33 39 3 8 41 37 46 49 10 67 17 64 20 56 23 69 55 13 31 18 1 30 28 50 34 36 4 58 26 6 15 62 35 22 5 14 68 53 45 47 61 9 12 27 57 52 63 51
c order 41 42 32 63 62 8 28 54 55 37 66 7 2 64 16 4 31 56 67 36 52 65 33 3 19 17 15 50 35 22 60 46 40 45 11 23 27 9 51 48 69 14 57 47 20 58 70 5 1 49 25 53 59 61 6 44 12 10 21 68 43 30 24 39 29 34 38 26 13 18
c order 6 51 61 64 60 53 35 28 11 26 2 10 24 19 29 52 46 13 47 41 42 48 7 49 36 21 9 65 25 1 66 54 12 16 68 20 8 39 55 17 30 5 31 58 43 32 62 63 40 37 69 38 50 56 27 67 70 18 34 14 44 15 22 59 57 45 23 4 3 33
c order 12 48 18 21 10 23 3 8 52 1 41 5 19 28 65 40 46 13 4 22 66 58 36 60 27 30 68 2 53 17 24 51 11 70 69 31 54 55 50 16 6 29 35 33 20 62 14 37 49 15 45 63 34 7 56 43 38 44 32 9 47 42 67 61 26 25 59 57 64 39
p cnf 70 672
8 46 -16 24 0
-46 17 -16 -23 0
58 -13 -42 39 0
-58 43 -34 -69 0
-10 53 -65 -5 0
46 39 52 18 0
57 -22 -13 17 0
-67 24 55 -66 0
-52 -57 2 18 0
-58 -24 -40 -69 0
-9 1 -49 28 0
-51 -30 64 69 0
-58 -55 -42 68 0
66 24 43 -47 0
-16 4 -36 38 0
-50 70 4 -65 0
9 44 31 64 0
-62 14 -24 -25 0
-29 26 58 41 0
-29 -42 -22 -18 0
-35 -11 -1 21 0
61 -69 5 -60 0
62 -6 69 -68 0
34 60 17 33 0
-35 -52 70 -44 0
20 50 -47 55 0
-24 -45 -22 -43 0
-42 -48 30 34 0
36 -57 -12 69 0
-2 -34 51 31 0
-56 48 3 14 0
-11 24 41 -25 0
52 -26 24 13 0
-54 45 -35 -9 0
-52 -12 53 -14 0
43 68 35 -69 0
24 22 58 -54 0
-69 -41 -46 40 0
61 -13 -46 -68 0
-54 -25 15 -7 0
-39 -67 45 21 0
-67 -7 -36 -33 0
-2 -36 37 -9 0
32 -14 -18 -4 0
33 -8 70 38 0
7 -12 56 -6 0
9 -46 -56 -4 0
25 3 64 42 0
10 63 -62 -36 0
-48 70 -21 30 0
34 58 -8 -25 0
-23 -40 4 -28 0
28 -8 -39 -65 0
8 47 37 25 0
28 -4 41 7 0
55 53 32 -47 0
55 -28 -50 25 0
-65 -35 10 57 0
11 15 -45 -53 0
11 -20 48 -12 0
-34 20 52 7 0
59 69 34 27 0
68 60 -30 2 0
-44 62 -47 51 0
-39 -42 50 -62 0
-19 44 60 -45 0
-56 49 43 38 0
-69 -61 63 -10 0
-27 21 22 17 0
-33 51 -25 -31 0
8 2 20 53 0
-12 -41 -40 42 0
11 -18 64 -30 0
41 -42 67 -38 0
-69 -11 -48 -54 0
-9 -26 18 -57 0
-60 53 -45 31 0
-53 60 -26 -25 0
66 -34 -53 37 0
57 23 69 -45 0
-4 -8 45 -36 0
-32 -46 -64 58 0
-25 41 16 26 0
-22 -32 -14 -2 0
30 49 27 16 0
-32 -5 11 -33 0
5 57 46 2 0
19 12 33 52 0
64 -61 -10 -1 0
-61 -68 60 -54 0
64 10 9 4 0
-12 50 23 14 0
-60 1 53 20 0
10 -50 3 19 0
-15 -69 -68 -61 0
-13 -54 -39 53 0
-70 -45 5 -30 0
-62 -64 51 18 0
-55 -33 47 17 0
49 42 -62 -7 0
28 -25 30 -27 0
-62 66 31 -15 0
16 -53 47 -61 0
-66 68 29 -46 0
35 70 -22 -47 0
-58 14 -30 60 0
-30 -64 38 35 0
10 68 -23 -59 0
70 68 -8 -59 0
29 -24 -5 22 0
41 32 46 -69 0
48 68 23 -47 0
-51 1 26 -16 0
15 19 64 -42 0
-62 -34 4 -64 0
15 10 -43 -13 0
34 -51 -41 53 0
-60 70 11 -63 0
68 45 18 -36 0
-43 18 -36 5 0
-48 25 39 31 0
47 69 44 7 0
1 -23 47 5 0
-56 64 -29 -3 0
-64 70 47 40 0
-15 -53 -36 44 0
-29 -69 -34 -15 0
-9 56 65 -42 0
57 29 -25 -58 0
-36 33 -50 17 0
60 53 31 -18 0
-49 -39 -26 -48 0
-6 -58 -39 -16 0
-16 -45 43 -14 0
37 -7 -36 -18 0
24 1 2 29 0
-36 -25 -38 -65 0
14 6 40 -48 0
-21 -48 -70 28 0
15 60 34 31 0
-67 46 34 -19 0
-43 -53 40 63 0
8 -13 -43 65 0
43 8 34 -42 0
67 45 10 24 0
-1 57 -28 65 0
24 -23 -42 70 0
-38 44 50 39 0
20 -6 -68 -49 0
-27 7 34 43 0
-39 58 48 14 0
38 43 27 -56 0
11 6 1 -39 0
-55 -53 -68 -11 0
-28 67 -18 -52 0
12 -55 29 -36 0
-35 -34 -56 8 0
-60 37 25 -54 0
-53 -55 24 -26 0
53 30 -60 52 0
-19 25 40 -12 0
-12 -16 51 63 0
16 -68 28 47 0
13 19 -59 25 0
-10 -30 -34 35 0
58 -40 -16 -29 0
-52 21 -46 -48 0
-9 28 55 -45 0
-41 60 -42 -9 0
-2 -32 68 -15 0
-56 61 -45 27 0
1 -8 -31 38 0
46 -41 -8 -50 0
5 -58 53 -60 0
-51 54 38 23 0
53 -42 -20 -44 0
-54 37 10 6 0
-11 9 60 -2 0
11 -12 -13 37 0
67 57 -18 -46 0
-61 -27 -51 65 0
-2 -43 -12 66 0
-59 3 67 12 0
-12 -30 55 -41 0
-55 40 -48 -14 0
-51 -36 23 27 0
-7 52 -46 -56 0
16 3 -49 53 0
-36 52 66 -24 0
69 -24 -29 36 0
55 8 -50 30 0
-58 -53 35 -10 0
-48 -69 36 -47 0
52 29 -67 -54 0
-12 42 -19 37 0
4 56 -60 -44 0
-25 -42 50 28 0
6 -48 -14 -31 0
-49 69 61 -42 0
-9 -28 -35 4 0
-5 37 2 -52 0
-34 58 20 68 0
-21 63 46 38 0
-8 25 -31 -33 0
-61 56 -58 1 0
-25 -62 23 -1 0
-9 -12 6 -58 0
12 27 57 41 0
-43 -36 69 28 0
35 -58 22 -24 0
-40 -67 38 18 0
42 66 -60 -61 0
-59 60 -25 -35 0
-64 -8 68 -3 0
-70 -65 -8 40 0
-24 32 68 11 0
-7 13 -59 46 0
22 5 -24 -47 0
29 -22 41 13 0
48 -58 -11 42 0
-46 -30 -56 -41 0
-32 -39 -44 38 0
37 60 69 -66 0
-13 -23 -7 69 0
-31 27 33 62 0
-43 32 5 -40 0
20 -28 -65 -5 0
13 -42 49 -67 0
23 54 -34 49 0
4 2 -57 32 0
-29 58 -43 -55 0
-10 51 -60 -42 0
26 -39 64 28 0
35 -19 -31 29 0
6 43 -27 -47 0
-69 -65 8 51 0
46 16 -13 -54 0
-33 18 1 -4 0
-39 -26 55 15 0
49 -25 43 -4 0
64 62 -6 14 0
-21 -28 -42 -30 0
13 70 55 11 0
28 -54 11 -55 0
-21 23 16 31 0
-67 -69 -17 28 0
-5 7 68 -34 0
-21 -31 17 -37 0
42 30 -24 15 0
-10 11 -45 -40 0
-4 -49 -43 -44 0
-15 32 55 7 0
-3 53 -24 -58 0
-62 17 -57 -50 0
39 58 2 32 0
34 -52 18 -53 0
-13 63 -18 8 0
-9 38 -46 -19 0
21 63 7 25 0
58 -2 -41 13 0
-8 28 33 25 0
-2 52 66 50 0
69 -64 8 -26 0
9 70 -48 66 0
53 15 39 20 0
7 -26 41 50 0
55 -2 -69 22 0
-54 -59 11 -51 0
10 53 -55 -54 0
-40 -43 64 26 0
33 -23 -35 70 0
69 35 -20 -36 0
-47 -45 -63 64 0
-18 -7 -50 56 0
60 -22 32 -28 0
-27 -33 43 53 0
69 38 36 -11 0
-17 -58 44 55 0
-29 50 21 -10 0
-36 -51 -12 -25 0
7 46 -68 -50 0
21 47 -64 35 0
-6 62 16 -34 0
-44 -46 60 -54 0
50 56 -9 35 0
59 -22 47 -45 0
9 -41 -52 -70 0
42 -57 70 -58 0
7 20 -60 -58 0
35 -19 -21 -68 0
21 46 38 -9 0
-67 12 -62 -54 0
-45 65 -26 30 0
40 -26 -31 67 0
-5 15 53 -58 0
-32 -38 8 -18 0
-69 5 -6 -38 0
54 -50 23 -60 0
4 5 13 26 0
13 -46 51 -44 0
-33 39 61 2 0
-61 -17 29 46 0
27 39 18 1 0
31 -66 -45 -53 0
-19 -33 -40 55 0
58 -51 17 -65 0
47 -35 -62 -7 0
47 53 34 30 0
21 70 -28 -45 0
-26 68 18 -14 0
-41 5 -38 63 0
19 26 40 -59 0
38 -57 40 33 0
-24 -64 57 -37 0
25 53 20 50 0
44 54 45 -46 0
-25 -51 -4 -26 0
19 -40 -6 58 0
-40 47 -3 -12 0
-3 36 -24 62 0
-9 -4 24 27 0
-59 -68 -32 -40 0
16 -64 -27 39 0
56 -34 -51 -29 0
-51 23 21 -63 0
-20 53 -19 16 0
39 43 -49 70 0
6 -20 -42 11 0
-18 21 -50 48 0
16 -13 -18 51 0
54 40 8 -47 0
-31 27 -58 -9 0
-40 4 50 -32 0
-65 -12 -28 -23 0
56 -14 -22 58 0
69 -55 -22 -29 0
51 49 7 38 0
22 -51 -52 -29 0
20 -7 56 -16 0
41 -61 31 45 0
30 25 -32 -38 0
-21 4 49 -19 0
24 -21 -53 -14 0
50 52 20 -31 0
-25 36 57 61 0
-34 -64 41 -70 0
-18 43 -61 37 0
16 39 -41 -10 0
19 31 41 -47 0
-29 -27 -19 -17 0
-18 -20 62 -39 0
-56 65 -44 4 0
-11 43 19 2 0
-51 -61 26 -15 0
-30 15 -55 59 0
-27 3 -13 8 0
27 52 58 47 0
-5 51 -46 26 0
62 -70 -8 28 0
-33 70 -38 -45 0
29 23 -24 -42 0
-70 32 45 3 0
-70 -67 37 -26 0
-46 -63 12 26 0
-30 26 10 31 0
8 -63 -28 -16 0
-11 -21 22 70 0
15 -45 61 -18 0
34 62 -64 -44 0
48 -50 -56 49 0
10 -70 -8 24 0
-18 -22 -11 23 0
10 9 -42 68 0
11 -43 -59 -33 0
9 31 69 40 0
-13 26 -15 39 0
-10 70 -59 8 0
-59 31 13 38 0
-16 -27 -20 -69 0
-58 -2 15 -51 0
-56 -37 13 -60 0
48 30 61 -55 0
41 8 30 -64 0
-30 -48 -35 32 0
-16 31 -44 -43 0
-27 -63 -30 47 0
32 -33 -10 -42 0
15 67 5 -27 0
-38 32 10 -47 0
-30 57 -16 -40 0
-36 70 -50 -56 0
23 54 7 62 0
67 -56 41 68 0
-28 54 -35 2 0
-13 -59 -27 -49 0
41 -49 -68 53 0
35 22 -14 -18 0
47 -41 48 -49 0
22 -57 -48 -64 0
-17 44 -70 15 0
45 -15 24 29 0
17 -41 -21 -49 0
52 29 -55 33 0
-46 20 -63 -27 0
36 34 27 -44 0
-65 70 10 -62 0
15 -31 43 64 0
2 40 -14 62 0
41 40 -49 2 0
-60 47 -29 13 0
-3 -13 -35 -26 0
-22 13 54 -33 0
-2 49 -57 -26 0
45 -29 51 53 0
-10 -41 67 -33 0
58 -60 -24 41 0
15 10 12 -7 0
-18 -63 -32 10 0
70 64 -18 63 0
64 -56 15 -19 0
-70 67 -25 -59 0
10 24 -7 -55 0
-31 24 63 -39 0
32 -65 -67 11 0
-41 -50 -58 40 0
62 49 19 -61 0
-28 13 -57 17 0
-23 3 -29 45 0
-6 24 63 54 0
35 -51 -33 47 0
-44 59 -35 41 0
41 -46 59 24 0
10 18 -43 -61 0
55 -59 57 13 0
11 -18 -59 39 0
47 70 1 -20 0
-48 -16 -57 -14 0
1 3 -68 -47 0
-24 53 -7 42 0
44 -45 -27 2 0
-45 -46 -29 42 0
-12 35 9 44 0
66 9 -20 -62 0
38 49 37 -32 0
13 28 -8 -4 0
20 3 -70 -15 0
62 -57 49 29 0
-12 -4 7 -66 0
-61 -27 43 6 0
-52 -41 -67 -17 0
36 -8 -45 -28 0
-22 -60 -6 56 0
51 68 7 -54 0
-48 -22 27 58 0
35 2 51 63 0
-30 1 -18 2 0
-38 19 -47 -41 0
-30 55 -4 -53 0
20 58 17 44 0
57 -60 -36 -19 0
-12 -19 -27 5 0
27 -14 -44 -28 0
42 -9 -31 -26 0
29 25 67 -70 0
-36 37 25 15 0
12 14 -59 54 0
-50 -12 -32 39 0
63 -44 47 55 0
-65 -22 21 -33 0
-55 -13 -54 69 0
-63 24 58 22 0
40 -11 57 -15 0
-23 -5 -11 44 0
-15 -39 -10 14 0
-45 -62 7 -34 0
-40 -47 -54 21 0
15 -48 70 -10 0
-9 -12 37 -56 0
2 -13 -7 -39 0
-3 -37 36 45 0
-15 3 -22 20 0
-50 3 -30 69 0
59 70 -39 9 0
65 -5 -14 -56 0
-14 -55 -34 9 0
68 -54 25 -58 0
64 31 -69 -10 0
-36 45 -47 41 0
38 -23 49 44 0
52 29 20 37 0
-64 -15 5 -60 0
60 29 40 -34 0
69 -12 41 3 0
-67 16 51 -11 0
-39 -44 -25 -65 0
-63 -46 -70 41 0
5 -13 -31 27 0
-8 -26 21 57 0
43 4 62 65 0
-63 -59 -29 42 0
-44 34 -39 -2 0
46 27 57 -49 0
5 21 -67 -8 0
-1 65 -4 -17 0
34 17 -69 -56 0
56 -61 43 -31 0
14 -47 -23 -1 0
17 -37 -6 48 0
-6 -59 -19 22 0
-35 -23 32 -3 0
36 59 -34 -52 0
37 41 -63 13 0
42 -3 -58 -55 0
2 -66 68 48 0
-32 7 51 25 0
6 35 -66 36 0
15 -28 -24 43 0
43 58 18 -35 0
-34 13 58 -68 0
39 -4 18 34 0
-40 56 50 -5 0
4 -44 65 39 0
-47 -34 58 -25 0
-57 5 -36 56 0
-10 -7 21 50 0
38 -8 -59 -10 0
-42 -66 36 -14 0
2 40 -58 30 0
31 12 -9 41 0
-58 35 -65 40 0
-22 67 -7 56 0
55 19 63 45 0
-16 -57 -59 -52 0
68 -27 43 -46 0
30 27 -6 -21 0
21 42 -49 43 0
-41 28 -12 68 0
22 4 -2 -53 0
-24 -3 -64 -22 0
10 -36 63 -20 0
44 -56 -48 4 0
49 -54 21 -3 0
2 -4 15 12 0
24 -9 -58 -27 0
63 66 -19 57 0
-27 -4 -56 1 0
-36 -50 48 14 0
-48 -32 19 -9 0
29 31 -53 -27 0
-34 37 -69 -35 0
56 64 -32 2 0
14 -46 -52 2 0
-19 -52 33 13 0
53 -68 -49 37 0
52 61 9 14 0
27 -15 -1 -38 0
4 7 54 -22 0
-61 -62 46 -63 0
-21 -47 27 -54 0
50 -1 18 62 0
50 -40 15 36 0
-60 33 -1 38 0
-27 -52 19 69 0
-32 -41 20 -48 0
23 -32 -35 64 0
-48 44 -43 41 0
-31 -62 -29 -16 0
19 6 -17 -57 0
22 -69 23 8 0
-28 -29 -21 7 0
-19 -32 41 -55 0
35 -17 -70 -52 0
-10 19 37 -50 0
41 63 -32 -50 0
13 34 60 50 0
-9 -7 52 -43 0
-45 -22 -3 27 0
8 -63 18 66 0
-70 31 39 -8 0
32 17 -62 2 0
-70 -45 55 21 0
-33 -65 11 44 0
26 -20 -42 31 0
-22 28 18 -52 0
66 27 -67 -16 0
62 -10 56 66 0
32 -11 44 2 0
63 -28 -55 29 0
52 27 69 -9 0
-12 -48 -20 -2 0
6 27 55 -16 0
-44 -28 -40 54 0
49 35 15 60 0
52 37 -23 6 0
-45 57 -62 -2 0
19 -17 3 -12 0
33 67 19 -36 0
13 -22 10 47 0
60 45 -47 -35 0
34 49 63 -19 0
2 36 18 -61 0
-25 33 6 59 0
17 -21 -65 66 0
-31 20 -51 -54 0
24 -52 -70 18 0
58 41 -30 -54 0
-21 -9 55 26 0
-41 39 -8 -23 0
50 46 3 -67 0
21 7 -32 9 0
-19 43 28 -16 0
-16 -47 -35 63 0
-10 50 -13 -18 0
-2 -18 47 -69 0
-24 -48 -51 42 0
25 34 -50 -47 0
27 -14 -13 32 0
-36 41 -50 45 0
12 27 30 -18 0
-14 -32 53 -40 0
44 40 11 25 0
35 34 -54 -29 0
-22 1 -70 -53 0
-4 27 21 -30 0
-22 -45 33 11 0
-27 48 -22 69 0
-22 -5 -37 48 0
-18 21 -67 -33 0
-58 42 -36 -41 0
66 -32 -30 18 0
45 -12 44 -20 0
-8 -66 -39 -38 0
-33 -7 8 -67 0
9 -29 -60 43 0
-30 -8 -17 -39 0
20 -47 -42 -64 0
-34 -8 -27 -29 0
-43 9 -58 -41 0
5 -24 -39 66 0
41 -50 -59 -43 0
10 -17 40 49 0
59 -31 51 -35 0
31 61 28 63 0
55 -2 -67 -35 0
23 -7 -11 43 0
-68 -59 27 -56 0
57 59 1 22 0
-65 -18 25 -61 0
-27 12 41 60 0
-5 -20 65 -47 0
59 -48 -37 11 0
61 -50 -44 14 0
-70 63 39 -32 0
-38 -42 13 -17 0
23 -70 61 68 0
60 69 42 50 0
-61 49 21 32 0
5 -42 67 69 0
-23 -46 -26 18 0
20 -21 19 7 0
-52 -23 -48 -6 0
-45 60 -8 -7 0
64 5 30 -65 0
54 -22 -12 -18 0
7 2 58 19 0
-36 -32 37 28 0
-43 -17 -47 41 0
54 -55 17 16 0
23 39 -41 -53 0
-16 4 -1 -64 0
43 -2 -64 -14 0
-64 -23 -68 38 0
