c family=4-SAT n=70 instance=9 seed=726001144 models=4
c order 62 44 53 67 14 10 58 56 6 24 13 60 20 29 37 17 35 59 18 42 36 19 21 39 2 52 57 63 28 47 51 45 26 70 23 30 43 66 7 16 3 31 41 49 32 4 15 54 69 68 55 48 46 40 34 38 12 1 61 11 22 8 9 65 27 33 5 64 25 50
c order 39 27 63 3 7 53 66 25 22 48 69 55 37 54 60 14 59 12 15 56 61 50 58 19 33 49 70 20 47 30 11 57 8 9 32 21 13 52 4 45 38 31 67 34 6 29 41 40 24 28 36 51 23 18 2 68 42 43 26 17 35 62 10 64 16 44 1 65 46 5
c order 61 45 64 51 32 23 19 18 8 16 48 42 39 56 24 9 62 60 3 13 34 70 12 20 26 38 69 65 29 37 54 2 49 53 47 44 43 55 17 52 30 11 40 21 28 33 10 41 36 15 27 58 25 31 68 67 35 22 5 57 50 66 14 46 59 63 7 4 6 1
c order 43 2 17 39 55 46 49 9 5 50 25 8 33 11 22 53 4 67 38 15 57 1 51 31 64 3 66 21 40 70 27 36 58 24 26 54 12 30 62 34 23 20 29 45 28 68 19 7 6 44 52 63 32 48 60 47 10 41 13 42 16 56 35 61 18 65 59 69 14 37
c order 13 2 7 14 67 58 70 41 49 34 20 45 11 16 3 36 42 53 26 38 52 37 10 64 50 12 61 17 44 68 27 40 30 29 9 19 5 55 54 6 39 48 66 1 57 31 56 65 22 25 63 32 15 60 4 43 24 18 21 33 8 69 59 51 46 35 62 47 28 23
c order 16 69 23 31 4 70 24 17 32 48 28 3 68 42 22 18 11 33 59 8 14 43 39 54 58 65 67 46 6 35 56 15 52 60 25 63 9 29 49 66 37 7 19 1 38 21 57 34 55 36 53 51 40 26 10 5 62 50 44 27 12 47 41 64 30 13 45 2 20 61
c order 17 38 16 24 29 64 31 34 68 23 15 28 30 22 9 6 21 2 35 53 52 57 45 18 60 36 20 14 55 56 10 50 25 37 59 8 13 7 58 1 44 41 62 19 51 49 67 5 43 47 65 66 61 40 12 69 70 33 32 4 39 63 26 54 48 27 11 46 3 42
c order 63 41 59 66 58 54 50 3 2 19 27 1 44 64 9 28 43 12 23 26 4 46 53 16 20 33 29 57 51 55 30 48 32 11 42 22 37 13 65 45 10 60 36 68 6 17 14 49 39 7 56 18 52 24 34 8 25 40 35 69 62 61 70 21 5 31 38 47 15 67
c order 25 58 35 20 36 18 23 29 10 5 70 37 26 67 55 47 51 68 48 54 9 2 43 24 15 4 69 27 34 61 32 40 7 8 44 6 11 45 22 31 46 33 1 13 66 21 50 57 14 28 53 60 39 52 41 3 19 38 59 42 17 63 16 65 56 64 30 62 12 49
c order 45 26 52 32 51 38 22 27 70 15 56 10 58 68 50 3 25 61 67 23 4 49 43 65 47 19 12 40 63 13 17 31 2 28 57 18 60 16 11 54 39 64 42 30 34 35 62 24 6 29 14 1 21 59 53 8 36 41 48 69 7 5 46 9 55 66 37 44 33 20
p cnf 70 672
-57 -34 43 68 0
29 12 20 5 0
21 -52 -22 27 0
-58 4 29 42 0
20 -57 47 -63 0
-21 63 66 -59 0
52 1 -14 -40 0
36 -16 -57 -6 0
-8 -1 -43 9 0
21 -14 29 -23 0
32 70 -56 -68 0
41 -18 51 35 0
68 -27 34 13 0
-46 -15 -41 -35 0
8 44 -14 -53 0
-50 58 16 -35 0
16 -60 -36 51 0
54 -67 25 70 0
-10 52 9 -13 0
45 -57 42 -24 0
39 4 38 -18 0
67 30 29 27 0
-59 11 38 -33 0
11 -6 -19 54 0
-61 9 -14 13 0
59 -21 23 -51 0
3 -38 13 48 0
-64 -46 27 -51 0
56 -57 -9 -48 0
5 -26 -61 25 0
-53 -33 70 -41 0
-45 61 -12 -53 0
-2 -5 -39 49 0
36 -26 10 51 0
67 26 29 -56 0
26 -35 9 -67 0
-15 -19 67 -40 0
18 -25 3 -62 0
53 13 49 -58 0
19 8 30 -24 0
65 5 -66 -55 0
23 -50 -25 -53 0
-28 -60 -9 12 0
-35 45 -64 -66 0
27 -29 -19 -63 0
12 -65 50 -41 0
-13 -2 -63 -54 0
-41 3 -2 42 0
56 -52 35 5 0
62 3 -9 17 0
-51 -28 -18 -7 0
3 66 61 -29 0
61 -62 21 -33 0
52 -1 -54 21 0
51 37 15 14 0
-32 16 -11 28 0
-37 -48 -57 44 0
-3 27 40 -50 0
40 28 42 -6 0
2 15 38 -51 0
23 -52 46 8 0
19 33 -35 -64 0
42 -37 -13 22 0
-15 28 -4 -63 0
48 -40 -27 -66 0
63 -36 -47 11 0
59 -5 -65 -70 0
-24 55 11 -69 0
-69 -36 54 41 0
30 51 -41 49 0
13 24 11 -20 0
-70 50 45 -66 0
-3 -17 -12 -69 0
66 13 -3 42 0
58 37 -51 19 0
42 -51 -48 -65 0
29 -13 25 39 0
-53 70 2 3 0
-51 45 -43 -14 0
-26 17 34 47 0
67 -68 10 4 0
-14 -16 -26 -8 0
20 38 58 11 0
-15 31 49 -57 0
-37 24 62 -52 0
6 42 34 58 0
31 -21 42 1 0
22 50 -14 43 0
15 19 12 -46 0
23 36 14 -35 0
-15 18 70 44 0
-26 43 -36 -5 0
-16 -18 8 -11 0
-38 55 -41 -45 0
-40 -19 -29 -9 0
14 56 13 15 0
-52 -25 -38 -55 0
-69 44 -27 54 0
-41 -38 36 -15 0
-51 39 -2 -9 0
-15 -42 28 -36 0
26 19 -62 57 0
-25 48 35 32 0
30 -24 52 -58 0
-23 17 -1 29 0
-51 59 50 68 0
51 41 27 -53 0
-13 21 -15 39 0
41 26 -2 9 0
-39 57 60 -4 0
-53 34 38 -21 0
56 38 -31 -14 0
-28 -61 -18 27 0
59 47 -58 42 0
-62 -69 -1 -51 0
-25 -34 -66 -68 0
-36 -2 61 -45 0
-59 -22 68 44 0
27 59 -39 -7 0
-19 -52 -11 -24 0
56 -43 50 21 0
-2 51 -52 -55 0
18 -50 -6 4 0
24 -34 17 63 0
52 48 -30 13 0
1 -67 17 -39 0
19 -64 51 -45 0
-29 -65 -22 66 0
-14 64 -45 55 0
19 42 -35 -40 0
20 47 -35 -48 0
45 -61 -57 12 0
-46 -18 -23 -14 0
69 -44 19 23 0
-32 20 27 -70 0
-68 33 -37 4 0
23 69 50 -21 0
42 -19 57 17 0
-12 21 57 -56 0
5 36 -22 37 0
52 -44 14 -20 0
-54 13 39 10 0
31 12 58 51 0
49 54 45 -26 0
-62 42 43 -50 0
-50 -58 -40 28 0
35 -14 -45 -9 0
-68 -37 7 -45 0
-57 -58 68 -47 0
18 -27 58 12 0
-44 -64 -38 14 0
-36 53 7 8 0
52 22 13 28 0
64 -52 19 -23 0
40 4 -57 -46 0
-44 68 -5 -55 0
50 -62 47 -25 0
-8 -68 -19 -1 0
29 63 24 -8 0
15 -2 20 64 0
-18 -30 6 12 0
-15 38 -69 -13 0
33 -9 67 -23 0
-2 -45 -50 12 0
-2 20 14 -59 0
-54 38 -45 -12 0
-65 28 -22 8 0
16 8 -39 42 0
29 -67 -54 -45 0
32 47 -43 67 0
34 -28 -65 9 0
-2 67 -58 49 0
17 -58 34 -35 0
10 30 37 3 0
-15 10 38 -53 0
-46 22 55 -9 0
-63 62 -54 -24 0
-1 65 40 -54 0
-25 53 -6 59 0
42 30 -59 -33 0
-8 -7 -42 -62 0
-2 -54 -16 70 0
-34 -14 7 -58 0
-6 63 -67 29 0
-12 37 42 53 0
16 -69 -34 5 0
-25 -2 19 -21 0
65 7 31 22 0
-54 25 66 35 0
-35 23 -54 50 0
26 -13 24 -47 0
15 -33 -59 44 0
43 1 67 4 0
6 15 44 -40 0
40 14 42 -53 0
30 48 -43 40 0
63 -58 -1 21 0
-14 47 29 69 0
31 5 -63 6 0
65 32 67 -64 0
-26 -69 -54 -41 0
5 -37 -14 -23 0
64 -10 -7 -43 0
18 -52 -25 -69 0
3 -24 -42 5 0
-6 65 33 42 0
-13 -18 9 47 0
-20 -64 38 -34 0
20 58 4 11 0
65 -22 60 -52 0
16 26 69 -6 0
-20 -32 19 -68 0
-8 39 -35 70 0
-57 35 -50 -47 0
-33 1 16 48 0
-69 -65 25 -51 0
52 -43 -10 27 0
61 -47 59 2 0
60 -48 -40 -29 0
-16 -54 -19 -2 0
51 64 21 -11 0
-53 66 -17 42 0
63 -67 -35 58 0
16 -42 34 43 0
-42 14 -28 -4 0
-33 -50 36 -32 0
-21 -22 -48 -9 0
23 -21 62 -70 0
-2 5 -63 -35 0
-68 -19 9 -33 0
25 -9 52 70 0
59 -6 -60 -40 0
5 -49 -22 46 0
63 62 44 -25 0
68 -31 52 70 0
21 -64 -3 -19 0
-18 -57 64 -60 0
7 -65 13 -28 0
54 -7 -56 35 0
53 8 -6 51 0
-25 29 -56 26 0
17 -65 63 -16 0
-31 55 -39 51 0
-14 50 10 -58 0
23 62 38 -9 0
-18 64 -68 -20 0
-64 -39 2 -16 0
69 -23 53 70 0
-36 37 -5 -20 0
-36 13 -31 3 0
34 31 67 -33 0
60 -54 -31 -69 0
48 -6 37 19 0
18 -65 -52 -36 0
14 33 -50 -16 0
15 -56 46 -40 0
28 8 -51 53 0
11 -60 -17 -16 0
15 -21 -65 28 0
-28 51 -13 64 0
29 -59 9 -65 0
51 -41 13 18 0
-3 -56 21 17 0
40 -15 -13 -44 0
44 -54 11 49 0
25 54 61 -18 0
66 48 29 17 0
-44 -59 68 8 0
-11 -26 -32 -15 0
-53 30 -59 33 0
-30 -36 -61 -7 0
-18 -65 -68 -55 0
68 53 26 -11 0
12 -21 -69 -49 0
-12 -28 -51 44 0
-40 4 31 -63 0
-23 -42 -34 -65 0
-51 -44 -23 -58 0
47 32 -51 62 0
-1 35 42 47 0
26 6 -31 -65 0
40 -31 -33 -62 0
63 -58 -50 31 0
-49 68 20 -39 0
-66 -24 -15 -52 0
-49 4 -47 -3 0
-32 39 67 43 0
-23 14 -52 -70 0
-48 54 50 -35 0
-2 25 -14 51 0
5 40 -70 -12 0
-5 15 51 61 0
-39 48 69 -58 0
-4 41 -7 -6 0
-38 23 20 10 0
-7 -57 32 21 0
25 56 69 28 0
38 64 6 -34 0
12 5 -16 -68 0
4 -58 64 -23 0
38 -3 46 -50 0
51 17 35 -41 0
-8 13 46 16 0
8 5 -61 -10 0
63 -42 49 -70 0
-23 44 29 -46 0
57 26 -25 24 0
-27 -8 66 -20 0
47 48 27 -12 0
-38 -65 -32 11 0
31 37 -49 -22 0
-47 59 -43 -4 0
34 -43 -27 -28 0
40 -35 10 -36 0
9 -31 37 15 0
16 -2 -53 -13 0
27 55 5 14 0
18 20 42 -47 0
-1 -52 49 69 0
-54 63 -13 21 0
28 -17 -46 33 0
-9 1 36 33 0
41 21 -46 15 0
20 51 -47 64 0
-31 12 -28 -33 0
38 -10 31 -70 0
32 -63 -3 70 0
1 -63 52 -20 0
-62 6 -14 20 0
41 13 38 11 0
51 62 -58 -38 0
9 -4 -14 -51 0
29 -14 -30 -25 0
-25 -53 47 -68 0
38 -4 -22 7 0
-41 -45 67 55 0
-24 18 64 -23 0
13 -11 58 4 0
1 -35 15 -64 0
47 -10 13 57 0
-31 11 -29 51 0
-40 50 16 -43 0
29 41 -59 3 0
-28 11 -64 36 0
47 -6 52 66 0
-44 -43 -21 9 0
-12 55 -32 67 0
-2 25 41 -20 0
-42 40 61 -53 0
45 -66 -42 58 0
-4 -69 60 -53 0
60 28 19 -52 0
-18 -23 34 42 0
-15 43 60 -31 0
-62 55 42 39 0
-11 -5 -52 63 0
6 -64 -20 19 0
-13 -33 -15 69 0
-9 -70 47 29 0
-12 -14 -23 -24 0
-11 -13 43 -50 0
56 -35 -52 -45 0
21 17 54 -46 0
50 -65 -53 -60 0
-37 23 -16 -52 0
-23 12 -17 -48 0
-2 -28 34 -41 0
-30 54 -35 13 0
-48 -66 -69 -35 0
-56 49 18 -17 0
56 -16 -63 69 0
-47 -65 33 36 0
-54 37 -26 -50 0
-6 42 -67 -64 0
44 -10 59 -8 0
-58 -13 -65 38 0
-60 -36 -37 -42 0
-62 53 46 -12 0
-62 18 60 -3 0
-55 -34 53 -24 0
-52 50 -25 -66 0
27 -64 -48 -62 0
30 62 52 -38 0
16 -56 37 -45 0
33 24 36 -18 0
59 21 6 54 0
-62 20 40 -7 0
70 12 -42 -38 0
-60 12 8 -32 0
-46 -53 19 64 0
7 -33 16 28 0
-70 -68 -57 -65 0
52 6 2 -9 0
36 -65 -58 -54 0
-47 49 32 58 0
60 37 33 68 0
32 -65 26 54 0
48 -3 -14 17 0
68 36 -57 -51 0
-2 -68 -33 -38 0
-30 8 -26 -56 0
-66 -58 1 41 0
-56 -28 61 -42 0
31 40 39 15 0
-2 -61 62 68 0
27 -1 3 -8 0
54 -66 30 21 0
-69 40 11 -50 0
-30 -55 9 -47 0
60 -48 34 41 0
37 10 2 53 0
15 32 -42 -49 0
-46 -13 40 49 0
8 -15 -53 -57 0
33 -30 -63 -58 0
-30 48 -54 47 0
34 -41 -38 -26 0
-60 41 2 21 0
16 -43 -54 7 0
-47 25 -53 -27 0
51 36 29 -4 0
5 -68 62 -54 0
-26 -4 7 -38 0
-52 -5 48 60 0
-3 -56 11 -59 0
-62 13 -37 20 0
-18 45 -28 23 0
27 68 -33 -36 0
50 61 -70 -16 0
-31 55 -9 -52 0
-36 42 -49 70 0
48 31 29 -17 0
24 15 20 -44 0
-39 36 -18 12 0
-13 -26 -27 -21 0
-61 69 -68 59 0
-50 -67 -11 -53 0
41 -33 58 -1 0
47 -26 -19 5 0
35 26 55 14 0
31 47 55 -7 0
62 -14 61 -37 0
-56 -60 -48 13 0
36 59 65 1 0
-30 -44 10 59 0
42 41 -22 -52 0
41 -63 67 18 0
-30 38 -40 11 0
-52 -10 31 40 0
12 26 -61 38 0
-30 -28 1 -6 0
-29 44 -47 48 0
-63 -37 -67 28 0
-31 53 -55 5 0
70 46 55 -24 0
-33 49 62 -65 0
-67 28 -57 -37 0
-52 35 -55 2 0
5 47 -8 50 0
22 -58 69 -30 0
-18 -60 48 -58 0
-6 -18 15 34 0
-62 -41 -37 -30 0
23 6 60 -7 0
-35 -33 20 38 0
2 54 11 -41 0
14 34 -7 -56 0
-22 -25 41 -27 0
-24 -15 -44 54 0
-21 65 69 23 0
37 53 -69 -18 0
58 45 -24 4 0
-24 -35 19 66 0
48 47 -13 32 0
21 40 -59 66 0
48 -11 56 22 0
56 -47 -17 -6 0
10 36 -47 -4 0
45 23 70 2 0
16 46 -35 -9 0
44 -53 -41 2 0
-34 -50 -36 68 0
56 43 -39 61 0
35 -68 57 -17 0
-12 -11 -56 -13 0
39 -35 8 -32 0
5 66 12 -68 0
26 -67 23 -55 0
-54 -9 27 -60 0
-60 32 -36 -37 0
-13 19 37 61 0
20 36 40 -1 0
-7 -19 -18 -57 0
56 -50 -10 25 0
-66 -58 -32 67 0
-26 -52 64 -42 0
22 8 57 -19 0
68 -8 5 56 0
-23 -4 46 -55 0
66 -9 -14 -47 0
-64 -22 -12 -8 0
6 -34 51 -15 0
-15 25 -8 34 0
21 -58 -6 -1 0
-29 -45 39 62 0
41 37 62 68 0
60 7 -32 19 0
-39 -2 66 -20 0
-9 14 -18 -1 0
4 -56 69 50 0
-5 -9 13 -2 0
44 -60 10 -56 0
56 52 -25 -58 0
-26 46 -3 -18 0
46 -13 5 -59 0
52 48 -47 18 0
-33 -19 26 49 0
-15 -64 -9 -59 0
-20 -56 2 7 0
-66 22 -19 13 0
-36 32 3 -37 0
-30 -47 16 40 0
59 18 28 -61 0
-65 6 41 -57 0
40 50 38 26 0
-58 31 -61 55 0
-14 6 -45 -18 0
-29 26 -17 37 0
-2 32 -28 8 0
65 -27 4 31 0
64 -69 -14 -50 0
-22 35 -61 -68 0
48 -67 45 46 0
-8 -23 64 -22 0
-67 12 -18 22 0
17 -52 39 21 0
-60 45 3 41 0
-35 8 2 -56 0
12 -10 -49 -8 0
2 4 17 -24 0
15 64 -68 59 0
51 -55 -14 -23 0
-59 -63 17 -55 0
-63 -41 -46 -24 0
-25 44 1 -51 0
56 54 33 58 0
-33 39 40 54 0
51 -59 5 -25 0
37 -31 9 19 0
-37 -5 -42 1 0
-17 -20 39 -36 0
11 -39 41 30 0
20 -68 39 15 0
-58 -64 -1 63 0
1 -14 28 -6 0
-51 -57 13 -50 0
70 41 59 22 0
36 -57 47 41 0
21 24 66 -56 0
-30 -70 51 -62 0
8 29 -26 38 0
-35 -66 60 -47 0
-21 54 41 23 0
47 62 -43 -64 0
-8 -37 -29 -66 0
52 37 60 39 0
-6 26 12 46 0
-52 38 -66 -64 0
-8 -57 7 3 0
-9 -50 -54 47 0
-21 52 -36 -56 0
47 27 40 50 0
-28 -42 44 58 0
-64 -55 -14 -45 0
-13 -62 50 40 0
32 -44 -5 13 0
4 34 44 -23 0
1 -41 -5 7 0
-1 -66 65 60 0
-37 68 21 33 0
18 -8 -60 41 0
-29 57 -64 -49 0
-8 -55 -45 54 0
51 -43 -36 -48 0
-46 2 -58 16 0
-10 63 -65 -61 0
-7 3 -2 26 0
-69 51 -12 1 0
64 55 -46 15 0
31 -67 -52 -36 0
15 51 9 69 0
27 -17 39 9 0
-29 -6 -5 -58 0
-45 -51 -41 -12 0
-69 14 5 -45 0
-65 -70 24 -35 0
57 -70 -47 -26 0
40 -28 -18 -23 0
-63 4 -62 52 0
3 58 40 -19 0
-11 67 53 -51 0
63 -48 36 64 0
52 -15 -50 14 0
-26 23 33 59 0
-64 21 -50 37 0
-61 3 15 -45 0
-54 -40 30 -45 0
-3 -51 68 -46 0
2 10 11 -15 0
-48 -58 -24 64 0
-53 -36 -54 69 0
45 -55 38 -68 0
28 51 25 -41 0
-58 49 63 -30 0
5 13 31 36 0
19 -58 30 63 0
-30 7 62 9 0
34 -30 -16 55 0
-34 -33 20 -22 0
28 -69 35 26 0
-62 -2 69 -29 0
-12 61 29 -39 0
68 23 47 8 0
48 -50 -1 -12 0
13 51 43 -56 0
-13 70 -68 48 0
-18 41 -25 39 0
38 1 70 -4 0
22 26 -10 -68 0
-68 41 -57 2 0
49 -41 67 24 0
63 58 26 -45 0
-66 63 -39 -53 0
60 21 -46 -31 0
63 16 -11 34 0
24 -58 16 -59 0
22 39 69 29 0
-17 -51 37 28 0
4 -41 -21 37 0
-8 54 -63 57 0
70 34 30 -54 0
15 65 31 27 0
-49 28 4 -50 0
-15 39 -53 62 0
25 -32 -47 21 0
-67 57 16 -29 0
69 39 -21 27 0
-30 -38 -28 -63 0
61 -46 64 53 0
-62 -49 31 -16 0
-67 12 -30 -6 0
-14 58 -15 -48 0
26 -48 31 12 0
-64 -25 2 60 0
-19 10 23 -24 0
25 69 -3 -23 0
-66 68 3 -25 0
-8 11 60 -4 0
50 65 18 -5 0
-26 -22 53 51 0
-48 -32 -34 -16 0
-70 48 -57 -10 0
55 -18 -32 -33 0
15 -56 -59 54 0
-34 24 -5 -13 0
7 20 68 -58 0
59 18 -62 -7 0
-16 33 -20 -15 0
-63 32 -47 -39 0
19 38 52 -1 0
-60 -7 61 -20 0
-4 -26 -22 29 0
