c family=4-SAT n=70 instance=1 seed=726001144 models=6
c order 58 15 35 69 46 42 20 37 21 57 52 45 59 38 29 54 4 10 18 17 61 26 5 40 11 19 49 55 47 6 51 41 48 16 63 14 60 2 64 34 13 1 62 39 28 33 25 56 67 24 8 70 27 22 23 30 50 12 66 53 36 31 68 9 32 65 43 44 7 3
c order 58 15 5 39 66 54 57 60 52 16 22 25 59 19 43 40 34 62 49 14 32 28 27 61 55 24 6 21 64 18 44 41 8 30 47 7 35 20 63 70 26 69 17 45 56 33 68 65 29 53 2 46 4 50 11 1 13 3 23 42 48 31 36 9 10 67 12 51 37 38
c order 49 20 42 18 27 52 51 43 40 23 1 2 47 58 31 60 3 14 69 62 59 34 48 37 13 29 32 66 33 38 67 46 54 63 11 26 61 24 30 21 45 64 55 53 16 6 10 17 9 68 44 35 36 25 39 4 15 41 12 5 65 28 56 50 19 7 8 70 22 57
c order 25 59 37 56 41 32 30 39 43 31 11 5 9 47 26 18 68 6 13 27 33 16 29 58 17 60 63 69 54 45 7 62 52 22 4 55 51 44 42 70 10 40 46 61 38 21 53 23 1 14 12 2 65 3 34 67 57 24 49 15 50 19 64 36 28 8 35 20 48 66
c order 18 22 57 54 70 5 2 26 6 19 53 9 21 33 35 34 46 15 8 39 59 32 56 48 25 65 42 14 13 38 23 50 47 55 64 3 27 1 11 45 20 7 49 63 43 29 37 62 36 16 67 40 51 10 28 66 61 68 31 41 52 60 30 12 69 58 24 4 44 17
c order 2 5 31 55 7 17 28 15 50 65 30 63 60 62 59 38 14 8 52 48 4 40 10 25 13 16 66 54 39 12 3 67 58 57 20 68 22 49 23 21 61 53 42 29 35 70 69 45 41 33 6 24 18 32 46 26 1 11 36 27 9 47 19 51 43 56 37 44 64 34
c order 27 61 54 23 40 33 56 37 19 44 9 70 15 45 68 24 3 6 30 49 55 14 2 10 4 16 41 7 52 8 43 20 25 51 21 58 38 28 36 50 34 63 22 39 26 18 66 62 12 35 1 48 65 11 59 31 57 29 60 17 42 46 5 32 64 67 53 69 13 47
c order 68 19 67 14 37 31 16 62 53 46 40 3 32 65 11 64 18 58 12 22 23 57 43 17 33 38 59 55 50 25 44 6 69 52 35 51 13 8 49 70 20 42 41 36 45 48 7 60 4 28 66 15 1 9 10 29 61 21 27 26 56 30 63 34 2 24 47 54 39 5
c order 7 22 33 50 57 38 42 47 37 40 16 66 64 29 43 17 9 46 1 10 53 70 56 52 51 8 12 65 3 31 63 27 62 24 15 39 55 20 26 59 28 19 60 32 21 30 68 2 23 34 14 69 41 45 35 49 5 44 54 4 13 25 18 61 58 67 48 6 36 11
c order 51 3 46 60 28 12 33 25 29 16 7 37 50 58 18 62 42 21 65 31 64 27 9 41 15 36 6 32 4 48 69 44 8 20 54 11 22 43 70 1 63 49 55 59 40 34 23 17 14 68 24 19 52 47 66 5 61 2 57 53 45 39 30 26 35 38 67 13 56 10
p cnf 70 672
-27 43 -44 -67 0
-8 37 57 44 0
-35 -28 44 9 0
62 -46 60 39 0
26 39 -44 41 0
49 -1 57 -36 0
-10 47 -52 -64 0
18 38 70 -67 0
16 49 -56 -53 0
-8 -54 25 24 0
-19 56 42 15 0
5 -39 -49 -36 0
-36 -14 65 -59 0
-61 31 19 59 0
-18 -12 59 20 0
21 -34 27 -15 0
-17 -21 -27 -44 0
-24 67 66 -14 0
-63 -26 -23 31 0
57 35 -33 14 0
66 -67 -50 -52 0
11 37 -62 24 0
-63 16 65 -15 0
-66 11 -57 37 0
-68 -69 49 41 0
7 -62 37 57 0
39 53 44 5 0
10 -21 -50 15 0
-18 -7 25 -28 0
62 -31 -61 -27 0
40 -54 56 30 0
-1 64 68 43 0
52 65 -27 -26 0
-57 -2 3 -26 0
17 -5 -49 44 0
9 -16 63 17 0
49 -19 69 -58 0
-63 56 18 -50 0
23 -6 40 27 0
-35 20 -43 -33 0
14 50 49 -8 0
68 -56 -22 -19 0
-9 60 47 -19 0
57 50 -17 -14 0
25 60 13 42 0
-23 -50 -22 -36 0
-8 -46 -12 41 0
1 32 12 3 0
-13 9 48 18 0
-34 15 33 38 0
66 -37 19 -55 0
-36 25 -8 21 0
-59 65 -45 8 0
57 34 -60 -46 0
63 -59 56 -10 0
-66 -34 57 -18 0
63 -9 4 22 0
-39 -9 -31 -65 0
55 -42 -17 2 0
-23 9 -1 -50 0
-28 -60 -56 -9 0
40 51 23 36 0
-70 19 -21 36 0
29 -56 -57 37 0
6 -62 17 50 0
-45 -53 12 -60 0
9 -22 48 -60 0
-6 -37 58 -13 0
-41 60 40 -22 0
2 33 25 36 0
-9 -31 -20 -11 0
1 -19 42 -25 0
12 47 6 -1 0
-58 24 39 -42 0
25 48 -62 23 0
61 -62 47 -25 0
-33 39 60 -65 0
-7 -39 34 65 0
2 -53 -36 -67 0
-15 1 -14 19 0
-17 -2 -7 -43 0
44 46 51 25 0
-9 62 -21 -30 0
9 12 -17 -45 0
-36 -62 23 43 0
-14 -32 -54 -46 0
8 -23 -59 -22 0
35 53 52 37 0
-35 -57 67 33 0
-12 39 66 -46 0
-36 -7 -1 -14 0
29 8 -31 -40 0
65 38 29 -55 0
-35 23 64 -19 0
33 -8 -62 -14 0
-29 -14 -40 28 0
31 37 14 58 0
-10 19 -47 -51 0
-29 -14 -56 50 0
3 61 -28 -11 0
-24 -9 29 -38 0
10 28 7 56 0
-59 -29 -14 -44 0
4 63 27 55 0
42 -30 44 -64 0
-18 2 -7 -60 0
52 -32 -8 -69 0
46 -68 -9 22 0
-59 12 -52 6 0
54 -62 68 -5 0
-59 -34 -8 53 0
66 -21 54 52 0
57 -55 46 -35 0
-1 39 16 55 0
46 5 -24 -30 0
-10 6 -30 -37 0
-13 56 20 24 0
-13 9 -39 -57 0
-7 41 -50 59 0
45 -10 -52 34 0
26 -50 -14 45 0
-70 30 -2 31 0
63 24 -69 29 0
36 70 51 65 0
-43 -53 -29 -44 0
-2 61 -49 -68 0
55 12 -29 -11 0
-25 13 1 -31 0
69 64 -31 -1 0
-15 45 14 -1 0
-13 68 2 -18 0
70 4 -57 -49 0
16 -23 22 60 0
-5 -7 58 -47 0
61 2 53 -42 0
5 68 64 -18 0
-58 -39 -46 10 0
26 33 57 -30 0
14 -40 50 -5 0
-60 40 24 -28 0
67 32 -43 5 0
21 38 -52 -61 0
46 -40 -62 54 0
-57 -42 -39 41 0
-10 27 -14 26 0
64 15 -59 -21 0
-23 29 18 -43 0
25 -47 1 -26 0
-59 -40 68 -33 0
22 57 -70 -63 0
21 63 -28 -1 0
14 -46 63 -23 0
-46 -63 -40 50 0
-50 -16 6 37 0
13 54 46 66 0
54 -20 56 57 0
-63 -35 -54 56 0
-30 37 28 63 0
-58 -16 9 -14 0
1 40 25 26 0
-60 -45 -12 67 0
17 11 8 22 0
-70 2 -12 -45 0
24 28 5 -2 0
43 -37 36 20 0
31 9 -63 67 0
-9 33 5 -41 0
19 41 -10 -25 0
-38 -15 24 -31 0
3 -51 30 -5 0
62 67 52 24 0
21 -48 33 -60 0
36 -4 24 43 0
67 -9 -30 52 0
60 -64 23 27 0
54 -63 -11 61 0
35 53 6 -69 0
59 62 20 -44 0
-58 -29 52 -37 0
28 32 27 -26 0
15 13 48 60 0
18 67 -14 -45 0
-13 11 50 -59 0
22 48 -40 -38 0
-37 69 19 -49 0
-49 -17 -42 69 0
-47 -13 -27 -34 0
27 -15 -60 8 0
-51 17 -58 22 0
15 -62 -9 -36 0
38 -15 47 -66 0
20 -66 21 -27 0
-31 -51 -64 39 0
37 -11 26 -5 0
63 -38 -1 61 0
2 -17 -25 19 0
35 20 49 -15 0
-56 32 -15 -48 0
-14 -40 29 -6 0
-19 -66 38 21 0
16 -52 -15 21 0
16 -2 -53 -41 0
-9 -54 -32 38 0
-57 -17 -48 -32 0
56 -54 13 -52 0
-25 27 67 58 0
7 57 -42 -69 0
32 16 -4 42 0
26 16 -15 -45 0
28 -46 -33 -31 0
-68 -52 -19 67 0
-44 -39 26 -6 0
-63 30 -62 1 0
-64 -17 32 -18 0
-23 -1 -35 -55 0
-34 31 -29 59 0
48 -27 -40 -1 0
-36 26 19 70 0
33 27 49 57 0
64 28 55 -24 0
-41 52 43 31 0
62 59 -50 -69 0
63 -18 -7 -67 0
41 -49 17 53 0
59 -24 -28 52 0
-37 -65 -62 45 0
54 -68 14 15 0
43 -33 -25 -8 0
33 2 60 68 0
-31 6 16 1 0
-37 43 -49 70 0
18 -17 -37 -40 0
48 22 -11 -39 0
-14 -9 59 22 0
48 -60 57 -59 0
42 50 -27 -34 0
40 69 -59 -49 0
65 27 -46 22 0
10 -3 -34 -33 0
40 55 -42 23 0
9 55 21 -29 0
-69 1 -33 25 0
-45 -2 53 -22 0
39 -57 -11 -21 0
-27 -5 33 -50 0
33 8 48 -22 0
-36 -14 -58 45 0
-4 3 30 31 0
26 -18 58 -55 0
-12 55 -67 -15 0
-35 14 -63 5 0
-70 -3 25 26 0
-3 -64 12 -41 0
-49 -37 -68 -61 0
32 28 -67 -27 0
-62 -70 37 -10 0
8 45 49 23 0
9 17 -49 27 0
-6 33 54 26 0
-14 37 19 57 0
-30 -48 60 46 0
51 69 -2 -1 0
68 3 -53 -27 0
-32 50 44 1 0
-39 67 -41 3 0
-2 64 13 40 0
-8 -66 -61 35 0
-4 46 55 39 0
-11 -54 7 -41 0
14 50 48 16 0
-17 -18 24 58 0
67 12 6 -18 0
-30 51 63 -37 0
-22 43 -66 14 0
-14 -39 -48 58 0
-22 24 -31 -34 0
-11 3 -43 -66 0
25 16 8 50 0
31 -38 -23 -70 0
40 54 68 63 0
-41 12 50 -62 0
47 -62 -10 -41 0
49 5 57 -17 0
29 8 -1 -64 0
-38 -17 -1 65 0
69 67 11 -9 0
-32 55 -11 21 0
-40 68 63 -47 0
-46 25 54 -19 0
-31 -26 12 -61 0
-64 26 -6 65 0
-12 -24 41 17 0
64 -70 28 -66 0
-44 -3 -15 -30 0
-59 -28 34 -18 0
-36 -20 -19 -1 0
53 51 -70 -36 0
-68 -36 57 18 0
40 -62 -56 -60 0
-51 53 -10 -5 0
43 8 45 -60 0
-67 1 24 42 0
42 -20 57 50 0
-53 12 -3 -47 0
28 10 -29 1 0
-27 -46 52 70 0
-11 49 -32 -3 0
-51 66 26 38 0
47 -41 43 -30 0
-5 69 -65 -46 0
-19 69 -64 -5 0
-3 -9 33 59 0
12 36 2 -50 0
-36 69 4 45 0
-41 -21 -1 -61 0
-20 64 -7 -40 0
-3 -58 8 62 0
-55 22 32 29 0
-28 -33 18 56 0
-38 -19 32 -63 0
24 19 33 14 0
37 28 67 -18 0
15 40 47 11 0
-18 -32 69 -54 0
-26 20 -29 30 0
-69 -68 -53 65 0
47 16 -59 60 0
9 46 65 64 0
-44 10 68 -46 0
15 -19 -8 55 0
-12 -34 -62 -16 0
7 -10 -29 37 0
15 44 23 8 0
-9 65 53 5 0
-5 25 37 -61 0
-11 64 -67 -43 0
-26 -53 13 -32 0
-24 -38 -59 26 0
-13 57 -6 67 0
-31 -9 -3 14 0
-45 -19 41 26 0
-41 1 -35 -31 0
-65 -35 11 -52 0
38 -5 -41 60 0
37 -25 -42 -12 0
-48 35 12 -53 0
-16 -65 38 -3 0
-46 -42 52 -12 0
-15 50 -33 -6 0
-35 -25 24 65 0
47 22 -50 16 0
-21 30 -11 -28 0
36 -47 -58 41 0
-30 -2 6 63 0
54 -63 27 20 0
54 -43 5 -38 0
42 -19 66 -41 0
-18 -38 50 23 0
-25 45 -63 -5 0
64 -50 -51 -54 0
-23 -12 20 -43 0
-33 4 41 46 0
-5 -55 -43 63 0
40 4 -29 28 0
-69 21 -53 -59 0
21 18 -37 -41 0
-25 69 4 -46 0
-51 -15 -57 -31 0
29 -16 7 -24 0
-68 26 38 -65 0
-44 33 -64 -59 0
65 -36 24 -57 0
19 26 2 -11 0
-21 -3 -23 1 0
-59 -14 41 23 0
63 17 9 -11 0
-55 35 -12 -31 0
5 16 -41 69 0
-8 63 49 -19 0
-18 13 41 65 0
-20 9 -10 -35 0
-66 40 -18 25 0
5 -44 25 62 0
-48 65 7 5 0
41 -30 -4 -56 0
-59 12 8 -70 0
-57 5 -56 -67 0
61 -5 52 68 0
38 -21 2 45 0
-7 21 -34 65 0
19 -47 16 24 0
70 54 51 -49 0
-36 -38 54 -6 0
-65 44 -2 26 0
18 35 -27 -55 0
-24 -7 -34 -42 0
16 30 60 -39 0
-34 -32 -54 5 0
-20 -41 7 6 0
-49 5 37 38 0
11 -2 -15 -48 0
45 66 -44 -64 0
-22 2 53 64 0
-17 63 -40 -52 0
34 -39 29 45 0
-12 -3 38 -5 0
-70 38 49 68 0
-48 15 -60 -4 0
59 12 2 15 0
-40 42 -45 67 0
-9 25 -36 66 0
-56 -64 17 69 0
-24 23 -10 1 0
-22 -53 30 -33 0
-60 -61 34 28 0
20 -56 -29 66 0
-50 40 -29 58 0
4 -50 -8 35 0
-41 24 -7 40 0
7 -52 -34 28 0
-65 31 53 -6 0
-45 -5 -54 11 0
38 -30 70 -28 0
57 33 28 -59 0
-67 -51 -49 27 0
-9 35 36 -58 0
49 31 19 -57 0
-3 -69 9 -44 0
-58 -59 67 -57 0
8 -63 -12 66 0
25 -1 -38 -53 0
42 -28 -6 -60 0
-66 26 -21 2 0
21 -16 34 -25 0
-34 63 -51 -13 0
-63 68 41 14 0
-4 38 -64 29 0
-19 -33 -5 -20 0
51 34 2 53 0
52 20 1 18 0
-31 44 -51 20 0
28 10 21 -52 0
-23 -37 40 -35 0
52 -39 -5 -68 0
-38 4 -65 19 0
60 -61 -70 3 0
6 11 10 26 0
-3 -55 -13 40 0
-22 17 20 -40 0
-21 28 -40 -42 0
-21 -68 24 55 0
-31 -58 -25 51 0
-39 23 -62 60 0
2 -23 -70 -18 0
34 -7 25 15 0
47 57 -31 67 0
59 30 70 -27 0
35 -70 29 -55 0
-7 -64 12 -28 0
60 45 -27 35 0
-13 -38 -20 -10 0
-19 5 67 65 0
-33 -4 -31 25 0
15 59 14 -54 0
-46 43 -65 34 0
-32 49 5 3 0
17 19 -22 15 0
-14 52 24 -45 0
-28 68 14 -32 0
11 21 -53 -58 0
-24 17 13 -58 0
-9 55 -68 -38 0
-4 66 -5 -16 0
-41 31 34 28 0
70 -10 56 18 0
-49 30 -39 -35 0
-64 -54 26 34 0
-32 14 23 56 0
9 -30 -5 -55 0
-42 70 68 36 0
15 -1 45 -68 0
-60 15 26 -58 0
35 58 40 -22 0
-44 -3 -63 16 0
-67 29 -56 15 0
39 -50 -33 64 0
70 -52 -16 13 0
-70 -39 17 -14 0
-37 -8 12 -65 0
-34 32 -55 25 0
-46 -28 14 -10 0
46 -22 44 -29 0
40 -54 -15 -49 0
-61 7 -63 57 0
12 62 37 -60 0
66 38 11 -9 0
3 -65 51 58 0
-60 20 45 -52 0
29 -27 -9 -4 0
-51 21 57 17 0
-37 51 46 18 0
-39 58 21 -66 0
42 52 41 -23 0
-22 29 65 -8 0
-32 -3 -37 -45 0
68 14 -59 50 0
20 -43 63 -32 0
-33 58 -2 30 0
69 -8 60 -62 0
39 -23 -53 10 0
-2 -45 -27 58 0
25 -56 -11 -18 0
-50 -66 -63 -23 0
58 64 -24 -25 0
-27 -53 68 15 0
48 22 -5 -55 0
-45 58 -6 -11 0
-17 -54 53 35 0
-20 -4 -35 -68 0
3 55 4 -29 0
-13 22 -33 52 0
5 -23 -35 -64 0
-53 59 43 -22 0
28 -50 -18 52 0
-38 -69 -64 10 0
-45 63 47 -41 0
37 22 -59 -19 0
-12 65 61 15 0
46 12 -50 36 0
-13 -70 -37 2 0
-42 -12 45 38 0
18 43 -45 37 0
22 67 -62 30 0
-44 38 -6 -52 0
67 -48 -17 -3 0
-47 -69 40 45 0
48 -30 68 -1 0
-52 38 51 50 0
17 10 -28 13 0
-53 -16 65 20 0
22 11 -29 30 0
-8 4 2 42 0
-32 -56 69 8 0
-10 4 -3 27 0
-69 39 -14 -9 0
-8 2 28 -59 0
26 16 2 43 0
1 16 39 36 0
-16 29 26 49 0
70 -10 -56 21 0
31 69 -39 -4 0
57 -31 60 -32 0
66 31 18 48 0
-57 -9 -15 53 0
-10 13 24 33 0
60 65 -10 49 0
57 6 16 51 0
-48 14 8 -12 0
-64 11 44 -46 0
-42 -3 -70 21 0
-1 57 -11 -20 0
-30 15 50 46 0
16 45 59 68 0
40 -21 61 -16 0
-57 -65 -27 35 0
-7 -43 -39 50 0
-69 40 -6 43 0
-69 -13 -22 -9 0
24 -69 34 11 0
26 42 -1 -24 0
-34 7 32 -6 0
17 -13 58 -47 0
68 -55 -45 50 0
50 31 -67 44 0
20 -28 22 49 0
54 -22 -59 67 0
63 -58 -10 8 0
61 6 -39 24 0
56 36 -21 5 0
54 18 15 -10 0
60 -36 5 -52 0
48 13 -25 -24 0
33 25 -43 -1 0
-34 -67 8 52 0
61 50 -2 -40 0
-55 -7 -9 57 0
-68 -49 -66 -22 0
-24 51 -15 18 0
48 46 6 -51 0
58 55 22 -34 0
-10 -27 16 5 0
-37 32 10 27 0
-6 46 -51 -9 0
-68 -42 -5 69 0
9 -30 36 -27 0
-70 23 17 -41 0
-47 -61 23 41 0
68 -16 -49 13 0
-36 -21 -65 -15 0
50 48 51 -55 0
62 -42 -19 -57 0
-10 -50 11 31 0
-60 -35 -62 -56 0
8 63 9 -43 0
66 -2 -48 -63 0
12 -45 18 -57 0
-28 55 44 -27 0
-70 65 23 14 0
-45 8 44 -63 0
27 31 16 29 0
57 -13 -58 -27 0
39 9 -37 45 0
-10 27 -59 26 0
34 -4 32 43 0
-45 20 -12 3 0
59 15 3 18 0
63 23 -28 9 0
-4 69 30 10 0
-13 51 65 -53 0
60 -68 -28 -53 0
57 -22 38 43 0
23 -63 55 16 0
10 -33 7 -56 0
28 44 -11 -50 0
-33 66 21 -25 0
49 42 46 -67 0
-25 11 -20 65 0
-3 40 -39 10 0
69 -42 41 -13 0
-34 27 16 -59 0
-26 60 -9 -4 0
26 56 -28 -43 0
-37 31 -4 41 0
27 -21 34 48 0
49 16 -27 40 0
55 16 39 45 0
-11 -34 28 -5 0
-63 -33 59 -38 0
-11 24 -22 9 0
15 70 -6 11 0
57 4 33 12 0
-3 -34 61 55 0
-35 -22 30 -66 0
14 3 57 7 0
-3 -31 -64 2 0
-36 -37 -40 -9 0
30 12 2 -27 0
46 -56 -61 -63 0
42 -38 4 65 0
-26 -6 57 -33 0
21 -52 -59 12 0
57 9 3 54 0
-39 -37 -48 43 0
63 -33 64 -30 0
-36 -59 60 -18 0
-3 56 -69 -49 0
42 61 64 -45 0
-8 -68 -11 62 0
55 34 -31 -13 0
9 52 69 -3 0
-42 -41 -64 -61 0
33 40 17 -63 0
35 12 -8 -20 0
-61 44 32 5 0
20 16 -58 -35 0
-40 22 -27 -65 0
60 54 -14 -27 0
-36 29 64 -37 0
7 -53 -4 69 0
-46 -7 -64 -70 0
57 -27 39 46 0
-20 49 -47 -3 0
