c family=4-SAT n=70 instance=2 seed=726001144 models=19
c order 67 3 7 6 26 40 34 69 36 27 19 68 22 18 17 39 35 60 59 42 46 28 63 41 10 30 14 45 62 29 37 65 11 38 55 53 12 24 49 15 64 21 4 51 44 9 5 32 70 56 54 52 31 13 61 23 8 58 25 20 48 47 2 66 57 33 16 50 1 43
c order 58 41 18 57 52 34 68 53 39 60 25 15 50 64 44 27 51 23 54 55 9 49 33 38 7 29 8 20 47 11 24 17 36 35 26 16 69 31 67 22 30 32 5 28 56 48 10 59 6 2 1 63 66 43 14 45 42 19 65 4 46 40 12 13 3 21 62 70 37 61
c order 62 41 70 63 17 16 50 54 14 39 53 22 56 68 20 27 12 29 45 10 36 47 8 64 26 7 34 37 3 23 25 1 28 67 24 51 6 11 65 35 40 66 43 52 19 49 38 18 69 44 58 46 42 21 33 2 60 4 57 15 13 61 55 9 31 5 59 32 48 30
c order 56 45 43 29 69 17 13 32 2 34 9 52 21 20 57 31 50 46 25 58 10 28 8 60 19 7 67 18 12 15 39 51 5 55 54 41 66 22 65 48 1 23 42 62 27 61 49 36 3 53 33 40 30 37 26 24 6 4 63 59 70 35 11 16 44 38 68 64 47 14
c order 32 2 64 41 35 44 69 18 6 19 45 4 25 60 62 36 9 37 14 16 15 40 61 52 12 56 59 58 43 21 30 31 53 1 63 55 7 10 50 68 11 70 33 39 47 51 5 65 3 8 54 22 20 42 67 57 26 27 24 66 38 34 29 46 23 17 28 48 13 49
c order 44 66 29 38 43 17 7 41 37 32 45 2 19 61 16 58 14 30 15 60 12 25 34 62 67 24 51 33 36 56 8 54 47 68 53 50 5 20 70 40 4 57 11 55 49 31 6 13 46 23 63 22 52 3 48 65 42 10 69 64 59 26 9 27 18 1 39 21 28 35
c order 1 34 39 57 67 17 61 12 8 27 64 10 20 33 41 42 19 70 38 49 29 56 43 66 7 52 24 46 26 30 18 21 4 51 15 54 14 45 36 62 40 23 55 50 37 44 13 31 32 35 3 22 60 53 59 28 69 47 6 65 63 2 9 48 5 11 25 16 68 58
c order 5 8 22 36 53 45 39 16 13 41 38 68 69 2 1 46 66 58 49 4 11 17 56 48 20 52 29 70 63 33 57 40 3 51 15 35 21 47 10 44 28 43 23 7 34 54 37 30 65 12 24 60 19 9 18 26 32 55 61 14 62 67 6 31 59 64 27 50 42 25
c order 29 17 23 18 32 49 19 44 42 5 38 36 33 46 15 16 65 1 31 66 2 28 51 8 20 11 41 55 12 25 52 68 27 10 47 13 7 58 24 35 61 30 56 40 6 3 50 14 21 53 4 45 59 34 54 70 62 26 69 60 64 39 9 37 48 63 43 57 67 22
c order 43 16 55 14 18 25 45 19 11 4 10 68 29 41 59 33 35 30 44 52 46 24 15 65 69 23 26 28 1 2 31 17 7 22 37 8 47 66 58 48 53 38 57 32 13 70 63 54 62 9 42 60 34 49 61 12 27 39 64 51 56 36 50 3 67 6 40 20 21 5
p cnf 70 672
-58 -61 -59 -10 0
-5 39 -9 -23 0
-9 -47 32 -48 0
14 70 44 19 0
-15 -11 -45 -21 0
-33 32 -4 -57 0
28 -32 58 67 0
-59 -52 68 66 0
-25 30 55 -26 0
-65 -63 -42 27 0
-26 62 22 -50 0
23 -38 5 -22 0
-53 59 8 -70 0
22 8 -42 24 0
7 1 -16 -44 0
-60 37 4 -65 0
-17 -2 33 9 0
-52 9 21 -64 0
-57 43 69 -20 0
-6 -69 -44 -47 0
-29 38 68 28 0
-14 -55 58 -16 0
-70 69 -7 27 0
67 48 50 22 0
-50 -12 23 -65 0
-34 -21 -69 -29 0
-7 -48 34 60 0
44 -17 3 -54 0
-22 6 -42 -56 0
-4 55 -64 -40 0
20 60 -33 -4 0
-25 -12 -10 9 0
-51 10 44 57 0
-61 67 -54 66 0
-27 32 -63 12 0
-43 -1 -10 -3 0
-21 36 5 -13 0
-31 49 70 45 0
66 26 61 1 0
40 27 21 -9 0
-48 42 -54 67 0
-53 63 38 37 0
24 1 -35 41 0
21 17 -40 -68 0
-70 -69 -28 -54 0
11 -60 -23 -27 0
-11 -19 41 -24 0
13 10 -47 -35 0
-35 52 -33 -68 0
55 38 7 -26 0
-66 2 31 36 0
30 -50 41 -2 0
54 14 53 13 0
-30 46 51 -70 0
40 16 64 55 0
-32 -17 52 26 0
-27 35 -48 5 0
-2 -68 16 -31 0
65 -26 50 -42 0
36 -10 30 -38 0
-43 -45 -36 22 0
35 44 13 8 0
15 6 -41 -54 0
-28 -27 30 31 0
-49 -52 -34 41 0
-28 -66 65 -13 0
-26 -41 17 34 0
49 -62 -13 -29 0
-48 -4 14 43 0
18 -27 -61 19 0
46 -56 47 -25 0
-27 -54 50 -10 0
-40 -64 -49 15 0
-47 -12 -24 -41 0
70 61 69 -47 0
-33 29 -55 60 0
70 30 62 -4 0
63 -25 23 44 0
-66 -54 -33 70 0
-70 -63 -11 48 0
-25 -21 -10 69 0
-21 64 33 -66 0
47 -50 -34 -31 0
-70 5 -22 -18 0
42 -13 -32 -51 0
-7 49 -24 27 0
-2 51 -47 9 0
56 -37 24 -16 0
5 -9 -31 29 0
-4 -66 21 27 0
-35 -32 -50 -60 0
63 66 -47 64 0
12 -24 28 -21 0
68 -63 43 41 0
-38 -6 70 -51 0
9 -50 31 -12 0
-16 -67 63 -33 0
60 34 43 -19 0
38 -12 68 57 0
28 70 -14 8 0
56 -51 -36 37 0
-21 56 19 -38 0
-21 24 15 -45 0
-67 56 52 -27 0
-51 -39 61 -13 0
-60 -13 -2 16 0
3 -60 -70 -41 0
-26 -63 18 -34 0
52 43 -23 -62 0
-55 -22 15 12 0
10 2 14 -12 0
50 -54 55 -52 0
-17 -25 -8 -3 0
-47 23 70 -4 0
20 -62 -7 60 0
23 -70 -15 19 0
-2 54 33 69 0
-52 26 18 -45 0
19 68 -44 49 0
-66 -42 70 63 0
-11 65 -10 -52 0
-66 13 -14 -54 0
-29 -61 -17 69 0
-39 -6 -61 -48 0
-40 5 49 -4 0
29 68 -14 -56 0
10 45 -33 68 0
6 -26 41 -4 0
55 22 -42 12 0
-43 -68 57 -55 0
45 -61 15 54 0
-13 28 11 -1 0
-6 34 -15 46 0
12 -67 31 -20 0
8 -66 59 20 0
-1 -51 54 -67 0
-6 46 -67 60 0
-66 -13 -36 -63 0
22 -33 -53 -25 0
44 -24 -23 31 0
-2 -8 5 12 0
22 9 55 -24 0
-38 -41 -13 12 0
-56 -8 -63 33 0
60 13 -43 -28 0
-17 28 67 9 0
-45 69 -43 58 0
-9 -42 64 -5 0
-68 -69 -36 -49 0
22 1 10 15 0
-7 -37 -62 58 0
-54 -39 -12 55 0
6 -44 -21 -32 0
-30 -4 -46 18 0
44 -2 19 60 0
50 59 -41 53 0
20 -9 -11 62 0
34 10 26 -47 0
-2 -64 35 11 0
12 43 -14 33 0
-64 -15 -6 48 0
-13 -40 27 -58 0
-8 -69 -67 59 0
64 -57 -56 60 0
54 5 -65 -32 0
52 3 -26 -9 0
46 31 -12 14 0
7 -70 -55 -3 0
27 -1 -21 -37 0
-24 -61 29 -14 0
-35 -51 -54 -69 0
-10 28 -56 19 0
-30 -39 -21 -34 0
40 3 18 8 0
-28 -52 21 -67 0
-50 20 4 -13 0
-44 -48 -24 -23 0
68 13 -24 -70 0
29 33 -21 -57 0
-9 3 -30 7 0
57 -50 -29 52 0
17 69 -60 -16 0
-19 8 -36 7 0
41 58 48 -2 0
-38 54 -35 -46 0
1 10 -31 -11 0
4 -2 -35 -39 0
-31 -32 -2 -14 0
53 66 11 6 0
-68 -32 8 20 0
-25 -64 19 44 0
35 -1 30 -40 0
21 -70 -50 -55 0
-27 -12 -1 -19 0
33 -20 -3 -9 0
58 -30 -46 23 0
22 44 26 11 0
58 3 19 -63 0
-63 2 -31 -55 0
44 10 67 22 0
-19 50 -9 25 0
-51 54 -9 26 0
4 -26 -49 27 0
46 -26 67 11 0
-10 43 32 39 0
-11 -25 31 12 0
2 -57 4 -8 0
18 70 -8 48 0
-55 2 -10 -70 0
67 14 46 -12 0
64 55 -12 -48 0
-8 -49 50 27 0
-4 70 24 -58 0
-15 -45 -10 18 0
69 60 -48 27 0
53 14 25 20 0
-70 -27 -31 -60 0
-25 -43 -28 -52 0
30 15 -48 -43 0
68 -55 43 -42 0
52 12 27 36 0
-19 9 -18 -50 0
-45 -25 19 3 0
-36 -62 -42 -64 0
38 11 70 6 0
3 -42 27 -62 0
7 61 -46 8 0
-20 57 -13 -58 0
-38 69 10 -48 0
6 -15 26 28 0
69 -21 -40 -59 0
17 -13 24 9 0
-21 30 -1 64 0
-22 42 17 67 0
30 -63 19 33 0
35 -67 -39 54 0
62 -64 -14 34 0
-40 43 58 55 0
19 39 -13 -53 0
-64 52 -6 -41 0
43 39 -40 27 0
27 17 63 65 0
1 70 51 29 0
-49 6 15 -51 0
15 31 -44 16 0
-39 -49 59 -50 0
42 -37 -63 -29 0
-56 -19 -36 -37 0
-63 -11 45 -5 0
-33 -65 7 36 0
63 -20 -57 -50 0
-45 -5 7 -69 0
60 -30 61 -38 0
50 -23 57 53 0
51 -44 2 36 0
-50 -34 64 32 0
51 -28 58 -11 0
4 9 -18 -40 0
2 62 -49 46 0
-34 -50 13 67 0
32 -54 55 -26 0
18 27 -9 -23 0
-16 -68 -12 58 0
58 11 52 68 0
51 37 66 -42 0
36 50 -11 49 0
54 67 36 14 0
-70 -28 3 -16 0
-2 25 -36 -61 0
20 47 -61 -29 0
-12 22 -32 11 0
-25 -40 -66 -51 0
57 54 62 16 0
5 -37 -51 26 0
-46 -22 -58 68 0
9 58 -49 70 0
-63 30 14 -38 0
3 -20 2 37 0
-67 -4 -57 47 0
-60 -55 63 1 0
29 -9 1 67 0
2 50 -33 3 0
-68 23 59 22 0
-11 -57 -1 -54 0
-49 -45 -66 7 0
56 5 -63 -12 0
-35 -44 -51 -55 0
29 6 -41 -62 0
60 -62 44 48 0
15 2 -70 23 0
63 26 1 -55 0
-55 -44 -36 -41 0
35 20 -51 53 0
10 43 28 -51 0
12 57 59 40 0
20 33 -47 35 0
51 -69 -5 23 0
56 67 47 -60 0
-65 -29 -13 24 0
63 -60 24 -38 0
-37 25 -19 -68 0
19 8 -1 -70 0
-18 -4 -19 25 0
-28 65 -35 17 0
-37 -59 11 36 0
-29 -38 -67 -3 0
-20 -53 61 47 0
-26 -7 38 -32 0
-29 62 -5 8 0
-6 32 -53 22 0
42 15 -4 29 0
10 -58 20 47 0
-25 51 46 -12 0
17 44 52 33 0
-9 -18 36 -38 0
-2 -39 6 -5 0
27 -31 -32 4 0
27 -1 41 -29 0
-15 -56 -32 -61 0
-23 -62 -20 46 0
14 9 -39 -46 0
53 -5 13 12 0
24 -40 14 -26 0
67 54 8 -48 0
32 -25 47 -14 0
-31 -55 -8 58 0
43 -61 -24 -51 0
-38 39 -6 55 0
18 -16 7 1 0
17 19 27 -64 0
-9 10 -1 -32 0
-17 -38 16 48 0
-16 -20 -39 -33 0
66 16 14 6 0
27 42 -3 -30 0
39 -44 53 67 0
-53 -3 66 -9 0
21 56 31 -17 0
-69 64 -38 -35 0
-62 64 9 -49 0
-66 61 -14 -49 0
-54 44 42 58 0
-23 -9 38 39 0
63 22 -32 -62 0
-43 -4 12 -66 0
35 -57 32 62 0
-52 -20 -55 50 0
-46 32 -38 -45 0
64 36 21 14 0
-28 21 46 -34 0
58 -34 56 64 0
-12 -69 -26 -45 0
-34 -29 49 65 0
47 -32 -31 35 0
-43 53 -34 18 0
58 37 6 7 0
-34 -59 -21 49 0
-65 -45 -10 70 0
-17 32 54 59 0
-15 17 -2 28 0
-26 -44 -38 13 0
-43 -61 40 53 0
69 -9 41 48 0
-16 2 -63 -19 0
12 24 2 52 0
-23 32 -10 -36 0
6 23 -5 -35 0
-39 41 -69 -61 0
-57 -61 30 17 0
-31 -48 63 -58 0
42 -33 -4 -48 0
60 36 47 -16 0
29 25 -20 -17 0
-36 2 29 58 0
59 -69 5 -48 0
54 3 43 11 0
22 8 23 15 0
22 70 39 41 0
-24 -33 -39 25 0
7 -43 45 30 0
-60 -62 -10 52 0
-68 -63 27 -44 0
34 63 -38 4 0
-20 68 29 -21 0
-11 61 44 -23 0
41 69 -61 -23 0
-19 -4 -34 68 0
47 23 3 28 0
-54 -48 37 -55 0
63 2 -53 58 0
56 -9 -2 19 0
29 -7 6 55 0
69 -64 -16 43 0
-37 51 62 21 0
6 43 12 -52 0
-3 -31 -16 33 0
49 70 -45 56 0
-32 -18 -69 43 0
52 64 3 -44 0
-63 56 -59 51 0
33 70 48 5 0
20 -37 -8 24 0
54 -27 -34 55 0
10 38 67 63 0
31 58 57 -37 0
55 -67 -51 -44 0
-68 -31 45 -52 0
56 -40 -55 63 0
-56 30 9 -69 0
-65 57 45 -55 0
42 -13 33 57 0
24 45 19 47 0
34 53 -63 -49 0
46 -64 -39 -27 0
61 6 23 46 0
30 16 46 53 0
-58 43 -63 -68 0
-15 2 -60 -40 0
3 16 -17 32 0
-31 49 46 -21 0
29 7 11 34 0
18 25 -48 61 0
-37 21 -20 -39 0
17 -18 2 -25 0
3 18 -6 -65 0
-49 38 67 45 0
62 17 -38 56 0
65 4 33 47 0
48 -17 49 31 0
-7 -8 -65 43 0
-68 35 26 -1 0
-13 65 6 69 0
20 -57 40 -27 0
-48 59 41 -13 0
3 40 42 33 0
52 12 -10 -69 0
63 31 17 32 0
22 -61 25 37 0
-50 16 -24 47 0
11 40 -33 -8 0
-40 9 -43 -12 0
24 -33 42 58 0
-43 23 62 22 0
44 14 -57 34 0
37 40 -57 16 0
31 23 -16 -56 0
30 66 -47 49 0
19 -67 -22 -54 0
7 -8 48 32 0
-5 -35 -9 42 0
-43 20 11 18 0
-26 5 -27 -55 0
-17 21 11 -50 0
2 -41 35 -53 0
37 -50 44 57 0
-46 -59 -33 -19 0
66 21 -37 32 0
-14 51 -21 48 0
-12 -61 -49 10 0
17 -31 23 67 0
56 28 43 50 0
-69 56 24 -43 0
70 48 5 -61 0
-61 -53 -57 -33 0
-65 68 -17 -54 0
-45 57 -36 50 0
-64 -19 -32 -70 0
-41 -68 -54 31 0
13 -48 -32 -20 0
-16 -25 -66 -5 0
21 -19 55 -1 0
-13 27 19 -22 0
51 -49 32 10 0
-58 30 -8 38 0
47 -63 -33 -34 0
-29 -53 -9 2 0
-33 -2 -7 69 0
-29 -62 -61 -13 0
-52 31 30 50 0
-34 -66 -53 57 0
52 54 61 53 0
-64 -31 59 -55 0
10 38 60 -33 0
69 -19 16 23 0
-52 -68 -29 -60 0
-39 -62 50 12 0
26 -38 -59 42 0
63 40 -35 -67 0
27 -19 50 62 0
-19 -20 -21 53 0
30 69 55 54 0
64 -19 -11 24 0
-48 -66 -13 -6 0
-2 -26 -30 42 0
8 -46 -15 -16 0
64 -17 -6 -24 0
68 -42 63 33 0
-67 55 -31 -45 0
-41 -56 57 -50 0
-62 69 56 -11 0
10 27 5 61 0
-68 -66 -41 -46 0
45 69 -22 56 0
23 -25 68 49 0
51 3 56 -60 0
43 55 -56 -70 0
9 13 48 -25 0
-42 -20 -25 -46 0
13 20 -21 -10 0
-6 -26 -30 -25 0
35 -4 36 -2 0
-37 60 -30 -2 0
45 -38 -26 -59 0
-67 -58 31 59 0
-33 -12 40 -59 0
-54 -14 -49 -65 0
8 -20 -49 61 0
7 -28 -27 44 0
-26 -10 25 -38 0
-30 -4 -17 48 0
8 -12 41 7 0
-11 25 -14 10 0
-68 -32 -21 45 0
-44 69 -9 56 0
68 -49 -58 56 0
-45 -28 -63 -51 0
13 -63 -41 -9 0
-64 4 26 62 0
21 2 -50 -18 0
15 29 27 -7 0
27 44 -47 55 0
-67 -41 -48 -66 0
26 56 17 61 0
32 1 4 -39 0
-33 -62 -35 -30 0
51 7 -61 29 0
-66 46 26 -5 0
35 54 11 -33 0
50 6 -7 44 0
-45 32 -30 -55 0
66 32 -46 -40 0
-68 -51 40 -16 0
62 -8 59 -18 0
-19 46 15 31 0
41 60 59 46 0
-63 -30 -52 -4 0
-38 41 -12 -36 0
-45 -60 -12 39 0
65 1 59 69 0
35 -15 -18 -38 0
42 -68 29 39 0
55 16 -64 -42 0
23 -53 -22 2 0
21 41 70 64 0
18 15 11 -68 0
-7 -21 -58 -14 0
-32 54 7 43 0
-32 44 -28 46 0
-21 -52 -56 -35 0
-45 58 -69 52 0
44 -51 -7 54 0
-61 -30 -16 -23 0
-20 4 -53 -32 0
-26 20 -67 -36 0
-7 -25 55 6 0
-66 13 31 53 0
65 -31 -50 68 0
30 -25 36 19 0
57 69 -41 44 0
-7 -2 -68 -9 0
66 43 61 -40 0
33 -15 48 63 0
-40 -33 -49 50 0
-63 52 47 -24 0
3 40 -19 -35 0
-59 51 -5 -58 0
59 -25 -53 -68 0
65 -1 -18 -10 0
38 -61 36 26 0
-10 -35 11 17 0
-54 -64 52 -23 0
-20 29 -28 56 0
-32 69 58 49 0
-20 -18 39 50 0
-34 52 -39 48 0
68 57 -6 -31 0
42 -23 52 -68 0
-25 -54 -69 57 0
29 69 -23 20 0
68 48 -64 -63 0
61 -5 -57 49 0
23 -58 10 -60 0
65 -62 61 1 0
-46 -63 -43 -3 0
-22 54 52 61 0
4 -55 51 -70 0
-57 -48 -56 37 0
4 29 50 11 0
17 -50 37 6 0
41 45 6 37 0
-52 20 12 45 0
22 -45 -47 -38 0
-61 45 23 -67 0
-69 -3 56 25 0
-16 19 -48 -41 0
70 -2 10 13 0
-53 2 -13 67 0
16 -31 7 -9 0
6 -57 36 -7 0
53 -28 -57 -45 0
53 22 25 52 0
14 20 62 24 0
-31 -26 54 27 0
48 24 22 -17 0
-26 -39 70 -29 0
-19 -14 -8 -6 0
-54 34 -25 67 0
67 2 65 -3 0
4 -6 -32 -45 0
-34 55 6 -57 0
-28 18 -55 -50 0
25 14 53 27 0
1 29 -7 30 0
-21 29 -49 -43 0
69 -56 -22 -47 0
-67 -17 51 -26 0
1 62 -63 12 0
-2 29 69 47 0
46 65 -24 -45 0
-21 -35 -37 67 0
-10 27 50 5 0
68 50 -24 5 0
53 59 -10 -46 0
49 -41 55 -26 0
29 59 52 30 0
-36 -53 35 60 0
58 38 -36 -12 0
-25 -30 -47 -28 0
11 20 -63 39 0
-52 40 -68 -3 0
-21 -24 42 -3 0
-31 36 51 4 0
25 -51 -20 57 0
-51 -41 14 -23 0
28 39 36 -29 0
-43 -4 27 -10 0
-2 -61 -30 67 0
51 -61 -24 -54 0
67 3 56 46 0
8 -1 -65 -52 0
-53 34 39 -19 0
-20 -50 23 -39 0
27 -6 60 68 0
-63 -10 47 42 0
-34 -18 64 -19 0
-52 48 -46 -9 0
32 -13 -26 45 0
-46 -52 58 27 0
59 62 24 -48 0
-51 14 -38 25 0
30 46 7 39 0
-32 -36 11 -60 0
-32 -13 -30 -44 0
-52 -27 -39 -60 0
60 53 -6 -12 0
-55 13 -39 36 0
19 -22 44 -65 0
-42 50 -30 -28 0
-17 22 -1 -26 0
70 67 12 -50 0
13 -60 21 63 0
14 61 -38 -26 0
