c family=4-SAT n=70 instance=6 seed=726001144 models=31
c order 58 68 2 17 56 55 64 49 4 6 69 51 12 65 40 1 20 53 3 16 10 7 61 23 34 33 30 48 50 59 28 22 35 18 26 52 37 42 66 29 13 44 67 45 19 62 32 27 24 70 9 11 31 43 54 5 38 41 47 15 39 25 36 63 57 60 46 21 14 8
c order 36 31 58 42 54 61 33 41 40 18 2 32 30 25 44 52 28 17 60 14 13 65 47 5 24 6 39 51 57 66 8 19 46 67 55 21 12 48 53 63 20 50 23 7 69 35 10 68 16 70 59 34 37 43 64 56 49 45 11 4 38 3 27 15 62 9 26 1 29 22
c order 20 30 66 6 53 62 55 21 12 38 15 5 26 13 35 61 3 60 16 44 7 65 28 24 37 52 2 10 39 69 11 19 63 9 22 34 4 1 18 27 48 42 58 68 46 23 45 56 43 8 31 14 51 59 25 54 36 32 50 29 47 64 67 57 70 33 17 40 41 49
c order 39 11 52 9 7 19 50 38 5 20 44 15 27 51 66 28 59 42 40 36 13 30 24 8 31 41 12 68 48 46 14 34 25 21 56 16 61 1 64 69 37 63 57 18 67 10 26 54 58 32 70 4 17 35 65 3 33 29 43 22 62 47 60 55 53 49 45 2 23 6
c order 30 5 25 21 44 69 43 4 57 8 3 60 34 14 7 15 55 26 64 16 67 65 70 66 11 36 17 39 33 31 32 13 23 46 53 27 18 51 35 40 19 41 24 49 9 47 12 63 54 6 62 22 2 56 10 48 68 29 42 38 20 50 45 52 37 58 61 59 28 1
c order 48 3 14 38 17 1 61 24 21 33 36 56 34 11 54 65 32 16 62 20 31 25 63 18 60 2 8 19 30 68 29 50 51 40 55 53 13 52 4 70 12 66 46 67 45 47 9 27 35 26 49 69 5 37 58 7 39 6 22 41 64 42 44 59 28 15 57 43 10 23
c order 17 40 27 54 5 44 14 49 8 63 34 47 31 12 39 38 58 55 26 46 69 13 60 7 19 42 2 50 33 66 62 36 28 51 35 37 59 64 65 30 57 32 56 41 52 68 29 24 45 11 61 6 25 70 23 67 4 9 16 53 22 1 10 15 48 21 20 43 18 3
c order 39 23 31 68 64 59 60 37 61 19 12 34 16 40 28 47 30 69 26 8 36 63 70 65 42 54 29 5 58 7 48 9 53 43 50 1 51 33 49 4 45 52 15 57 41 55 62 14 11 24 10 44 66 21 56 25 22 35 32 2 6 13 46 67 18 17 3 38 20 27
c order 27 69 36 13 23 47 4 20 8 30 15 28 1 24 66 38 55 9 48 3 33 58 26 35 29 25 61 44 32 62 56 64 52 59 68 39 10 50 42 51 19 60 14 57 17 16 67 63 40 41 6 53 54 45 49 70 18 11 5 22 46 31 7 43 65 37 12 34 2 21
c order 37 50 57 25 19 18 58 66 41 43 9 13 17 26 35 54 24 33 38 7 4 48 22 28 56 34 11 47 52 53 68 60 12 8 65 23 40 15 29 46 30 2 1 70 36 69 62 45 20 6 21 42 63 3 39 10 51 44 59 14 32 27 55 31 67 5 49 61 16 64
p cnf 70 672
-29 -43 -9 60 0
-41 21 -5 35 0
33 -9 -34 -17 0
-45 -62 -25 -53 0
39 -57 -7 48 0
-7 19 -58 18 0
-70 19 -55 67 0
-25 36 -66 52 0
57 -9 -7 61 0
-3 54 -60 -65 0
-19 65 -39 16 0
30 43 49 -67 0
-6 46 63 -64 0
-49 -36 60 -54 0
56 22 37 30 0
-33 26 39 68 0
47 -21 -36 13 0
-45 -42 40 63 0
30 61 -15 31 0
-57 22 12 49 0
-33 63 -16 -2 0
-58 -45 11 -17 0
-5 -53 47 10 0
-39 23 7 40 0
-53 -28 -63 67 0
-14 -47 -44 -64 0
-5 19 -4 -46 0
-28 -68 46 -22 0
69 31 30 -20 0
10 49 36 14 0
20 30 -57 2 0
-48 66 -22 -46 0
48 50 17 -59 0
-47 43 24 58 0
-5 -13 -20 -32 0
-37 13 -61 -25 0
59 -22 -13 9 0
29 -30 43 4 0
66 -59 9 62 0
53 -58 37 -29 0
-66 58 -36 53 0
49 -21 46 69 0
2 69 -31 -63 0
-20 -30 -50 34 0
13 18 40 24 0
-43 63 37 56 0
-32 56 -16 51 0
-46 -35 14 -23 0
48 -59 14 56 0
13 -57 46 61 0
24 28 17 35 0
-64 -16 18 31 0
-47 -44 70 7 0
-35 22 56 -64 0
42 33 36 17 0
-61 -43 -45 -24 0
-5 55 10 -12 0
-12 -31 66 35 0
32 -69 -50 -4 0
49 61 -40 34 0
1 -25 32 9 0
-67 44 58 62 0
-17 -12 -56 -14 0
28 37 18 15 0
-22 7 -5 40 0
-26 4 -67 -56 0
-25 -27 52 -44 0
3 45 34 23 0
51 56 66 -19 0
40 31 -8 -42 0
-40 -64 -44 55 0
29 32 16 65 0
3 45 -60 -25 0
-31 -14 -55 35 0
35 69 -2 21 0
20 -16 -12 -60 0
-11 -51 36 -64 0
27 49 -4 43 0
45 -70 32 48 0
68 -63 -6 33 0
7 -9 -33 3 0
31 62 45 -22 0
-41 53 -61 42 0
-50 12 51 4 0
55 -60 -11 67 0
-23 29 30 -64 0
19 -31 -18 67 0
8 -45 -23 7 0
70 69 24 63 0
65 -54 25 -63 0
69 11 -35 20 0
3 21 33 -54 0
-62 50 -52 64 0
66 -59 7 32 0
-67 -50 -44 52 0
-35 16 64 38 0
-68 -4 -33 6 0
-46 -45 -27 -53 0
17 5 -57 -12 0
-58 -50 49 -26 0
29 -62 44 -22 0
41 -37 45 -50 0
5 27 46 -55 0
14 63 1 45 0
10 54 14 -20 0
8 -68 16 46 0
-24 70 54 -52 0
69 -6 63 5 0
-66 1 14 -31 0
4 69 -39 -32 0
5 29 -25 28 0
-12 20 53 35 0
28 -41 -4 -13 0
23 65 -43 30 0
-46 -19 -22 53 0
35 -18 -32 7 0
67 -56 -4 25 0
-59 -67 -32 63 0
20 36 -18 -63 0
25 -2 58 19 0
-39 54 -42 -64 0
-15 -53 -24 -59 0
-27 -31 -5 -53 0
-33 -34 -31 17 0
-49 11 -7 -41 0
25 67 8 -52 0
-62 60 18 -55 0
-9 42 53 24 0
-41 -63 -1 -9 0
41 63 -42 -32 0
-14 -24 7 69 0
64 48 2 -62 0
70 -37 11 17 0
1 24 -25 14 0
62 46 -67 -24 0
31 32 23 -19 0
-51 9 57 -22 0
-25 39 -37 34 0
48 -46 -42 -64 0
-54 18 -55 -44 0
-56 -4 -14 -8 0
-8 -14 19 66 0
60 40 -44 48 0
36 43 3 57 0
5 34 44 -25 0
69 33 2 51 0
-22 8 41 -13 0
47 -56 -10 -35 0
67 21 36 22 0
-60 10 -44 18 0
-28 -69 30 42 0
-54 32 58 -2 0
-58 -27 57 10 0
5 8 -2 -17 0
3 -70 -11 17 0
58 -49 -5 -68 0
12 56 -7 27 0
1 13 26 -10 0
-2 -31 30 34 0
-3 28 -22 42 0
35 26 17 62 0
-43 68 46 64 0
-64 -50 -37 -1 0
-68 -21 -44 -45 0
-61 -29 -38 -14 0
28 41 -24 51 0
-57 -38 55 -23 0
-51 -36 -57 -43 0
-44 -41 12 -6 0
40 -24 -58 60 0
-7 -30 54 1 0
-42 -65 -9 -44 0
-24 28 44 -67 0
-3 49 -55 59 0
-64 46 2 54 0
30 -28 36 57 0
-9 59 -47 39 0
16 51 29 39 0
20 38 -24 4 0
-20 -14 1 -25 0
-46 -54 66 7 0
-7 48 -15 -14 0
-68 -27 -38 -35 0
-13 49 33 52 0
-40 21 -18 -17 0
3 60 45 50 0
-52 -50 45 4 0
38 -8 -42 26 0
52 2 9 -50 0
68 -62 -53 -66 0
24 -13 22 -61 0
22 -47 -15 -6 0
26 -54 40 49 0
-55 -22 -1 -46 0
-69 51 35 41 0
9 59 -41 -60 0
70 11 67 -37 0
-58 -12 4 34 0
-63 -6 13 56 0
46 38 -55 28 0
22 -2 -37 34 0
-26 35 27 64 0
11 -41 -14 -27 0
-46 -40 -66 43 0
36 -55 24 -44 0
-8 56 -45 42 0
26 58 -45 53 0
14 62 9 -36 0
-8 15 23 -58 0
49 -54 15 -6 0
15 1 70 56 0
-6 30 -8 -64 0
1 11 -50 -63 0
6 27 36 -61 0
53 -23 59 17 0
19 11 -21 -36 0
3 -13 -55 -69 0
5 -32 -62 -52 0
23 14 -54 -55 0
-21 14 -22 11 0
58 -30 -63 -66 0
-30 39 -18 28 0
-2 56 13 -42 0
49 -52 -37 -55 0
-39 42 -68 40 0
-34 -62 -49 16 0
-9 -11 -25 -68 0
-6 -40 -8 -38 0
-29 30 38 16 0
-24 40 -26 -5 0
-51 -58 -48 -35 0
-64 -65 52 -15 0
2 41 -20 -19 0
4 -5 13 -34 0
63 10 -4 -70 0
57 28 45 65 0
-31 53 -8 41 0
-37 32 -28 49 0
-65 -9 -25 39 0
39 -15 21 35 0
-7 -47 -38 34 0
-26 -40 61 37 0
-9 4 18 -64 0
56 28 9 -57 0
-22 -17 69 25 0
43 -16 10 1 0
-56 -21 36 29 0
-52 -22 39 -20 0
-32 -19 -8 -2 0
17 44 -51 63 0
-32 -7 3 65 0
56 67 38 -58 0
60 -4 43 -22 0
35 -51 -48 47 0
29 50 -70 52 0
13 66 46 4 0
-51 3 69 -43 0
67 57 12 47 0
6 60 58 4 0
-6 46 -54 -67 0
53 43 21 25 0
-18 -26 2 38 0
-43 -29 12 28 0
29 17 11 1 0
13 -47 66 -10 0
25 67 42 50 0
-62 7 27 2 0
20 7 9 -31 0
-7 -34 42 11 0
50 64 -52 -57 0
-23 15 2 -37 0
31 -32 -35 -70 0
-50 26 6 49 0
29 -32 24 6 0
-40 25 23 -58 0
-8 2 -38 46 0
-58 -33 -59 -39 0
-2 23 70 -62 0
34 -39 -63 15 0
23 55 -3 19 0
-32 4 -18 44 0
-27 32 -57 37 0
22 -43 -6 -27 0
-64 44 25 -32 0
-13 10 -45 -14 0
40 -70 -32 -61 0
62 -13 -68 8 0
49 70 -57 -40 0
-9 47 19 -15 0
34 68 67 -54 0
-22 -24 13 -47 0
-18 55 64 -58 0
63 -35 -45 56 0
-11 -53 16 -69 0
-29 12 -24 -44 0
42 -57 -2 54 0
-8 -53 54 -28 0
-24 -64 -29 -18 0
-39 45 7 68 0
49 -70 -61 -12 0
28 -48 63 52 0
-9 57 -19 61 0
2 -18 1 56 0
3 -61 20 -55 0
-58 62 33 22 0
-11 6 60 63 0
28 -59 -43 67 0
44 27 62 29 0
-62 -48 -8 17 0
-9 22 -52 -67 0
41 31 40 -34 0
-11 -49 41 68 0
35 -25 -2 -17 0
-17 21 -10 11 0
-50 18 -17 43 0
-62 10 43 35 0
64 -51 44 31 0
-23 -10 60 -69 0
20 44 58 17 0
19 -50 -18 63 0
-35 66 53 48 0
-43 -32 -56 -40 0
-17 31 47 -55 0
-1 -8 64 31 0
65 -59 64 -67 0
-28 -3 43 25 0
-11 -18 -38 -43 0
16 -59 12 -36 0
41 24 -18 -40 0
53 38 22 -10 0
-6 -30 45 59 0
-1 52 32 -13 0
-45 -68 47 49 0
-3 -60 -39 -20 0
36 -9 50 44 0
-8 3 -55 30 0
27 -55 30 -45 0
53 -35 -11 -65 0
30 13 -56 -18 0
-55 -70 -43 61 0
58 -5 -19 -20 0
-45 -46 8 57 0
35 29 -45 -16 0
-9 -38 2 -13 0
63 44 37 -50 0
-19 -45 -50 42 0
-62 65 20 68 0
57 14 -4 -47 0
-23 -57 -19 9 0
52 -67 69 45 0
-68 -42 36 2 0
43 -60 -16 -5 0
-32 19 -37 14 0
70 -55 -17 -49 0
-32 56 59 51 0
30 -49 19 -24 0
40 62 63 47 0
62 -36 65 25 0
-39 14 62 46 0
44 2 31 -36 0
-6 -57 -14 46 0
-20 12 -47 -40 0
-54 -13 31 32 0
48 -38 -3 65 0
57 -66 37 56 0
70 24 -28 55 0
-34 -32 -10 -70 0
58 -10 41 -43 0
52 -6 -57 18 0
49 -35 24 -19 0
-25 20 7 32 0
-4 -1 -63 -8 0
25 37 51 12 0
8 -51 -45 5 0
56 67 -49 62 0
-32 10 16 5 0
-7 47 68 -33 0
16 -29 -13 -59 0
4 -38 70 26 0
-48 -34 9 -21 0
-70 34 -28 -64 0
-3 -65 45 -21 0
-2 60 -27 44 0
-23 -47 -3 -15 0
-7 -39 -8 -15 0
10 -65 70 63 0
-49 -42 1 -19 0
38 -29 -57 60 0
40 -34 57 -49 0
40 -59 -22 69 0
-15 14 49 -23 0
-46 2 21 29 0
35 -39 55 -50 0
-8 -27 -67 14 0
28 -37 -34 58 0
27 5 -37 -28 0
32 -30 63 22 0
41 69 56 -63 0
27 7 -69 -57 0
-23 29 4 -14 0
16 -30 8 65 0
17 2 7 -5 0
-8 39 30 -50 0
-70 66 20 65 0
-57 40 -14 -60 0
-11 -50 -66 -18 0
21 42 -10 -48 0
30 8 -25 -34 0
-38 -35 -50 1 0
-13 31 -54 43 0
-46 -25 65 52 0
25 -59 -36 -46 0
-14 -48 -27 -15 0
18 28 -31 38 0
-16 8 -12 53 0
-60 -16 57 18 0
49 -40 32 17 0
-17 -57 64 14 0
-49 -27 25 28 0
-62 -15 26 -64 0
-40 -45 -43 1 0
-18 56 -9 43 0
40 -68 -33 -36 0
45 -10 46 -22 0
-4 -56 23 16 0
60 -61 -66 56 0
19 44 70 -9 0
17 -61 -59 5 0
59 21 -3 -12 0
10 48 26 -21 0
-68 -44 -11 -59 0
-18 46 49 -37 0
-43 -44 -10 27 0
24 -6 31 59 0
-60 -22 -32 48 0
-4 -6 67 66 0
-9 -53 34 -19 0
31 43 -65 56 0
-16 15 33 39 0
-58 -51 -30 -17 0
50 -27 -30 -3 0
21 62 -58 -24 0
40 -17 38 7 0
-60 45 21 18 0
11 49 36 9 0
-38 -64 -28 -41 0
-1 -16 -55 15 0
-29 36 8 -6 0
39 20 -16 -12 0
-53 12 -52 6 0
32 34 25 66 0
62 49 -53 15 0
50 -13 21 42 0
43 12 3 1 0
-6 40 66 -35 0
-66 51 -62 -65 0
-19 11 -22 -57 0
22 -37 29 70 0
21 43 -10 -11 0
5 53 29 -10 0
57 -43 -70 7 0
-46 4 49 -40 0
44 30 31 -34 0
53 70 -40 -58 0
67 26 43 -42 0
-14 -61 50 46 0
57 14 33 8 0
62 43 33 13 0
39 -28 44 27 0
14 -48 -10 54 0
20 -41 66 60 0
-67 -7 69 -36 0
-38 -22 7 29 0
-18 -40 32 -2 0
-33 -10 6 70 0
-25 -37 61 43 0
41 32 23 60 0
-8 -64 -15 23 0
-48 17 -23 -59 0
19 -2 42 11 0
-34 70 -25 59 0
-53 -45 -3 37 0
-64 62 -15 -6 0
-14 -54 -32 1 0
59 20 -51 31 0
3 -55 -54 -61 0
19 -21 -22 -42 0
26 -45 35 -27 0
-4 -11 28 -35 0
-30 45 -18 -38 0
18 14 -51 64 0
5 -43 29 54 0
-21 -55 -59 -4 0
60 -69 36 -32 0
28 27 -36 -10 0
-16 57 49 -69 0
22 30 -42 -54 0
-8 17 -21 -41 0
-11 -20 -65 -25 0
-57 6 -22 16 0
-53 -8 22 36 0
-69 23 -28 30 0
31 45 50 -48 0
-16 -65 18 -54 0
25 -69 -20 -30 0
14 -66 39 57 0
27 8 -33 12 0
5 -30 -34 -51 0
36 -6 9 -19 0
27 52 -56 -51 0
-44 62 33 -8 0
55 -17 -52 -28 0
30 -14 19 -38 0
6 -41 55 17 0
44 -9 33 70 0
9 34 65 20 0
-33 -7 18 -2 0
52 21 33 44 0
-10 41 -2 31 0
70 -49 -60 -29 0
64 -3 38 -55 0
25 -46 54 -37 0
40 15 -13 -18 0
-22 -48 -10 9 0
17 4 12 -5 0
-50 33 24 -19 0
17 32 6 1 0
-59 -45 42 17 0
65 2 13 -24 0
33 -13 -12 20 0
20 36 -18 1 0
-62 -2 31 21 0
-29 -52 32 1 0
-46 -13 49 -51 0
-48 -64 -12 37 0
-52 69 -33 -19 0
13 -33 35 50 0
-54 -66 -57 62 0
37 13 -22 -32 0
-3 49 55 45 0
-20 -32 -3 36 0
11 -56 24 61 0
-37 34 53 36 0
30 -15 -48 66 0
-46 2 -37 34 0
-10 -47 58 41 0
-10 40 -62 54 0
16 66 17 -63 0
27 -60 13 10 0
27 32 -37 46 0
-43 31 -25 -65 0
-69 46 32 57 0
-58 -50 -48 57 0
24 -22 -60 -2 0
-2 -66 -38 -30 0
-64 -20 35 8 0
-46 -66 26 14 0
28 -26 -24 45 0
-25 53 -29 27 0
70 5 35 18 0
34 -1 -33 -26 0
-39 16 52 69 0
57 -24 -7 1 0
-63 -34 -4 -56 0
-67 51 -32 -54 0
24 16 28 -13 0
-4 -24 -2 -61 0
-56 -43 57 67 0
-31 -44 -52 38 0
-53 28 -40 51 0
33 -9 19 -18 0
-66 47 -18 -12 0
25 58 41 -67 0
-67 -46 37 -50 0
7 12 -21 25 0
68 16 20 -52 0
-47 -28 -14 65 0
-36 -59 56 7 0
35 -62 31 55 0
-46 34 5 -40 0
-1 -27 21 70 0
-69 -54 -37 -8 0
2 69 50 7 0
35 -53 34 -22 0
56 -55 15 -45 0
-11 26 42 -57 0
-27 60 4 -26 0
1 -53 -11 -15 0
55 -69 36 -56 0
-26 47 48 -31 0
-2 57 35 -28 0
26 -53 16 -23 0
-25 28 -4 31 0
-11 4 -24 25 0
-17 -48 -43 -42 0
8 64 -36 -14 0
-37 -50 -25 49 0
-49 67 -23 34 0
15 -21 -19 60 0
33 -13 -60 17 0
-31 -5 16 -45 0
63 -38 -8 49 0
43 -18 63 -42 0
-26 -54 43 34 0
26 -20 -67 -62 0
23 -18 -33 3 0
31 35 4 -69 0
44 -34 36 -20 0
64 -12 25 49 0
-6 39 -63 -21 0
48 16 -24 -34 0
-56 5 -1 -52 0
62 -50 -21 -69 0
44 -30 46 34 0
42 -30 29 34 0
38 -11 -47 29 0
-3 51 -52 -55 0
-54 29 -17 31 0
40 11 -26 57 0
-41 44 4 -26 0
-48 68 14 1 0
42 -51 -43 -56 0
-13 24 48 60 0
-14 -46 -42 34 0
68 10 20 -51 0
26 68 -40 -70 0
-48 63 20 -62 0
-8 7 36 66 0
6 68 15 53 0
16 -21 -39 6 0
7 -63 -16 13 0
49 -8 -44 -65 0
36 58 60 41 0
-1 54 21 -18 0
54 -35 41 -26 0
-68 -19 -14 -61 0
26 -67 -11 -46 0
-12 13 63 -8 0
-56 -66 20 -45 0
-53 15 -28 45 0
22 -52 48 39 0
-29 -30 42 -17 0
1 -21 -12 19 0
-8 56 46 7 0
-66 23 12 -25 0
47 32 46 -37 0
-5 7 32 -55 0
60 -59 -68 22 0
-10 27 30 24 0
-3 -33 -43 32 0
64 -45 3 -13 0
22 -7 40 -59 0
-5 67 37 20 0
1 -70 -57 -2 0
15 38 -10 54 0
-5 21 44 -42 0
-51 12 22 11 0
64 52 40 59 0
-38 5 -28 24 0
29 54 -17 -45 0
60 -21 2 20 0
-7 -12 47 58 0
33 -20 61 -68 0
-10 -67 53 -16 0
10 -25 -68 45 0
-30 -8 -54 -39 0
-38 -1 19 -69 0
21 -56 9 22 0
52 8 -36 53 0
-49 8 57 -18 0
60 -32 31 46 0
-50 12 -67 -56 0
