c family=4-SAT n=70 instance=4 seed=726001144 models=65
c order 38 24 40 26 11 66 53 67 31 32 50 14 19 7 59 63 56 21 42 46 1 48 27 34 13 70 4 17 54 41 33 55 64 44 12 2 57 43 6 36 69 5 29 15 37 65 51 20 39 62 25 8 3 28 52 30 45 9 22 68 16 18 10 35 49 23 58 61 60 47
c order 37 41 45 8 56 39 22 53 65 1 61 31 25 46 36 7 32 35 50 15 69 21 59 48 30 58 52 27 5 28 57 16 55 60 34 23 40 62 64 10 6 49 68 11 70 17 63 33 9 26 19 2 13 38 67 66 47 12 54 20 14 4 3 43 29 51 44 24 42 18
c order 19 33 59 31 41 16 63 39 26 9 40 24 34 4 38 8 1 14 3 30 48 10 17 27 51 70 37 53 47 36 32 52 20 25 67 22 43 65 11 56 12 46 58 7 44 35 15 60 29 5 23 21 49 64 6 2 62 61 45 66 42 54 28 57 68 55 18 50 69 13
c order 43 55 26 56 30 28 29 41 22 58 2 64 38 45 67 69 20 62 48 40 13 60 5 6 57 49 16 46 63 54 61 14 23 70 12 68 15 39 50 44 25 33 18 31 17 35 8 53 19 10 9 42 4 66 3 24 65 47 7 1 59 37 32 51 11 27 34 52 36 21
c order 3 10 57 38 16 55 56 51 18 19 60 12 5 68 14 21 2 1 69 46 49 30 22 28 39 62 40 53 11 70 20 65 9 6 31 37 27 63 54 29 47 59 50 7 64 61 8 52 43 45 44 25 67 58 36 66 41 34 4 32 33 42 35 26 48 13 17 24 23 15
c order 24 66 36 8 3 18 61 43 46 11 6 14 19 59 50 34 42 56 41 38 33 54 32 1 35 67 16 10 62 20 5 4 22 57 13 60 55 26 15 70 28 63 31 25 9 2 7 37 64 52 69 23 48 45 49 68 44 17 21 29 51 40 12 27 30 58 47 53 65 39
c order 9 31 17 49 60 58 36 54 70 62 55 53 61 45 30 65 4 2 41 11 47 5 64 68 16 13 21 33 29 40 38 25 67 63 66 28 18 1 46 8 7 69 39 57 12 42 15 44 23 22 19 20 14 56 48 32 50 6 10 26 35 59 43 52 3 51 27 34 24 37
c order 12 20 53 36 2 15 22 40 29 39 37 6 32 68 47 25 62 67 42 14 28 55 70 11 19 23 7 9 35 54 31 34 5 13 17 33 57 38 64 18 16 24 27 8 48 52 51 21 58 63 65 4 69 56 26 10 46 44 66 49 41 60 30 61 50 3 45 1 43 59
c order 10 3 22 16 61 26 18 14 34 43 47 51 11 27 17 68 5 21 9 62 54 58 20 37 2 12 31 29 50 33 1 6 28 65 24 19 48 70 7 46 63 15 66 25 35 45 13 42 4 59 64 32 53 52 69 41 56 67 8 44 36 38 60 57 55 39 23 49 40 30
c order 25 12 41 46 48 44 20 52 53 21 23 40 35 15 49 54 47 45 28 13 29 39 67 65 32 8 61 58 3 24 19 60 33 5 68 57 16 34 38 31 11 59 10 6 55 50 56 14 27 64 22 70 26 51 1 63 37 36 17 9 66 4 2 30 42 7 62 18 69 43
p cnf 70 672
34 -23 -22 -70 0
20 -68 25 -1 0
8 50 -52 28 0
-49 -34 -4 44 0
65 -30 69 -4 0
60 -33 38 28 0
-21 9 32 25 0
-7 -30 20 28 0
12 36 -33 -14 0
15 -23 59 10 0
13 21 50 17 0
44 -23 32 -25 0
-32 -48 -23 54 0
11 52 65 -25 0
-37 -17 21 -36 0
39 -60 2 -42 0
37 -67 46 -69 0
29 3 -25 26 0
42 10 -45 -36 0
-32 -35 -14 -22 0
36 33 -51 64 0
59 -22 -53 7 0
-18 39 34 -3 0
11 31 -22 -38 0
-43 11 -21 66 0
-39 -51 -47 49 0
-3 -5 11 -67 0
-35 18 17 -8 0
-70 30 -26 -1 0
19 -3 25 -30 0
-13 32 11 -14 0
9 39 68 -6 0
58 48 -24 -56 0
35 16 8 64 0
-12 20 9 -41 0
36 14 -53 51 0
62 65 -49 -60 0
-47 -35 -3 -70 0
-36 -44 -35 -31 0
-10 2 14 -42 0
-37 -53 -18 -26 0
-7 42 20 57 0
-53 15 28 -3 0
62 8 29 -6 0
31 45 -46 -15 0
-4 -44 6 24 0
1 -36 9 -59 0
-20 -24 4 17 0
-65 -43 15 54 0
50 36 -2 -14 0
31 56 -36 -12 0
-39 48 53 49 0
12 -22 -16 -70 0
43 -22 -39 29 0
44 -12 -41 21 0
-64 -70 -63 53 0
-54 -59 -3 -57 0
8 -59 -55 -21 0
-9 -24 -70 -51 0
-20 48 62 -33 0
7 -35 -12 24 0
55 -37 8 -2 0
62 -2 38 -5 0
-58 53 -14 -29 0
-58 -55 -2 -46 0
57 -45 67 -32 0
-64 70 11 -15 0
-62 -38 8 -47 0
11 59 12 61 0
-50 38 -3 -18 0
-37 47 64 10 0
39 18 -15 47 0
-70 -47 66 -53 0
-47 55 8 24 0
-59 -11 -20 16 0
-15 7 43 70 0
-22 -1 59 -38 0
-3 23 43 -49 0
3 -49 46 6 0
61 -14 47 67 0
44 18 19 24 0
-44 15 53 -59 0
48 40 -3 -31 0
-17 24 16 -36 0
50 48 -22 -46 0
-40 -19 56 31 0
69 32 51 -60 0
35 30 3 45 0
-57 9 26 67 0
-62 -10 -46 36 0
-53 -45 -15 40 0
16 40 -20 -8 0
25 -17 -2 27 0
25 -67 -6 -46 0
-18 -17 -35 -2 0
-33 1 15 2 0
-12 55 -45 -25 0
61 -46 -59 -57 0
-3 53 17 68 0
26 11 -47 -34 0
3 21 -69 -34 0
6 -31 45 -52 0
19 8 -5 -64 0
15 43 67 -64 0
62 29 -55 -12 0
-32 39 28 20 0
8 -26 47 -25 0
-8 60 -22 -23 0
-29 -37 -16 -4 0
54 59 -67 -50 0
-40 25 61 56 0
-58 -14 -20 46 0
49 22 -8 -23 0
9 -54 69 8 0
-36 42 35 9 0
21 -19 -55 -46 0
-61 -48 58 57 0
-61 32 40 36 0
-5 -19 -35 -26 0
8 -11 -21 -18 0
20 35 -10 -32 0
-32 -65 -52 60 0
-32 15 60 -34 0
-14 59 -19 56 0
-61 -44 23 -41 0
11 60 39 30 0
4 22 -44 41 0
-15 4 -49 -23 0
-43 16 -53 18 0
-35 -32 63 -58 0
-32 23 63 -4 0
36 -30 -55 -66 0
-60 -34 -50 43 0
-65 -4 -22 -24 0
55 -2 23 14 0
45 -34 67 35 0
10 65 40 17 0
-63 -9 -30 -6 0
-16 -57 22 -27 0
-47 -49 -3 9 0
31 -55 9 19 0
-43 -55 -25 34 0
-14 23 67 64 0
-19 68 39 -1 0
3 12 -59 20 0
-66 39 -28 36 0
29 -66 -22 43 0
67 11 -39 13 0
46 -6 68 -57 0
67 11 61 -48 0
-28 59 3 -9 0
-53 -46 -47 -7 0
14 36 38 -51 0
-32 -1 -9 -64 0
-46 45 70 -28 0
24 -5 70 15 0
9 -67 32 69 0
-55 1 -34 62 0
-44 26 46 45 0
-15 18 -13 -37 0
31 13 53 36 0
47 17 62 67 0
17 9 -5 -32 0
59 12 42 28 0
52 24 -63 -31 0
-27 58 -64 70 0
-21 -49 -1 9 0
2 -38 -32 -70 0
19 -8 -57 -17 0
21 39 8 56 0
-9 55 -30 -5 0
42 -9 10 -54 0
66 4 40 20 0
-15 -36 63 50 0
33 -17 23 -55 0
31 -32 -23 12 0
-36 -69 54 -51 0
-55 33 43 -67 0
-5 -15 11 10 0
-14 27 32 -41 0
59 -17 47 -35 0
-51 -35 -14 2 0
30 -55 -70 -67 0
-21 37 -29 -12 0
-44 62 -56 -2 0
7 -12 33 9 0
43 66 2 -60 0
26 65 -18 57 0
-46 -33 10 2 0
67 -30 70 -21 0
26 -37 55 6 0
-65 -68 70 3 0
-32 -7 53 -27 0
-48 7 -13 62 0
-14 41 -53 -47 0
-14 52 -59 31 0
38 -28 7 -6 0
66 -26 -37 32 0
-19 15 57 2 0
-6 58 64 55 0
-60 -69 -56 40 0
-53 50 -28 -61 0
14 47 -65 28 0
16 -66 -19 -2 0
-66 -20 -24 44 0
22 23 33 11 0
16 -44 -41 35 0
-55 -34 50 -70 0
-37 41 21 -3 0
51 40 -42 35 0
-42 18 -32 61 0
39 24 28 22 0
-43 -27 -20 63 0
-9 12 -26 -13 0
13 16 -36 -21 0
11 -2 -41 26 0
-12 39 -40 10 0
35 3 -64 19 0
66 -45 -26 -10 0
-16 30 -48 -18 0
34 -52 12 63 0
-23 -29 -40 -41 0
-66 -61 -19 -69 0
-70 -40 -5 13 0
-39 30 -3 -35 0
-34 -62 63 33 0
45 66 -29 -4 0
-48 -7 70 29 0
-16 41 40 -12 0
34 16 -68 25 0
-70 -12 -60 59 0
30 -1 65 12 0
-64 23 -11 -30 0
-13 -35 15 14 0
24 14 31 26 0
-9 21 -46 15 0
-45 64 41 21 0
-48 33 -29 -44 0
-29 21 26 42 0
-17 35 -16 21 0
-34 32 43 -55 0
-44 -2 -7 -69 0
1 -66 -18 43 0
35 29 15 -20 0
24 6 31 -22 0
-51 42 64 20 0
28 -60 64 31 0
6 -30 -62 -25 0
69 38 34 43 0
55 64 14 46 0
42 -70 -69 -49 0
37 -21 35 -65 0
21 27 -9 43 0
-7 -42 -49 5 0
63 -2 -46 31 0
62 -56 49 9 0
-28 -27 -44 50 0
48 -35 69 57 0
-34 -52 24 18 0
27 -37 31 -38 0
29 68 55 -28 0
-20 -60 58 69 0
52 -64 -35 16 0
-37 -67 7 3 0
49 -46 5 -29 0
48 4 59 -22 0
-40 3 1 -69 0
-56 14 -25 -55 0
-39 26 61 58 0
-39 -32 -27 54 0
-1 -48 -50 -52 0
62 24 -41 -12 0
64 36 57 -54 0
-59 -37 -24 46 0
-21 -24 -39 -53 0
27 -65 -56 28 0
39 -40 27 -64 0
44 -35 -4 9 0
-42 52 -39 -65 0
-19 33 -13 -61 0
11 40 -50 30 0
-42 60 12 -1 0
-4 48 -19 -40 0
4 -32 -63 -19 0
-6 14 20 35 0
-10 69 -46 41 0
68 48 -25 -32 0
-36 49 17 -9 0
5 39 69 53 0
62 -32 -8 57 0
-13 34 41 44 0
-41 14 -28 53 0
20 55 2 -22 0
12 -57 -22 -37 0
-17 -16 63 70 0
36 -39 61 -56 0
52 10 40 48 0
-40 -9 13 44 0
38 -39 -42 41 0
-42 -14 21 2 0
-6 -42 -57 43 0
59 -3 18 15 0
58 42 52 14 0
42 -25 70 36 0
20 62 -3 -6 0
56 17 -11 68 0
-18 52 34 -21 0
-54 60 36 65 0
60 34 -20 18 0
-4 -41 14 30 0
-56 -65 -62 34 0
-2 4 -11 -66 0
70 -48 -7 8 0
21 53 52 42 0
-11 -51 43 20 0
62 -60 13 69 0
47 -7 10 -18 0
53 -2 -57 -32 0
-27 32 -10 33 0
15 -25 12 19 0
-35 62 53 -48 0
22 68 58 21 0
19 -64 -4 -49 0
-43 60 51 4 0
-61 48 -34 -21 0
-61 -46 39 28 0
29 -28 -45 23 0
45 25 -67 -38 0
-55 -47 30 64 0
23 55 -63 -13 0
-19 11 56 -38 0
-49 -44 58 70 0
-52 -57 55 13 0
-15 -7 -45 -27 0
61 -16 28 30 0
-43 -28 -10 -52 0
11 1 16 -39 0
-53 -28 4 -22 0
-31 -29 -52 30 0
12 -35 15 60 0
-6 -21 17 -61 0
-41 -33 -13 -65 0
-69 54 -11 63 0
-31 -64 65 66 0
10 66 -13 69 0
-63 68 -29 54 0
43 55 13 -1 0
-22 -53 -51 45 0
-19 -48 11 27 0
43 -63 45 29 0
-48 -44 5 8 0
32 -9 -10 -35 0
-41 -10 19 -68 0
19 28 -3 6 0
10 -68 -28 -16 0
-23 8 20 -42 0
-64 -32 -36 -54 0
30 41 -18 58 0
-30 -59 40 38 0
20 69 -49 30 0
22 13 48 35 0
-69 33 -25 46 0
15 59 31 -9 0
13 24 62 -44 0
-27 -33 11 -28 0
-21 52 -56 -1 0
-52 24 -30 60 0
62 12 1 9 0
35 12 -30 -7 0
-3 -66 -38 -23 0
52 9 -55 -50 0
-5 -3 48 45 0
-49 -14 58 -42 0
38 28 -62 50 0
33 -3 41 -62 0
-51 -19 11 -37 0
56 24 -36 -35 0
53 66 -13 -56 0
21 28 53 41 0
32 -8 40 63 0
-26 -14 -70 -50 0
-15 -68 42 -52 0
-21 4 46 67 0
8 65 45 10 0
-25 12 23 62 0
-57 -40 -55 -15 0
-64 58 34 67 0
-5 46 27 -16 0
23 -35 2 53 0
26 7 31 -56 0
33 -47 -39 -16 0
31 -42 9 -40 0
50 28 64 -56 0
70 -67 38 -6 0
-20 61 68 -58 0
22 -15 27 -54 0
11 6 30 -14 0
23 4 -65 -39 0
60 6 29 35 0
-25 8 43 30 0
38 -7 -48 -53 0
-18 17 31 -40 0
-62 33 -69 34 0
-59 -15 25 38 0
53 57 -60 49 0
70 -69 25 61 0
-14 -11 -21 -47 0
5 -69 21 -45 0
-64 -61 11 -2 0
-27 9 6 -48 0
52 -32 -63 26 0
21 -43 29 42 0
-31 15 -4 -23 0
-28 59 -27 60 0
70 13 11 -39 0
40 -19 -25 35 0
-29 7 -1 -69 0
-35 10 65 41 0
-53 20 27 7 0
1 -9 -26 -25 0
-23 69 29 -70 0
14 -68 37 -1 0
-64 -50 -54 -57 0
55 -45 41 -40 0
65 -54 -56 -29 0
50 -1 -16 -8 0
-1 -34 67 8 0
34 14 48 -2 0
-22 -38 -31 27 0
-26 -69 57 9 0
39 52 -18 -22 0
4 -23 3 -32 0
-39 -44 43 59 0
62 20 12 -22 0
55 -57 -24 -21 0
53 9 -5 21 0
-36 43 -55 -15 0
12 7 -62 -66 0
-22 -60 -16 -39 0
28 61 7 -54 0
-35 -24 42 -55 0
15 42 -3 -14 0
-63 -4 -57 47 0
-62 -38 -24 -13 0
-54 -45 -6 51 0
50 -44 29 32 0
-54 -69 -47 38 0
-57 -35 -44 6 0
40 66 59 -22 0
61 32 -38 50 0
26 49 52 -60 0
-35 16 -57 19 0
-23 19 -37 -49 0
57 -59 -60 -9 0
-26 12 49 -63 0
-37 -12 40 54 0
-29 2 -68 -19 0
-26 15 34 23 0
-52 -10 -45 54 0
13 35 -61 -66 0
-34 42 29 -36 0
68 38 32 58 0
-45 13 -32 25 0
23 18 31 41 0
35 -19 -48 31 0
3 -48 55 47 0
7 46 44 -61 0
64 -7 8 -22 0
-10 24 63 -13 0
51 -33 -15 43 0
52 -12 -17 62 0
-50 -8 23 -5 0
51 -54 -28 24 0
-1 -41 -45 -39 0
61 39 -48 -46 0
-3 44 -38 -5 0
-35 -32 -1 6 0
6 -19 -27 -47 0
46 3 26 50 0
63 -26 -19 -41 0
-6 -30 -17 -59 0
-50 -34 22 -23 0
-17 54 22 -14 0
61 55 32 -45 0
59 58 -43 24 0
26 31 59 13 0
45 -39 2 -23 0
-56 10 70 12 0
-46 56 50 -66 0
52 -70 68 -5 0
24 36 16 -33 0
55 64 -5 17 0
-34 59 45 -69 0
-34 55 -59 -30 0
51 -57 -52 69 0
35 -17 57 -65 0
-20 61 67 -54 0
64 -32 54 -44 0
42 18 21 -15 0
-31 7 68 -60 0
-59 -56 39 62 0
56 -48 70 8 0
-10 50 24 9 0
42 12 -51 20 0
13 -40 8 26 0
12 -41 -27 9 0
-67 2 -54 -66 0
67 49 5 -18 0
-4 -52 -17 -54 0
-62 -25 3 -64 0
50 37 -42 -6 0
-55 -11 -51 50 0
-10 -26 -5 66 0
28 12 -20 -64 0
62 -16 -26 54 0
55 39 -24 13 0
-30 32 38 -41 0
49 32 23 -19 0
47 -21 69 -48 0
17 38 21 10 0
54 -39 53 -61 0
-16 -3 8 -44 0
27 70 49 62 0
-51 66 -18 26 0
-32 -46 -60 -38 0
44 -12 -42 -21 0
12 -4 -5 -16 0
-49 11 23 65 0
56 67 4 13 0
50 -13 12 -5 0
-38 10 20 65 0
-16 -15 -9 49 0
-15 56 38 67 0
-68 57 24 -21 0
-18 -25 20 -44 0
30 48 -2 -6 0
-56 4 8 23 0
-17 -7 -66 -31 0
45 57 -37 -53 0
-50 66 3 42 0
46 -13 22 41 0
-7 52 56 -34 0
38 -34 -67 62 0
-42 -5 28 -52 0
-23 59 -14 -7 0
-59 -49 11 -8 0
-16 -48 67 -37 0
-25 -1 60 39 0
20 61 -67 -51 0
-8 -63 51 -16 0
-55 62 42 9 0
20 50 -4 -3 0
50 -46 48 -29 0
2 -59 62 -40 0
-47 65 13 -66 0
64 -25 53 -16 0
-10 44 -68 -36 0
10 16 7 -2 0
25 -57 -44 -11 0
4 51 48 -40 0
-69 -42 -68 -4 0
-54 53 -31 61 0
-31 29 -69 -59 0
-50 10 -19 43 0
-16 10 35 -11 0
50 -46 -27 -38 0
-31 -23 25 -35 0
-1 -14 5 36 0
-18 -57 -45 37 0
41 20 3 -68 0
-61 22 -43 35 0
59 -64 11 16 0
52 -36 68 -25 0
41 -49 -4 14 0
-61 16 -54 48 0
45 -44 -3 -16 0
-1 -11 -2 -50 0
12 -24 48 31 0
-68 -33 49 63 0
-45 7 46 61 0
9 20 18 38 0
-45 30 -3 -52 0
30 23 16 -17 0
34 24 -52 -10 0
-50 35 21 -61 0
-60 31 -58 52 0
-6 36 25 66 0
-53 18 24 26 0
-19 -69 59 45 0
-18 -16 -7 21 0
67 -52 41 -8 0
36 10 24 -68 0
46 -16 -26 -66 0
34 -40 -45 39 0
-12 -60 55 -56 0
59 12 -16 -42 0
18 -32 60 -14 0
69 -28 34 -68 0
59 -63 5 -27 0
11 42 -45 23 0
20 23 -31 52 0
13 52 16 -68 0
-11 -35 -62 34 0
-24 67 49 1 0
-51 -14 16 -9 0
13 47 55 41 0
29 50 67 46 0
32 9 -21 8 0
-15 -11 39 -33 0
9 50 -60 4 0
47 -40 69 12 0
-62 65 19 22 0
-60 12 -53 22 0
14 17 -16 40 0
-22 -33 2 -63 0
-6 -58 9 28 0
13 56 64 -63 0
6 24 -21 50 0
-17 -26 -22 -32 0
60 -70 43 -54 0
-20 -61 6 -13 0
-34 -33 -53 35 0
-13 19 34 26 0
60 -63 55 7 0
-37 15 -1 -66 0
-16 -65 -49 -19 0
-42 17 18 -49 0
8 -68 41 33 0
59 -62 30 -33 0
66 -26 -43 30 0
21 -3 -5 13 0
-24 17 -34 -47 0
1 49 14 55 0
-17 -3 -30 -32 0
-1 54 29 47 0
-29 40 56 -5 0
-55 59 -52 3 0
41 37 14 -32 0
-60 -59 65 -25 0
-15 -57 -68 -59 0
-21 -16 55 -47 0
60 69 3 -50 0
33 -22 32 12 0
48 -62 64 -24 0
34 -64 49 58 0
-4 38 -8 26 0
-20 -23 26 63 0
-44 -9 65 -31 0
46 3 28 18 0
48 -68 -1 34 0
-23 -60 -36 18 0
-28 56 17 -62 0
64 -16 -39 12 0
-48 -10 -4 35 0
-45 -37 70 1 0
7 -32 -42 53 0
14 -33 -27 -43 0
-11 -43 -32 5 0
22 -59 -38 53 0
-33 -29 14 -52 0
-66 13 64 -59 0
62 -36 -63 18 0
52 17 57 -18 0
-31 54 51 -26 0
67 -43 -20 -69 0
5 48 43 -70 0
58 41 -50 -43 0
-5 -27 26 -31 0
-68 -14 43 29 0
-39 6 -63 -56 0
-64 36 -22 14 0
42 -63 -20 49 0
