c E2a family=1-in-3-SAT n=32 seed=14 (worker seed)
c order 19 17 21 32 22 6 7 1 12 24 5 31 3 28 2 23 26 8 30 27 9 4 20 25 14 29 16 10 15 13 18 11
p cnf 32 76
7 16 18 0
-7 -16 0
-7 -18 0
-16 -18 0
17 19 5 0
-17 -19 0
-17 -5 0
-19 -5 0
29 20 30 0
-29 -20 0
-29 -30 0
-20 -30 0
26 8 17 0
-26 -8 0
-26 -17 0
-8 -17 0
15 21 23 0
-15 -21 0
-15 -23 0
-21 -23 0
17 24 10 0
-17 -24 0
-17 -10 0
-24 -10 0
11 18 1 0
-11 -18 0
-11 -1 0
-18 -1 0
5 8 22 0
-5 -8 0
-5 -22 0
-8 -22 0
2 6 18 0
-2 -6 0
-2 -18 0
-6 -18 0
14 25 26 0
-14 -25 0
-14 -26 0
-25 -26 0
29 7 8 0
-29 -7 0
-29 -8 0
-7 -8 0
24 12 7 0
-24 -12 0
-24 -7 0
-12 -7 0
32 13 18 0
-32 -13 0
-32 -18 0
-13 -18 0
29 14 32 0
-29 -14 0
-29 -32 0
-14 -32 0
19 17 7 0
-19 -17 0
-19 -7 0
-17 -7 0
8 6 18 0
-8 -6 0
-8 -18 0
-6 -18 0
18 8 2 0
-18 -8 0
-18 -2 0
-8 -2 0
11 27 8 0
-11 -27 0
-11 -8 0
-27 -8 0
6 28 31 0
-6 -28 0
-6 -31 0
-28 -31 0
