c E2a family=1-in-3-SAT n=24 seed=12 (worker seed)
c order 20 10 22 8 21 19 16 17 7 2 13 24 9 1 12 6 11 18 5 23 4 15 14 3
p cnf 24 56
16 9 22 0
-16 -9 0
-16 -22 0
-9 -22 0
17 22 12 0
-17 -22 0
-17 -12 0
-22 -12 0
5 13 1 0
-5 -13 0
-5 -1 0
-13 -1 0
12 16 9 0
-12 -16 0
-12 -9 0
-16 -9 0
21 15 23 0
-21 -15 0
-21 -23 0
-15 -23 0
20 8 18 0
-20 -8 0
-20 -18 0
-8 -18 0
1 22 20 0
-1 -22 0
-1 -20 0
-22 -20 0
5 15 12 0
-5 -15 0
-5 -12 0
-15 -12 0
6 11 7 0
-6 -11 0
-6 -7 0
-11 -7 0
2 19 7 0
-2 -19 0
-2 -7 0
-19 -7 0
3 17 22 0
-3 -17 0
-3 -22 0
-17 -22 0
11 22 13 0
-11 -22 0
-11 -13 0
-22 -13 0
3 1 2 0
-3 -1 0
-3 -2 0
-1 -2 0
22 17 8 0
-22 -17 0
-22 -8 0
-17 -8 0
