c E2a family=1-in-3-SAT n=20 seed=11 (worker seed)
c order 20 4 12 13 18 3 6 14 9 7 5 15 19 2 11 1 16 10 8 17
p cnf 20 48
15 18 20 0
-15 -18 0
-15 -20 0
-18 -20 0
15 17 7 0
-15 -17 0
-15 -7 0
-17 -7 0
6 17 16 0
-6 -17 0
-6 -16 0
-17 -16 0
20 6 4 0
-20 -6 0
-20 -4 0
-6 -4 0
15 10 5 0
-15 -10 0
-15 -5 0
-10 -5 0
3 18 2 0
-3 -18 0
-3 -2 0
-18 -2 0
20 13 15 0
-20 -13 0
-20 -15 0
-13 -15 0
20 6 1 0
-20 -6 0
-20 -1 0
-6 -1 0
17 3 2 0
-17 -3 0
-17 -2 0
-3 -2 0
2 7 8 0
-2 -7 0
-2 -8 0
-7 -8 0
20 1 15 0
-20 -1 0
-20 -15 0
-1 -15 0
11 15 7 0
-11 -15 0
-11 -7 0
-15 -7 0
