c E2a family=1-in-3-SAT n=28 seed=13 (worker seed)
c order 23 18 17 24 26 20 11 10 4 6 19 22 7 12 3 9 25 16 5 8 2 28 1 13 15 27 21 14
p cnf 28 68
19 14 22 0
-19 -14 0
-19 -22 0
-14 -22 0
12 14 21 0
-12 -14 0
-12 -21 0
-14 -21 0
11 21 4 0
-11 -21 0
-11 -4 0
-21 -4 0
12 27 20 0
-12 -27 0
-12 -20 0
-27 -20 0
26 21 9 0
-26 -21 0
-26 -9 0
-21 -9 0
23 15 18 0
-23 -15 0
-23 -18 0
-15 -18 0
20 24 5 0
-20 -24 0
-20 -5 0
-24 -5 0
15 22 24 0
-15 -22 0
-15 -24 0
-22 -24 0
15 18 6 0
-15 -18 0
-15 -6 0
-18 -6 0
10 7 6 0
-10 -7 0
-10 -6 0
-7 -6 0
17 12 9 0
-17 -12 0
-17 -9 0
-12 -9 0
12 15 9 0
-12 -15 0
-12 -9 0
-15 -9 0
20 9 13 0
-20 -9 0
-20 -13 0
-9 -13 0
5 19 16 0
-5 -19 0
-5 -16 0
-19 -16 0
18 8 19 0
-18 -8 0
-18 -19 0
-8 -19 0
8 7 23 0
-8 -7 0
-8 -23 0
-7 -23 0
12 5 3 0
-12 -5 0
-12 -3 0
-5 -3 0
