c E2a family=3-COL n=16
c order 4 10 6 5 2 14 7 11 13 3 8 12 1 9 15 16
p cnf 16 44
-1 -2 0
-3 -4 0
-5 -6 0
-7 -8 0
-9 -10 0
-11 -12 0
-13 -14 0
-15 -16 0
1 2 7 8 0
-1 2 -7 8 0
1 -2 7 -8 0
1 2 13 14 0
-1 2 -13 14 0
1 -2 13 -14 0
1 2 15 16 0
-1 2 -15 16 0
1 -2 15 -16 0
3 4 7 8 0
-3 4 -7 8 0
3 -4 7 -8 0
3 4 11 12 0
-3 4 -11 12 0
3 -4 11 -12 0
5 6 7 8 0
-5 6 -7 8 0
5 -6 7 -8 0
5 6 9 10 0
-5 6 -9 10 0
5 -6 9 -10 0
5 6 11 12 0
-5 6 -11 12 0
5 -6 11 -12 0
7 8 11 12 0
-7 8 -11 12 0
7 -8 11 -12 0
7 8 13 14 0
-7 8 -13 14 0
7 -8 13 -14 0
9 10 11 12 0
-9 10 -11 12 0
9 -10 11 -12 0
11 12 13 14 0
-11 12 -13 14 0
11 -12 13 -14 0
