c E2a family=3-COL n=16
c order 13 3 2 5 14 12 9 6 11 8 7 1 16 15 10 4
p cnf 16 44
-1 -2 0
-3 -4 0
-5 -6 0
-7 -8 0
-9 -10 0
-11 -12 0
-13 -14 0
-15 -16 0
1 2 9 10 0
-1 2 -9 10 0
1 -2 9 -10 0
1 2 11 12 0
-1 2 -11 12 0
1 -2 11 -12 0
3 4 5 6 0
-3 4 -5 6 0
3 -4 5 -6 0
3 4 7 8 0
-3 4 -7 8 0
3 -4 7 -8 0
3 4 9 10 0
-3 4 -9 10 0
3 -4 9 -10 0
3 4 11 12 0
-3 4 -11 12 0
3 -4 11 -12 0
3 4 13 14 0
-3 4 -13 14 0
3 -4 13 -14 0
3 4 15 16 0
-3 4 -15 16 0
3 -4 15 -16 0
5 6 7 8 0
-5 6 -7 8 0
5 -6 7 -8 0
7 8 13 14 0
-7 8 -13 14 0
7 -8 13 -14 0
9 10 11 12 0
-9 10 -11 12 0
9 -10 11 -12 0
11 12 15 16 0
-11 12 -15 16 0
11 -12 15 -16 0
