c E2a family=3-SAT n=16
c order 2 13 15 16 14 5 6 4 1 10 11 3 7 8 9 12
p cnf 16 67
3 9 -16 0
14 -10 5 0
16 -8 -14 0
-7 -15 -6 0
4 -6 -12 0
-10 -1 -5 0
16 -11 -4 0
-15 -1 -16 0
-1 -12 11 0
-13 -3 5 0
7 1 -9 0
6 -10 -9 0
12 10 5 0
-6 -8 -5 0
7 8 -3 0
3 -14 -2 0
-1 -2 -13 0
-10 6 8 0
-12 8 3 0
-15 -16 -11 0
-4 10 16 0
-16 -4 5 0
11 -14 3 0
-6 -10 -9 0
-9 -6 -11 0
13 2 -14 0
11 14 5 0
15 8 12 0
2 -11 12 0
-16 -8 13 0
7 -1 2 0
-5 11 -13 0
-5 -2 3 0
-14 -10 -13 0
11 5 14 0
-16 -11 5 0
-9 -5 -7 0
15 -8 -14 0
-4 10 8 0
-10 5 9 0
-15 12 -9 0
-5 -6 -12 0
-1 -4 2 0
-10 4 -5 0
-12 -1 -13 0
13 9 -2 0
6 5 -14 0
-4 -1 -3 0
-15 -2 16 0
-3 15 13 0
2 10 -9 0
-7 13 15 0
-9 11 10 0
8 -10 13 0
4 -7 -5 0
5 14 16 0
15 13 -5 0
10 8 4 0
1 -4 -12 0
3 -11 5 0
-6 2 -12 0
-15 4 -1 0
12 -16 11 0
11 7 -16 0
-13 -15 9 0
-15 4 10 0
11 -15 7 0
