c E2a family=3-SAT n=12
c order 11 12 10 1 3 5 4 9 8 6 2 7
p cnf 12 50
1 -4 -9 0
-1 9 8 0
7 12 3 0
-4 -5 7 0
-1 5 -4 0
2 -6 12 0
11 9 -4 0
-1 5 8 0
-1 11 -5 0
5 9 7 0
-3 -6 8 0
8 2 9 0
10 -5 8 0
12 1 10 0
12 -2 9 0
5 4 7 0
-2 9 12 0
-8 -9 -5 0
1 8 5 0
-11 12 -4 0
7 -9 1 0
-10 -7 -4 0
8 6 -1 0
-10 5 -4 0
3 -8 12 0
-1 -7 -2 0
-10 -4 -3 0
8 -3 7 0
7 -10 -8 0
1 9 12 0
1 2 11 0
12 -3 -10 0
11 6 12 0
-7 1 5 0
12 11 -8 0
8 10 11 0
-9 7 4 0
-2 -9 -8 0
-6 -10 -4 0
-10 -5 9 0
6 -12 -5 0
9 11 4 0
8 3 -7 0
10 -4 5 0
9 -11 10 0
-7 10 12 0
-7 -1 -9 0
6 10 5 0
3 12 2 0
9 -12 8 0
