c E2a family=3-SAT n=16
c order 9 2 12 13 1 7 10 15 3 8 6 11 4 5 14 16
p cnf 16 67
4 -16 -11 0
5 4 16 0
1 -15 12 0
2 1 9 0
-3 11 -7 0
10 -15 -13 0
12 -14 10 0
-16 -15 11 0
-9 -10 -12 0
12 4 -11 0
9 -6 14 0
12 4 -8 0
-9 7 -14 0
-4 -10 3 0
-12 3 4 0
7 -3 6 0
-5 -12 10 0
-6 -14 -10 0
-14 7 -6 0
3 -6 15 0
-7 -4 -5 0
3 1 -10 0
-3 -6 11 0
-2 10 14 0
10 12 -4 0
16 -13 5 0
1 6 2 0
14 -16 1 0
-14 4 -9 0
-7 8 11 0
10 -4 7 0
-4 -2 9 0
16 -8 4 0
6 9 3 0
12 5 -6 0
1 -3 12 0
12 1 -13 0
-15 -8 5 0
-13 12 -1 0
-6 7 12 0
15 -1 -10 0
-11 -12 -15 0
-2 3 1 0
-6 8 -15 0
-7 5 -16 0
12 -16 -15 0
-7 9 -2 0
-7 -14 -16 0
-10 -15 -2 0
3 -14 2 0
4 16 -11 0
7 -11 9 0
13 -5 15 0
10 1 -11 0
12 4 -7 0
-12 -8 -10 0
-6 -3 16 0
9 -16 -10 0
13 -16 12 0
3 6 12 0
6 -1 -10 0
-7 3 14 0
6 -14 -7 0
-4 -2 12 0
4 9 -13 0
1 -3 8 0
15 -9 -5 0
