c E2a family=3-SAT n=12
c order 4 5 7 1 10 6 11 8 9 12 2 3
p cnf 12 50
-2 -1 8 0
-1 -11 -9 0
-2 -12 -6 0
5 1 -10 0
12 -1 -7 0
9 11 -12 0
2 -1 8 0
-4 -7 1 0
-5 3 7 0
11 10 -4 0
-1 9 -6 0
-10 -5 12 0
-12 -7 -10 0
-7 -1 -9 0
-6 -4 12 0
-9 11 8 0
6 -11 -9 0
-11 -9 12 0
-11 3 -2 0
-5 -9 8 0
4 12 -8 0
8 -3 7 0
11 5 8 0
2 -9 4 0
4 -1 -10 0
-1 5 6 0
6 -11 -3 0
5 2 -8 0
-11 -5 -3 0
8 -10 4 0
6 -10 1 0
12 4 -10 0
3 -5 -6 0
8 7 -6 0
12 -6 -7 0
-2 -1 -3 0
-1 -4 -2 0
-9 8 -10 0
3 11 7 0
5 7 3 0
-12 6 -3 0
6 11 5 0
8 7 -11 0
6 -4 7 0
-1 9 -11 0
-1 -11 -3 0
11 9 -2 0
-12 5 8 0
5 -10 -12 0
12 9 -2 0
