c E2a family=4-SAT n=12
c order 1 7 12 10 11 3 4 2 5 8 9 6
p cnf 12 115
-1 -3 -9 -10 0
-9 -11 4 -12 0
-4 -9 7 8 0
1 5 4 -10 0
12 5 3 8 0
2 -4 11 -5 0
-2 -12 4 -8 0
4 10 2 12 0
8 10 4 -12 0
3 2 11 -9 0
-6 -9 -4 11 0
12 9 -7 6 0
4 1 -11 2 0
3 2 9 -5 0
-2 11 8 1 0
-5 6 1 -7 0
-9 6 -1 -5 0
1 3 -8 6 0
7 5 -3 -11 0
12 -5 2 -7 0
5 11 -2 -10 0
2 -10 -11 -12 0
5 -2 -4 -1 0
7 -5 -4 -9 0
-4 -5 10 9 0
12 -7 8 -6 0
11 4 -2 -8 0
-6 -11 4 8 0
5 7 1 -10 0
10 1 7 -6 0
-9 5 10 2 0
1 4 -6 -11 0
6 9 -8 -1 0
-6 -12 -10 -3 0
-4 11 -5 -8 0
12 -3 5 -11 0
-8 7 -11 -3 0
-10 12 1 -3 0
-3 -8 -12 -2 0
5 12 -6 1 0
-10 4 -5 -7 0
-7 4 1 -5 0
11 9 -12 -1 0
5 -4 -9 -10 0
4 12 1 2 0
9 3 11 5 0
12 11 -6 10 0
7 12 5 1 0
-3 -5 -10 -8 0
-8 7 -2 10 0
12 -7 -1 4 0
8 -3 -4 -6 0
12 -11 9 7 0
-6 5 2 -10 0
10 -11 -3 -5 0
12 11 -1 -3 0
-7 -9 6 -1 0
6 2 -10 -1 0
-4 -11 12 -7 0
2 9 -8 7 0
6 12 -5 11 0
-12 7 4 -2 0
5 -9 11 -2 0
6 4 2 9 0
-10 -5 9 -1 0
-3 -4 -10 -7 0
2 -7 -11 10 0
-12 -6 -4 -9 0
12 1 6 5 0
1 6 -4 -3 0
-6 1 -7 -5 0
-6 -2 4 1 0
10 8 -4 -1 0
-1 -12 -6 10 0
-11 -10 3 9 0
11 4 3 5 0
1 -7 6 -10 0
-7 5 -11 -6 0
-10 2 -5 12 0
2 11 -8 7 0
-7 2 4 8 0
4 -3 5 -8 0
-11 12 -2 3 0
6 -1 -2 9 0
10 -6 2 -11 0
-8 -1 -12 3 0
2 11 1 12 0
-11 -9 -12 3 0
5 -12 -7 6 0
-1 -8 9 -7 0
11 -3 -1 -10 0
10 9 -11 -2 0
-12 -5 9 -10 0
1 2 10 12 0
-10 -9 -8 -6 0
-10 -3 -4 5 0
-5 -6 -3 -8 0
-1 -7 5 -12 0
12 -8 -2 -10 0
10 -8 1 9 0
7 -8 -1 5 0
-1 3 -12 7 0
8 1 -10 7 0
-2 -12 9 4 0
-9 -7 1 3 0
4 -2 -9 10 0
8 11 4 3 0
2 -10 11 -5 0
3 8 11 1 0
12 -5 8 3 0
-5 12 6 3 0
10 8 12 6 0
-11 12 -1 3 0
9 -10 -6 -5 0
-6 4 -11 -9 0
