c E2a family=4-SAT n=12
c order 1 11 8 3 9 6 2 12 4 10 5 7
p cnf 12 115
-10 -11 -1 -5 0
-10 -4 -5 12 0
5 8 12 6 0
8 -10 -11 7 0
-5 4 7 -9 0
12 1 8 -4 0
7 12 2 8 0
-9 -11 -6 -12 0
11 -12 -5 -8 0
3 -9 -10 8 0
-4 6 9 -5 0
5 9 -4 11 0
-4 -2 9 12 0
1 -3 10 -4 0
9 -3 -12 -7 0
-10 -12 -8 -1 0
4 12 5 -3 0
10 -1 -5 -9 0
-8 11 -10 -3 0
3 6 5 2 0
12 4 1 8 0
-11 -6 8 12 0
1 -12 -3 6 0
-3 1 10 7 0
11 4 10 -5 0
-3 9 2 -6 0
8 11 -12 1 0
-4 9 -12 -11 0
-10 6 3 -9 0
4 -1 8 10 0
-5 1 4 10 0
2 5 3 12 0
11 -12 -2 4 0
-2 -1 -7 4 0
-6 2 -1 -3 0
12 2 -4 10 0
2 -12 1 -4 0
-9 8 1 2 0
-9 6 -2 -7 0
8 6 5 2 0
-12 1 3 2 0
-4 3 11 5 0
2 6 12 7 0
-9 -2 6 -8 0
12 10 -8 -4 0
4 -10 1 -9 0
-2 6 -9 -10 0
-5 -7 8 -11 0
12 8 9 4 0
10 7 -1 -9 0
7 8 9 10 0
-12 6 2 11 0
12 -1 7 -8 0
6 -3 5 -9 0
-3 12 -11 10 0
5 12 8 1 0
-12 -1 4 -11 0
5 12 10 -8 0
10 5 -12 -9 0
7 1 3 -6 0
-9 5 -7 4 0
11 -1 6 2 0
11 -3 1 -6 0
-5 -9 8 -6 0
-8 9 -12 5 0
1 -2 -8 -6 0
-8 11 -1 -9 0
-8 -9 -1 10 0
5 3 -4 2 0
-8 -6 -5 -3 0
-2 4 -7 1 0
-5 4 -8 -10 0
-5 -6 2 -12 0
3 -1 -8 12 0
3 5 1 4 0
5 4 -12 7 0
-4 5 -2 3 0
-7 -6 -11 4 0
-9 -7 2 -8 0
4 9 -2 8 0
-2 5 -8 1 0
-5 2 8 -10 0
7 -10 -6 -4 0
-4 1 2 10 0
-9 -3 6 12 0
-3 9 8 -6 0
-7 5 9 3 0
-2 -3 9 5 0
4 -10 -8 11 0
9 -12 -4 3 0
-7 5 11 6 0
1 -10 8 2 0
-2 11 5 8 0
-6 2 4 -1 0
-11 6 -12 -3 0
-3 -4 -2 -1 0
12 -3 7 -5 0
-10 11 -3 -5 0
12 2 -6 -3 0
12 1 6 8 0
4 2 -7 12 0
6 12 8 -11 0
3 -1 5 8 0
-4 -5 -11 -8 0
-8 2 12 7 0
5 4 -12 -8 0
-4 -3 11 -7 0
-3 6 11 -2 0
-6 2 10 3 0
11 -12 2 5 0
-5 -12 11 -9 0
3 -5 -8 1 0
3 -4 -2 -11 0
6 -12 3 -10 0
-10 -7 4 6 0
