c E2b family=3-SAT n=12 seed=3 (worker seed)
c order 2 12 3 1 4 6 7 11 8 5 10 9
p cnf 12 50
7 2 -10 0
-9 7 1 0
-8 6 7 0
-4 9 5 0
-7 3 -1 0
-5 -2 -8 0
-9 -7 2 0
10 -1 8 0
-2 10 -12 0
-6 -2 -1 0
-5 10 -12 0
9 -12 -4 0
-1 9 6 0
3 -11 -4 0
5 6 10 0
2 -7 -9 0
-3 -7 -10 0
-8 3 7 0
-12 -8 -9 0
3 -5 -4 0
-12 -9 -5 0
-10 12 5 0
-7 4 3 0
-3 7 -8 0
11 -9 -1 0
-7 -1 -8 0
-11 2 4 0
-5 -3 11 0
5 3 -1 0
2 -12 11 0
8 10 6 0
-8 -2 4 0
3 9 -6 0
-2 8 -9 0
-6 11 -12 0
-11 -5 -2 0
-9 -12 2 0
-5 -11 -10 0
-3 -12 6 0
-9 -3 6 0
5 11 3 0
-2 -12 -3 0
6 2 5 0
8 -9 5 0
-6 -7 8 0
-2 -3 -5 0
-12 -2 -3 0
-7 -3 -10 0
-9 12 3 0
-5 -1 8 0
