c E2b family=3-COL n=14 seed=4 (worker seed)
c order 2 7 8 12 11 9 1 6 10 14 3 4 5 13
p cnf 14 37
-1 -2 0
-3 -4 0
-5 -6 0
-7 -8 0
-9 -10 0
-11 -12 0
-13 -14 0
1 2 3 4 0
-1 2 -3 4 0
1 -2 3 -4 0
1 2 5 6 0
-1 2 -5 6 0
1 -2 5 -6 0
1 2 11 12 0
-1 2 -11 12 0
1 -2 11 -12 0
1 2 13 14 0
-1 2 -13 14 0
1 -2 13 -14 0
3 4 5 6 0
-3 4 -5 6 0
3 -4 5 -6 0
3 4 9 10 0
-3 4 -9 10 0
3 -4 9 -10 0
5 6 9 10 0
-5 6 -9 10 0
5 -6 9 -10 0
5 6 13 14 0
-5 6 -13 14 0
5 -6 13 -14 0
7 8 9 10 0
-7 8 -9 10 0
7 -8 9 -10 0
7 8 13 14 0
-7 8 -13 14 0
7 -8 13 -14 0
