c E2b family=3-SAT n=14 seed=4 (worker seed)
c order 7 8 14 13 4 5 12 3 11 6 2 9 1 10
p cnf 14 59
-4 5 2 0
-1 -7 -9 0
4 -9 -13 0
-5 -4 -1 0
4 -3 -5 0
-14 6 2 0
4 3 -14 0
14 9 -5 0
5 13 9 0
8 -3 4 0
-1 -8 -11 0
-12 6 3 0
4 11 13 0
-10 -6 11 0
1 -12 -4 0
2 6 3 0
-2 5 12 0
6 -3 -11 0
-14 -2 5 0
-5 7 10 0
1 -8 -3 0
-10 2 8 0
-1 -14 -13 0
10 1 -9 0
-2 9 -5 0
8 4 13 0
-8 -4 11 0
1 -14 -5 0
7 -5 3 0
-2 -10 -7 0
12 14 1 0
14 -10 -3 0
-11 -6 -7 0
-5 6 -7 0
11 -14 4 0
-5 -11 1 0
-8 12 7 0
-3 1 -10 0
-13 -7 4 0
-11 -10 -6 0
9 -8 1 0
-9 5 10 0
-9 -1 5 0
9 -8 7 0
13 8 -7 0
6 -9 7 0
11 -4 14 0
13 9 -3 0
6 -8 14 0
3 -1 11 0
-12 -10 8 0
-5 -6 -4 0
-11 -1 -10 0
-13 -10 5 0
10 -8 7 0
11 -6 -3 0
-10 3 -5 0
-6 11 -10 0
3 6 -11 0
