c E2b family=3-COL n=16 seed=5 (worker seed)
c order 10 6 12 5 2 7 8 9 14 11 4 13 1 16 3 15
p cnf 16 44
-1 -2 0
-3 -4 0
-5 -6 0
-7 -8 0
-9 -10 0
-11 -12 0
-13 -14 0
-15 -16 0
1 2 3 4 0
-1 2 -3 4 0
1 -2 3 -4 0
1 2 7 8 0
-1 2 -7 8 0
1 -2 7 -8 0
1 2 13 14 0
-1 2 -13 14 0
1 -2 13 -14 0
3 4 5 6 0
-3 4 -5 6 0
3 -4 5 -6 0
3 4 9 10 0
-3 4 -9 10 0
3 -4 9 -10 0
3 4 13 14 0
-3 4 -13 14 0
3 -4 13 -14 0
3 4 15 16 0
-3 4 -15 16 0
3 -4 15 -16 0
7 8 11 12 0
-7 8 -11 12 0
7 -8 11 -12 0
7 8 15 16 0
-7 8 -15 16 0
7 -8 15 -16 0
9 10 11 12 0
-9 10 -11 12 0
9 -10 11 -12 0
11 12 13 14 0
-11 12 -13 14 0
11 -12 13 -14 0
13 14 15 16 0
-13 14 -15 16 0
13 -14 15 -16 0
