c family=3-SAT n=10 instance=7 seed=2573548008 models=10
c order 10 3 8 4 9 7 6 1 2 5
c order 4 2 8 10 1 5 9 3 7 6
c order 7 10 4 3 6 1 8 2 5 9
c order 1 8 6 9 2 10 3 7 5 4
c order 8 3 1 6 10 2 4 9 5 7
c order 3 2 9 1 10 4 6 8 5 7
c order 10 2 3 6 4 1 7 8 5 9
c order 9 1 6 4 5 7 3 10 2 8
c order 1 10 6 2 3 8 9 5 4 7
c order 6 8 5 1 3 10 7 2 9 4
p cnf 10 42
-10 2 1 0
-5 -6 10 0
-8 10 3 0
10 -6 -2 0
-3 -5 10 0
-2 5 1 0
-6 -1 -10 0
6 5 -9 0
-1 -6 4 0
1 -9 -2 0
-2 5 4 0
10 -4 6 0
3 2 9 0
9 -6 -4 0
-2 -9 10 0
-1 7 -9 0
-10 -7 9 0
3 7 -2 0
-2 3 8 0
-1 6 4 0
-1 10 5 0
-9 8 6 0
10 -9 7 0
-4 6 -3 0
-8 3 10 0
-7 8 -2 0
8 -5 -3 0
-3 -8 -2 0
4 5 6 0
-10 -7 -3 0
5 10 6 0
-10 1 3 0
-10 -6 -9 0
-7 -10 6 0
-5 2 8 0
-8 -1 10 0
6 5 -10 0
-1 4 -2 0
-3 -4 6 0
5 -8 -1 0
-8 10 6 0
-1 -2 -4 0
