c family=3-SAT n=10 instance=6 seed=2573548008 models=2
c order 7 6 1 2 10 8 5 9 4 3
c order 10 7 2 6 1 3 5 9 8 4
c order 1 7 5 9 10 2 8 3 4 6
c order 9 7 4 8 3 6 1 10 5 2
c order 10 5 2 6 3 8 1 7 9 4
c order 2 4 3 1 7 10 5 8 6 9
c order 6 10 1 9 4 5 2 7 3 8
c order 6 3 9 7 2 5 8 10 4 1
c order 2 3 10 5 6 7 1 9 8 4
c order 1 4 9 3 10 7 8 5 2 6
p cnf 10 42
5 -6 3 0
-4 7 8 0
7 -4 -1 0
1 -5 -10 0
7 10 8 0
-8 -5 4 0
-6 -4 -1 0
-4 5 3 0
-10 6 -1 0
-4 -3 -9 0
-6 -9 4 0
7 5 1 0
5 -8 3 0
4 7 3 0
-6 2 -1 0
-9 -2 7 0
-9 3 2 0
10 -2 6 0
6 3 -7 0
-5 -7 -8 0
-10 9 7 0
-10 -4 7 0
10 9 -2 0
-9 6 5 0
-9 -6 10 0
6 9 -5 0
3 -1 -8 0
5 6 4 0
3 7 -8 0
-6 5 10 0
-5 3 -7 0
-10 -4 -2 0
-5 -9 10 0
3 -5 -1 0
-8 4 9 0
-4 -10 5 0
6 -4 -5 0
4 9 6 0
7 -10 -5 0
3 8 -1 0
8 4 -1 0
-3 10 2 0
