c family=3-SAT n=10 instance=2 seed=2573548008 models=1
c order 9 8 1 10 5 3 6 4 7 2
c order 4 1 6 3 8 7 9 2 10 5
c order 4 1 8 7 3 2 5 6 9 10
c order 6 10 7 5 2 8 4 3 9 1
c order 5 10 4 8 1 6 2 7 3 9
c order 9 1 4 8 2 7 6 3 10 5
c order 6 3 9 4 2 10 5 8 7 1
c order 7 2 3 10 9 4 5 1 8 6
c order 4 5 9 2 6 3 7 1 8 10
c order 5 8 10 3 4 2 9 6 1 7
p cnf 10 42
3 -10 -4 0
1 10 -7 0
-3 6 2 0
-6 2 -10 0
-2 9 -4 0
1 6 -2 0
4 9 -5 0
-5 4 6 0
-4 1 7 0
-5 7 10 0
10 3 -9 0
-7 1 9 0
5 2 -8 0
-7 2 -3 0
1 9 7 0
8 9 1 0
8 -5 1 0
-5 4 -2 0
-1 10 7 0
-8 4 6 0
-10 -1 9 0
-5 9 -7 0
-1 5 8 0
10 -4 -5 0
-5 -9 -10 0
-1 -8 -6 0
5 6 8 0
-1 8 5 0
3 8 5 0
-7 -1 9 0
-1 -5 -3 0
-9 6 10 0
-7 -3 -1 0
-6 -3 8 0
-2 -5 -9 0
-9 6 -7 0
10 -7 -5 0
-7 4 -3 0
-10 9 -6 0
-5 -3 8 0
-6 5 1 0
7 9 -3 0
