c family=3-SAT n=10 instance=5 seed=2573548008 models=8
c order 3 1 5 6 4 2 8 9 10 7
c order 6 10 3 8 5 1 7 4 2 9
c order 8 3 1 7 6 10 5 9 2 4
c order 9 10 1 3 4 2 6 7 8 5
c order 1 4 3 7 8 9 5 6 10 2
c order 8 5 2 1 6 4 7 3 9 10
c order 8 10 5 7 3 2 4 1 9 6
c order 3 10 6 1 4 5 2 8 9 7
c order 6 2 8 9 1 10 3 5 7 4
c order 4 10 2 1 8 6 3 9 5 7
p cnf 10 42
7 -2 4 0
9 4 -1 0
5 -7 9 0
-9 6 4 0
6 5 -10 0
-10 -3 5 0
-7 9 -8 0
-2 -7 -3 0
5 -6 3 0
-2 -9 10 0
-8 -6 -5 0
-6 -10 4 0
-5 1 7 0
4 2 -7 0
7 -8 -2 0
5 -3 9 0
-1 8 -7 0
1 3 -9 0
3 -7 -8 0
-9 -1 -5 0
-2 8 5 0
-2 6 7 0
1 6 3 0
4 9 -8 0
3 -2 7 0
4 3 -8 0
4 2 -7 0
7 -2 -3 0
5 -6 9 0
-1 9 4 0
2 -6 -10 0
4 10 1 0
2 -3 -8 0
-6 7 2 0
7 -5 -3 0
-3 1 -8 0
4 -1 -3 0
-3 2 4 0
3 2 10 0
2 10 -9 0
-7 5 9 0
4 -9 -10 0
