c family=3-SAT n=10 instance=0 seed=2573548008 models=4
c order 8 2 6 5 10 4 1 7 3 9
c order 6 9 3 5 8 2 10 4 1 7
c order 1 6 8 4 3 7 10 5 9 2
c order 4 9 3 1 10 8 2 5 6 7
c order 9 1 4 2 7 10 5 8 6 3
c order 9 5 6 8 7 2 4 3 10 1
c order 9 5 7 10 3 4 8 6 2 1
c order 1 8 9 3 5 6 2 10 4 7
c order 6 10 7 3 8 5 9 2 4 1
c order 7 6 1 3 5 2 10 8 9 4
p cnf 10 42
1 -7 -5 0
-7 4 -1 0
5 9 3 0
-1 -9 8 0
8 -6 4 0
-10 -3 6 0
2 9 -7 0
3 -9 -10 0
-5 6 -4 0
-3 -5 -10 0
6 -4 3 0
-2 -10 9 0
-9 7 -3 0
1 -6 2 0
-10 -8 9 0
-4 1 7 0
-6 1 -10 0
8 5 -1 0
-8 -1 -9 0
8 -3 2 0
-4 -6 7 0
4 3 6 0
-6 9 5 0
-10 4 2 0
1 -10 -7 0
6 -7 -9 0
-1 -5 -8 0
-8 4 5 0
6 -8 -2 0
10 -8 -1 0
7 -2 1 0
-5 -4 1 0
3 9 1 0
8 2 7 0
7 10 1 0
-9 6 -2 0
4 7 10 0
-9 -4 -1 0
-1 -2 -8 0
8 -4 9 0
3 8 -7 0
9 -1 -5 0
