c family=3-SAT n=10 instance=4 seed=2573548008 models=5
c order 9 4 5 3 8 2 6 10 1 7
c order 10 5 6 4 8 1 7 3 9 2
c order 3 2 1 7 5 10 4 8 9 6
c order 3 5 6 1 7 4 8 2 9 10
c order 6 3 10 4 1 5 2 7 9 8
c order 2 9 6 3 8 10 4 1 5 7
c order 4 3 2 9 6 8 5 10 7 1
c order 9 2 10 7 3 5 4 1 6 8
c order 2 7 4 1 9 3 5 10 6 8
c order 3 9 2 7 5 4 1 10 8 6
p cnf 10 42
-2 -7 8 0
-1 6 9 0
-9 2 8 0
-5 1 -7 0
-7 -5 3 0
-2 -10 -1 0
9 8 -2 0
-7 -9 4 0
8 -7 10 0
-2 1 -8 0
10 -8 6 0
-8 -1 -3 0
10 -3 7 0
-2 -1 -7 0
-2 -6 -4 0
10 -7 -2 0
-9 -5 -2 0
-7 -8 9 0
-8 -1 -3 0
3 5 2 0
10 2 -4 0
10 -8 -4 0
9 7 4 0
7 2 6 0
-5 -6 4 0
-2 -4 -9 0
8 -4 1 0
8 -2 6 0
2 -6 -3 0
-10 -9 -7 0
1 -2 -7 0
-9 5 4 0
9 1 -6 0
7 -2 -5 0
4 5 -2 0
-2 -9 1 0
10 -9 -6 0
6 -4 5 0
-8 -10 -2 0
-7 -4 10 0
-4 2 5 0
-10 -6 -3 0
