c family=3-SAT n=15 instance=2 seed=2573548008 models=32
c order 14 5 2 10 3 11 4 1 7 8 9 15 6 12 13
c order 3 12 6 13 1 15 11 9 14 2 4 7 8 5 10
c order 15 14 3 5 2 4 9 11 7 10 12 13 1 8 6
c order 9 6 10 5 4 8 2 11 7 15 12 3 1 13 14
c order 12 9 4 1 8 7 14 6 10 15 3 11 2 13 5
c order 1 4 10 3 8 12 7 15 6 5 11 14 9 13 2
c order 11 8 1 4 14 15 6 2 5 10 9 7 12 3 13
c order 13 3 7 9 2 6 5 11 8 14 1 4 10 12 15
c order 9 7 15 2 5 4 1 8 10 11 6 3 13 14 12
c order 8 6 13 10 3 7 11 9 12 1 14 4 5 2 15
p cnf 15 63
-2 12 11 0
3 10 -8 0
7 1 14 0
-5 -8 -9 0
-13 12 -7 0
-8 10 5 0
14 -1 7 0
12 -11 -8 0
11 8 -4 0
-8 -15 -3 0
-4 11 -14 0
-10 14 -11 0
2 -8 -15 0
-4 10 -5 0
10 -4 -6 0
4 -9 7 0
11 9 -14 0
-1 -5 -10 0
-11 -2 -9 0
-7 15 6 0
-3 6 8 0
-11 2 -3 0
2 -6 -14 0
-15 -14 -12 0
-2 -8 1 0
-8 -9 6 0
11 9 -14 0
1 14 -12 0
-7 8 -15 0
-7 -13 8 0
-7 2 -5 0
-10 -8 -14 0
-10 -14 -8 0
14 3 -15 0
4 8 10 0
13 -5 -7 0
-1 -5 -4 0
1 -8 7 0
-1 -15 7 0
8 -14 5 0
6 -15 -10 0
9 -4 -11 0
12 3 10 0
5 2 3 0
-11 13 1 0
8 3 10 0
12 11 8 0
10 -6 4 0
1 -13 -15 0
3 13 6 0
13 -5 10 0
3 -14 15 0
4 -13 9 0
10 -2 4 0
5 13 7 0
-11 -10 2 0
3 -9 7 0
13 15 6 0
-13 5 3 0
-5 -8 -10 0
-14 5 -11 0
-10 6 13 0
-7 -8 6 0
