c family=3-SAT n=15 instance=5 seed=2573548008 models=11
c order 14 15 7 8 12 9 4 10 3 11 5 6 2 1 13
c order 3 11 10 15 9 1 2 6 13 12 7 14 8 4 5
c order 8 5 9 15 14 2 12 11 10 13 4 3 6 7 1
c order 15 1 13 9 2 6 11 12 8 7 3 14 4 5 10
c order 12 2 15 11 3 7 6 14 8 9 1 13 4 10 5
c order 9 14 6 8 13 11 1 4 2 5 3 15 12 7 10
c order 12 1 5 11 14 13 9 15 3 8 7 4 2 6 10
c order 2 10 4 5 3 13 8 14 9 12 7 15 6 11 1
c order 13 10 6 2 11 3 12 14 1 4 9 15 5 8 7
c order 14 13 9 11 1 15 12 3 10 8 4 5 7 6 2
p cnf 15 63
11 15 -6 0
-13 4 9 0
6 -15 1 0
11 -6 7 0
4 -3 6 0
-13 9 -5 0
1 -11 -10 0
4 12 6 0
12 11 5 0
-12 -7 1 0
10 -14 -4 0
-4 1 -5 0
-11 12 1 0
1 7 -14 0
5 -15 6 0
8 -6 -3 0
7 -8 10 0
-15 14 9 0
-11 -3 -14 0
2 7 -8 0
1 11 -15 0
11 -15 -10 0
-8 -10 3 0
10 -13 1 0
10 6 8 0
14 6 -13 0
-8 11 7 0
10 2 8 0
1 13 4 0
-9 -14 12 0
8 -5 -10 0
-6 9 -12 0
15 -6 14 0
-9 -7 4 0
-8 11 -14 0
5 -14 1 0
-7 13 -10 0
13 9 3 0
-5 15 10 0
-13 11 2 0
-14 6 -15 0
-8 -7 13 0
4 9 -13 0
-13 7 15 0
-10 12 11 0
-6 7 14 0
12 7 -5 0
8 -9 -4 0
7 15 -11 0
-2 -8 10 0
15 -12 4 0
14 12 -11 0
-10 -9 -8 0
-4 -1 11 0
-14 -9 -12 0
-13 10 -9 0
-11 -14 1 0
9 -6 -3 0
-13 1 -3 0
4 -14 -1 0
-3 12 -5 0
-11 -15 -8 0
-12 -14 -2 0
