c family=3-SAT n=15 instance=4 seed=2573548008 models=8
c order 11 9 15 12 3 5 2 6 8 4 13 7 14 10 1
c order 1 11 6 15 7 4 13 9 3 10 12 14 8 5 2
c order 8 10 11 7 3 15 12 13 6 5 9 2 1 14 4
c order 2 5 10 3 8 15 9 7 6 14 1 4 12 11 13
c order 11 14 3 13 8 6 15 1 10 7 2 4 12 5 9
c order 1 11 5 6 15 9 13 12 2 7 8 14 10 4 3
c order 5 11 3 14 1 12 7 10 8 13 4 9 2 6 15
c order 5 4 13 9 7 15 14 8 6 10 11 2 1 3 12
c order 1 11 7 15 4 10 9 6 5 14 13 12 8 3 2
c order 10 3 6 14 12 4 1 8 13 5 7 15 9 2 11
p cnf 15 63
9 3 12 0
-4 -3 7 0
11 2 -5 0
-14 9 -4 0
-2 14 5 0
-15 6 13 0
12 7 13 0
7 -3 -4 0
-6 11 15 0
-9 -5 -10 0
-15 14 8 0
-11 7 14 0
7 -11 -3 0
15 -9 -2 0
-15 -13 -2 0
-5 15 9 0
-1 11 -7 0
-12 7 1 0
6 11 13 0
-11 -2 1 0
-1 -5 -13 0
2 8 -15 0
4 6 -12 0
-3 -14 5 0
14 -9 -2 0
13 -2 6 0
1 -5 12 0
-11 13 -9 0
8 14 10 0
7 8 11 0
6 3 11 0
1 -13 14 0
7 -2 -1 0
15 5 -10 0
-2 -15 14 0
6 -15 -10 0
7 4 1 0
9 10 11 0
3 9 10 0
2 -1 -8 0
7 8 9 0
-2 -13 -12 0
-8 -5 -14 0
-8 -11 13 0
-3 2 12 0
12 7 -14 0
3 10 -4 0
6 1 -2 0
15 4 -6 0
-8 12 13 0
-4 -8 -13 0
10 5 13 0
-13 -12 -15 0
5 -8 9 0
-4 -3 9 0
-4 11 6 0
10 -15 14 0
9 -3 -14 0
-12 10 1 0
-8 -6 -11 0
12 11 -13 0
-6 -14 -7 0
14 7 5 0
