c family=3-SAT n=15 instance=9 seed=2573548008 models=2
c order 15 4 1 3 12 11 6 2 8 7 9 5 10 13 14
c order 11 1 13 10 4 9 7 15 2 6 3 5 14 12 8
c order 4 1 9 8 2 5 14 15 13 10 7 12 11 3 6
c order 5 2 15 3 13 1 4 14 8 6 7 9 10 12 11
c order 4 13 12 1 14 8 9 7 15 2 3 5 11 6 10
c order 3 5 7 6 1 9 8 15 11 10 13 12 14 4 2
c order 12 11 7 10 15 13 4 9 5 2 14 8 6 3 1
c order 15 12 2 10 9 3 7 5 1 4 14 6 13 11 8
c order 6 5 1 10 9 2 15 14 7 4 11 13 3 8 12
c order 1 4 13 5 8 7 10 3 6 9 12 14 15 11 2
p cnf 15 63
-9 7 -1 0
-4 -2 13 0
-15 8 -14 0
-5 3 4 0
15 -3 -5 0
-12 -8 -11 0
-5 -7 -4 0
3 5 -10 0
1 -4 -15 0
5 13 -14 0
-1 -12 -8 0
-4 -8 -1 0
-15 -12 -5 0
11 -1 -10 0
6 8 -1 0
15 12 11 0
3 6 -11 0
-8 -3 4 0
6 10 -1 0
5 -6 7 0
-9 8 12 0
13 -4 -5 0
5 -11 -6 0
6 -13 -11 0
1 12 14 0
-12 -10 9 0
15 5 -9 0
3 -10 -14 0
-6 15 -11 0
-8 15 -7 0
10 7 2 0
-13 -15 8 0
8 -9 11 0
4 3 -11 0
-12 -13 14 0
-6 11 -3 0
-7 4 -14 0
14 -15 8 0
-12 -9 -14 0
-7 2 -5 0
-15 8 1 0
-14 15 -3 0
6 -5 -4 0
10 -1 -9 0
-6 10 -12 0
-4 -7 10 0
4 2 12 0
-5 -14 9 0
-14 -2 4 0
3 -4 -6 0
-6 -13 -11 0
-15 -8 -12 0
4 -11 13 0
6 10 14 0
2 -1 3 0
14 -13 -7 0
-8 10 12 0
15 -5 4 0
5 -4 -11 0
-9 15 -6 0
4 3 8 0
-3 -11 10 0
2 -10 4 0
