c family=3-SAT n=15 instance=0 seed=2573548008 models=9
c order 8 10 11 1 4 15 9 2 14 12 7 3 5 13 6
c order 14 3 10 13 6 8 7 5 11 15 12 2 1 4 9
c order 5 12 2 1 14 7 4 10 11 15 3 9 8 13 6
c order 3 15 10 12 7 11 5 8 1 14 4 6 2 13 9
c order 15 8 6 11 12 14 9 4 1 13 2 3 7 5 10
c order 6 14 13 9 5 3 2 1 11 7 8 15 12 10 4
c order 8 4 5 15 6 10 2 11 7 1 13 9 3 14 12
c order 10 14 3 9 8 4 13 11 12 6 7 1 2 15 5
c order 10 2 8 13 12 5 3 4 9 6 7 14 15 1 11
c order 2 6 13 4 3 10 1 11 5 14 12 8 15 7 9
p cnf 15 63
-11 9 7 0
6 7 -11 0
-13 -14 -10 0
-6 -8 -4 0
-5 -7 2 0
-5 -9 3 0
14 -10 -6 0
1 -4 12 0
-15 3 11 0
-6 7 4 0
-2 14 -3 0
-7 -3 -10 0
6 5 4 0
3 9 6 0
-14 -12 -6 0
-1 -14 -4 0
4 -8 -15 0
7 -8 6 0
-12 3 1 0
9 11 6 0
15 -12 2 0
11 -14 15 0
-9 1 11 0
-6 1 4 0
11 8 -3 0
1 14 6 0
1 -11 -4 0
15 1 10 0
11 1 -13 0
-10 1 15 0
1 -9 15 0
-12 -5 1 0
-12 14 11 0
14 -8 9 0
5 2 14 0
11 -7 8 0
-5 11 -3 0
12 -15 -6 0
1 -7 -8 0
5 -3 6 0
-15 -4 7 0
-7 -3 -9 0
15 -11 12 0
12 -15 11 0
14 -15 12 0
6 13 -5 0
12 -15 11 0
11 -15 5 0
12 3 1 0
8 6 -9 0
-13 -3 -15 0
10 -1 -9 0
-3 4 12 0
-3 -8 -14 0
13 -15 -12 0
2 -4 -7 0
4 7 -2 0
8 -9 -4 0
11 7 10 0
-13 5 2 0
5 13 -12 0
-15 3 -14 0
-2 5 -12 0
