c family=3-SAT n=15 instance=8 seed=2573548008 models=10
c order 4 6 10 7 3 9 12 11 1 8 5 14 15 2 13
c order 13 2 3 12 6 14 8 7 1 11 5 4 15 9 10
c order 11 15 6 8 9 1 14 4 13 12 3 2 5 7 10
c order 6 14 15 3 1 11 12 2 10 8 9 5 4 7 13
c order 6 15 7 3 10 13 1 11 4 5 2 9 8 12 14
c order 6 12 8 1 15 4 3 14 11 7 13 2 9 10 5
c order 15 5 11 13 14 4 7 2 3 12 8 10 6 1 9
c order 2 1 6 7 5 15 4 14 12 9 8 11 3 10 13
c order 7 13 15 6 9 4 2 3 10 8 11 1 5 14 12
c order 1 8 2 4 12 14 3 10 15 9 13 7 5 6 11
p cnf 15 63
-8 -2 -5 0
-5 -12 4 0
-8 9 -5 0
-4 3 13 0
4 11 -14 0
8 -9 -1 0
6 2 12 0
8 6 -1 0
11 1 3 0
-7 -6 1 0
-15 -3 9 0
-15 1 -9 0
10 -7 -14 0
-1 7 13 0
-5 9 -12 0
-11 -1 3 0
-4 9 -6 0
-9 13 -2 0
-8 2 -15 0
-2 -8 15 0
-7 -10 14 0
11 1 4 0
-8 -9 -11 0
5 15 2 0
14 7 -9 0
7 1 6 0
11 6 10 0
10 3 -12 0
-4 8 12 0
6 -9 -15 0
8 1 -11 0
7 -6 -11 0
2 4 -5 0
4 14 -5 0
8 -10 5 0
11 14 5 0
-8 1 15 0
15 1 -5 0
8 -3 -11 0
9 1 12 0
9 1 5 0
-1 11 8 0
3 14 6 0
-15 -7 -8 0
3 -14 1 0
2 8 -9 0
5 -2 6 0
-7 -4 -12 0
-15 3 -14 0
-4 3 -9 0
-6 7 1 0
2 3 -8 0
-15 10 13 0
-4 1 -5 0
10 15 -7 0
-5 -7 -13 0
-8 -14 -11 0
4 -6 -1 0
2 3 12 0
1 -15 9 0
13 -11 -2 0
-1 -11 -4 0
-11 3 -5 0
