c family=3-SAT n=15 instance=6 seed=2573548008 models=20
c order 3 4 11 1 6 7 9 8 2 10 13 15 12 5 14
c order 13 3 7 8 14 5 1 11 4 2 15 9 10 12 6
c order 5 3 9 7 13 6 15 10 2 14 8 4 12 1 11
c order 13 12 15 7 6 5 11 10 3 1 9 2 4 14 8
c order 2 10 7 12 6 11 4 5 15 14 9 8 13 3 1
c order 2 9 8 3 6 5 10 13 1 7 15 4 12 11 14
c order 10 6 1 13 15 8 4 12 9 7 3 2 5 11 14
c order 3 11 4 15 6 8 14 9 13 12 2 5 1 7 10
c order 1 13 11 10 5 14 4 3 7 2 8 9 15 6 12
c order 1 15 4 7 2 6 13 9 10 3 11 14 12 8 5
p cnf 15 63
-4 9 1 0
9 2 7 0
3 -4 15 0
-14 5 -4 0
10 9 15 0
-13 -10 5 0
9 5 13 0
6 7 8 0
-1 10 -15 0
-6 -1 -5 0
13 3 1 0
2 -11 -4 0
-5 -12 -11 0
2 5 3 0
-7 -12 3 0
13 -15 -4 0
-1 3 9 0
1 5 3 0
-5 12 10 0
5 -2 -3 0
6 -1 7 0
2 -3 6 0
-7 -1 11 0
10 8 -15 0
-10 15 -3 0
-14 -1 2 0
-13 8 10 0
3 6 -1 0
15 -4 10 0
9 13 -11 0
15 -7 13 0
-5 10 2 0
-7 -5 8 0
6 -15 1 0
9 10 -14 0
11 8 1 0
13 5 14 0
9 -1 -14 0
-15 14 -5 0
-1 3 -8 0
-2 -6 -4 0
1 -6 -2 0
14 9 -12 0
-2 11 3 0
10 -15 2 0
-11 15 -12 0
-10 -12 -14 0
-4 -9 2 0
6 -8 1 0
-11 -7 -3 0
-6 14 -2 0
13 -14 2 0
12 -13 8 0
4 -10 13 0
10 -1 4 0
12 -2 9 0
-12 -10 8 0
3 8 10 0
6 -15 -14 0
5 3 -12 0
-10 2 15 0
6 -11 -12 0
15 -6 -5 0
