c family=3-SAT n=15 instance=3 seed=2573548008 models=4
c order 15 8 2 1 7 9 3 10 5 4 13 14 12 6 11
c order 3 9 12 15 2 7 14 4 6 10 1 5 8 13 11
c order 2 8 3 10 5 12 14 4 13 15 7 6 11 1 9
c order 2 10 5 4 9 6 12 13 3 7 8 15 1 11 14
c order 13 1 9 8 15 3 4 11 7 14 5 12 6 10 2
c order 13 7 2 11 9 4 3 1 10 15 8 12 5 6 14
c order 13 14 6 10 3 15 12 5 1 4 9 7 11 2 8
c order 15 10 9 13 6 4 8 2 5 12 7 1 3 11 14
c order 7 12 10 1 8 2 15 4 5 9 3 13 14 6 11
c order 4 8 2 14 9 10 5 1 15 11 12 3 13 7 6
p cnf 15 63
13 5 1 0
8 -15 -11 0
-5 14 -13 0
-5 -8 -9 0
-6 -13 -2 0
-1 -9 10 0
-2 -4 7 0
-15 -9 13 0
5 9 15 0
-13 -9 6 0
-5 4 -3 0
6 12 8 0
6 13 -7 0
15 3 10 0
-5 11 13 0
7 -10 -4 0
-8 -3 13 0
11 4 14 0
-10 -4 7 0
-6 10 -2 0
-4 -9 5 0
-8 -9 3 0
-7 8 -11 0
-7 -8 2 0
3 -10 -14 0
15 5 -13 0
15 5 13 0
-10 -6 5 0
-2 14 -10 0
-10 13 6 0
8 12 13 0
6 9 4 0
9 -12 15 0
9 -14 3 0
13 -9 -8 0
6 -8 -5 0
-12 -8 -11 0
-4 -6 -5 0
-2 10 -15 0
14 12 6 0
-10 -7 -5 0
9 -10 2 0
5 -3 -12 0
-10 -3 -12 0
-6 -9 -8 0
-2 -7 -3 0
-14 -15 5 0
9 15 -10 0
3 5 2 0
15 -5 -9 0
-11 -1 6 0
-8 1 -5 0
8 10 1 0
-15 14 -9 0
-15 14 -12 0
2 -9 -10 0
9 8 15 0
-8 -15 1 0
9 -6 -8 0
6 1 7 0
-1 15 7 0
14 -4 -2 0
-13 -7 -10 0
