c family=3-SAT n=15 instance=1 seed=2573548008 models=1
c order 12 15 1 14 6 10 9 2 13 4 8 5 3 11 7
c order 14 13 15 11 2 8 7 9 12 4 10 5 1 6 3
c order 1 9 6 7 5 2 12 15 3 4 11 8 13 10 14
c order 9 13 6 7 8 11 12 4 5 14 10 3 15 1 2
c order 6 10 14 1 7 9 8 4 5 15 13 3 2 11 12
c order 10 1 4 3 12 9 5 2 15 8 13 7 11 6 14
c order 2 8 4 10 15 5 1 9 13 7 3 11 14 6 12
c order 2 5 14 13 7 8 3 9 6 11 4 12 1 10 15
c order 1 9 14 3 2 13 6 12 15 7 8 10 11 5 4
c order 9 4 12 10 6 1 7 3 15 2 13 14 11 8 5
p cnf 15 63
-6 1 -14 0
-9 15 -12 0
-9 -7 14 0
5 11 -6 0
10 -13 15 0
-11 15 -3 0
-6 -13 -3 0
-15 1 5 0
-9 4 -12 0
-15 -9 4 0
7 -3 -10 0
6 -11 2 0
14 3 -5 0
-10 15 -13 0
6 15 14 0
3 15 -4 0
-14 -5 -9 0
-12 -13 -14 0
10 -4 -8 0
1 2 7 0
-11 -1 -13 0
10 2 -4 0
-1 2 -3 0
6 8 -1 0
13 -12 -3 0
7 9 13 0
-10 -15 -1 0
11 -13 12 0
-14 4 6 0
-9 3 2 0
-11 4 10 0
2 -13 -10 0
-8 10 12 0
3 -8 -9 0
11 3 14 0
-10 11 13 0
8 15 9 0
1 -7 11 0
3 1 -12 0
10 3 -1 0
-3 -1 9 0
12 14 11 0
-12 1 -15 0
4 13 -15 0
3 10 -14 0
11 -7 9 0
9 -14 -8 0
-14 10 1 0
7 -3 13 0
-2 -7 15 0
6 -3 9 0
-1 5 15 0
11 4 14 0
-12 -5 2 0
5 12 -15 0
-12 -3 8 0
5 6 15 0
1 10 4 0
-14 15 -12 0
15 -2 4 0
-15 -11 -5 0
-7 5 -3 0
-1 12 14 0
