c family=3-SAT n=15 instance=7 seed=2573548008 models=1
c order 13 14 5 2 15 1 12 7 9 8 3 10 4 11 6
c order 8 14 11 7 2 10 15 1 6 4 9 12 3 13 5
c order 8 14 13 6 1 3 10 9 15 12 4 7 2 5 11
c order 8 2 10 15 1 12 11 14 3 5 4 13 9 7 6
c order 1 11 4 15 10 5 13 12 8 14 6 3 9 7 2
c order 1 8 14 9 5 15 3 10 7 4 2 12 11 13 6
c order 8 7 6 10 9 5 2 13 14 1 4 15 12 11 3
c order 11 12 1 10 7 9 2 15 5 13 14 3 8 4 6
c order 4 12 10 6 9 7 5 1 14 8 15 3 11 2 13
c order 14 5 11 12 6 8 7 4 1 2 15 3 9 10 13
p cnf 15 63
-11 -8 12 0
-4 -15 12 0
-3 -11 15 0
-10 2 -1 0
14 -11 -1 0
10 -15 5 0
-10 12 -13 0
10 2 -6 0
-5 10 -15 0
14 15 8 0
13 -8 15 0
-7 13 -4 0
13 4 8 0
-2 4 12 0
9 5 -11 0
-6 13 2 0
-6 4 12 0
-8 -5 -4 0
5 -9 10 0
15 7 8 0
-11 2 7 0
-6 12 -9 0
-12 -9 -13 0
15 -1 4 0
5 -10 -1 0
13 -7 -15 0
-5 -1 -11 0
-2 5 3 0
-8 4 -13 0
-10 12 11 0
-10 -1 14 0
-5 -11 3 0
-3 -9 -2 0
6 -7 -11 0
-15 7 3 0
-5 -13 3 0
5 9 -3 0
2 4 13 0
-4 13 -14 0
-2 1 15 0
-6 15 -9 0
9 -7 -1 0
12 1 5 0
-4 12 15 0
-14 4 -8 0
-2 -6 -8 0
11 -12 -5 0
-6 3 -2 0
14 -8 -12 0
2 -10 -7 0
-13 -4 7 0
7 -4 -1 0
9 12 3 0
-3 -10 12 0
-5 8 -2 0
15 5 -3 0
7 -10 -2 0
9 1 10 0
15 -3 -13 0
10 -4 -9 0
8 15 11 0
4 3 6 0
-6 -11 12 0
