c family=3-SAT n=20 instance=9 seed=2573548008 models=7
c order 7 17 15 14 20 3 19 18 4 11 2 8 9 10 12 16 1 5 13 6
c order 19 6 13 3 15 17 4 16 1 12 18 5 14 2 10 8 11 9 7 20
c order 1 18 10 19 15 14 13 9 3 20 7 17 5 8 12 2 16 4 11 6
c order 15 4 18 17 1 9 20 5 8 7 14 10 11 3 6 13 12 2 16 19
c order 17 13 5 19 1 16 8 15 4 14 2 20 11 9 7 12 3 18 6 10
c order 14 4 1 9 19 11 17 13 16 12 8 10 5 20 3 6 7 18 15 2
c order 14 10 3 19 5 18 15 20 4 2 9 11 17 1 8 16 7 12 6 13
c order 15 19 6 14 13 9 10 17 12 7 5 8 18 16 4 20 2 3 11 1
c order 16 15 3 11 20 2 9 19 4 17 7 12 8 1 13 6 10 18 14 5
c order 20 16 4 10 14 12 8 11 2 17 18 19 13 5 15 7 9 3 6 1
p cnf 20 84
10 2 13 0
10 15 -7 0
16 9 -5 0
-1 8 -18 0
-7 -17 -15 0
-4 -18 15 0
-12 15 7 0
-17 4 -11 0
6 -16 -15 0
8 11 -15 0
-9 -8 13 0
17 4 -8 0
-16 -13 17 0
-16 12 2 0
-4 8 -15 0
5 13 16 0
-6 2 15 0
-5 -10 6 0
20 5 -2 0
6 -2 -8 0
-14 -3 -19 0
-20 -11 1 0
11 18 1 0
7 8 -3 0
12 15 8 0
18 -6 8 0
20 10 -2 0
-5 8 -9 0
-13 8 7 0
19 4 -6 0
20 -6 -9 0
-13 -9 10 0
7 15 19 0
19 -11 -10 0
-18 -11 17 0
-16 -15 18 0
-8 2 13 0
15 -16 3 0
19 -14 -1 0
8 19 -11 0
6 -8 3 0
-16 -10 -2 0
-5 10 9 0
7 19 5 0
-7 -11 4 0
14 -15 19 0
-16 -5 -3 0
19 20 -9 0
-19 -7 -18 0
17 9 15 0
13 -10 -14 0
-9 7 6 0
-18 15 20 0
12 2 18 0
-10 2 11 0
5 6 -7 0
-15 19 8 0
18 3 -4 0
16 -20 15 0
-7 15 8 0
-11 7 -5 0
5 16 -4 0
-12 -19 -15 0
2 15 -3 0
-13 12 20 0
2 -15 11 0
9 5 2 0
-8 1 -7 0
3 15 -19 0
8 16 1 0
-8 -4 3 0
-5 -10 3 0
-3 2 -18 0
-15 -19 13 0
9 -10 -20 0
15 16 12 0
11 3 -2 0
17 6 3 0
-20 -6 10 0
17 14 -8 0
-17 14 -12 0
12 11 -1 0
7 -8 -16 0
-11 18 7 0
