c family=3-SAT n=20 instance=2 seed=2573548008 models=11
c order 11 15 4 1 12 10 20 7 9 3 2 8 17 16 13 18 14 19 6 5
c order 20 7 16 11 15 8 13 19 4 12 14 9 17 1 2 6 5 10 18 3
c order 15 16 20 11 17 1 12 3 9 2 14 5 18 7 13 4 8 19 6 10
c order 7 1 17 2 10 16 11 3 12 9 19 4 20 13 8 14 5 18 15 6
c order 17 2 3 12 7 1 8 11 6 4 5 16 10 14 19 13 9 18 15 20
c order 6 17 1 5 3 7 13 9 15 20 19 18 12 16 11 4 8 14 10 2
c order 4 15 14 8 7 2 3 11 10 18 20 16 13 6 1 9 17 19 12 5
c order 2 16 3 10 14 13 11 18 1 17 20 12 7 4 9 19 5 6 8 15
c order 20 6 3 12 10 4 17 9 8 18 13 15 5 14 16 1 19 7 11 2
c order 15 17 2 6 16 9 3 19 20 5 14 18 10 8 11 12 4 7 13 1
p cnf 20 84
-10 -6 2 0
13 19 5 0
17 18 -12 0
3 15 14 0
-18 -13 10 0
-18 5 7 0
20 19 6 0
-16 -14 -8 0
-16 5 -2 0
6 -9 18 0
-13 2 -4 0
-9 -2 -7 0
-6 20 15 0
1 -7 6 0
16 11 -10 0
13 16 -3 0
18 7 -10 0
8 4 -14 0
10 -19 -11 0
15 -4 -9 0
2 17 -9 0
16 3 20 0
5 3 -20 0
-11 -18 10 0
-2 17 16 0
17 -11 4 0
-4 -2 -1 0
8 -5 9 0
-8 18 19 0
12 18 -19 0
3 -14 5 0
10 11 -17 0
-2 15 -9 0
-19 -3 2 0
11 -18 -7 0
20 17 7 0
-12 -17 -10 0
4 2 -7 0
-15 -18 20 0
-9 -13 -11 0
-18 19 5 0
-4 -5 14 0
-10 -1 7 0
-12 -6 1 0
20 5 17 0
-5 -19 -3 0
14 12 10 0
-8 -20 16 0
-2 6 13 0
-20 2 -11 0
9 -8 1 0
-19 -4 16 0
16 -11 4 0
6 -13 12 0
-1 4 10 0
20 10 6 0
1 -4 15 0
-16 -4 14 0
-3 -4 17 0
-11 -1 8 0
5 14 -16 0
5 12 -15 0
17 12 -15 0
-19 -5 12 0
-2 10 9 0
-10 15 -8 0
9 -10 8 0
8 -1 6 0
11 -4 -8 0
-11 13 10 0
10 -19 2 0
-4 1 19 0
4 -12 1 0
-11 -6 12 0
-8 -13 -1 0
-9 10 -7 0
-12 7 -11 0
-4 11 -17 0
10 -5 17 0
-19 2 11 0
-8 -5 3 0
-3 5 -11 0
17 -14 -3 0
-14 -10 13 0
