c family=3-SAT n=20 instance=3 seed=2573548008 models=205
c order 8 6 20 14 5 3 15 2 17 9 12 18 1 13 10 7 4 19 16 11
c order 10 20 15 11 4 13 8 3 2 18 7 16 17 1 14 5 12 19 6 9
c order 17 14 18 11 1 6 9 13 12 16 15 7 8 5 20 10 19 2 4 3
c order 12 18 9 11 4 1 3 20 2 19 13 14 5 10 8 17 6 15 7 16
c order 13 3 4 11 16 20 6 5 12 2 18 9 17 7 19 10 1 8 15 14
c order 16 15 2 11 1 4 9 5 20 6 19 8 12 14 3 7 13 17 18 10
c order 19 5 13 14 6 10 11 12 7 3 20 15 16 4 9 8 18 2 1 17
c order 12 4 3 13 8 15 1 18 14 10 6 17 9 20 2 11 5 16 19 7
c order 12 19 7 20 18 16 10 9 1 8 15 5 13 6 2 17 14 4 3 11
c order 9 1 10 16 6 2 18 11 8 3 19 15 20 17 7 13 12 4 14 5
p cnf 20 84
-4 -12 -3 0
-2 18 -13 0
-11 -7 17 0
3 -1 14 0
8 11 20 0
-16 -6 2 0
6 -19 -7 0
-12 1 8 0
18 -5 -16 0
-2 -7 6 0
13 -7 -2 0
16 -13 5 0
9 19 6 0
-6 17 -8 0
-20 6 11 0
18 -5 -1 0
4 6 1 0
-19 8 9 0
1 7 16 0
11 -16 -7 0
-15 -10 -6 0
11 8 18 0
-7 16 1 0
7 -3 -11 0
9 11 -15 0
6 -3 -1 0
-7 -6 -20 0
-12 -3 5 0
-6 14 15 0
11 14 -15 0
-13 3 9 0
-16 10 11 0
-6 -19 9 0
-3 18 7 0
11 -6 -5 0
-12 -11 -10 0
-20 -3 2 0
2 14 -3 0
-13 20 -9 0
-2 1 -16 0
12 14 -1 0
-18 11 -2 0
15 -2 -5 0
7 2 4 0
8 16 11 0
17 -10 -5 0
-2 20 17 0
16 -1 -13 0
-18 -2 -9 0
12 -20 18 0
19 11 -10 0
9 10 -4 0
18 -6 -13 0
17 12 10 0
17 -7 -18 0
-10 -5 13 0
-17 -18 20 0
1 17 -20 0
16 13 8 0
-5 4 -19 0
-9 -12 -3 0
1 10 4 0
-2 10 12 0
5 7 -3 0
19 -3 -2 0
-19 15 18 0
-8 -20 -13 0
-18 20 -7 0
-11 12 3 0
-14 -9 1 0
20 7 1 0
8 7 -1 0
-7 -20 4 0
14 3 15 0
15 -7 -10 0
-13 -15 -8 0
7 3 1 0
18 -1 14 0
17 18 -11 0
15 -3 -1 0
13 -7 -16 0
-6 -12 5 0
-20 11 -16 0
-3 8 18 0
