c family=3-SAT n=20 instance=7 seed=2573548008 models=21
c order 8 9 11 7 14 18 10 4 12 15 16 6 5 13 2 19 1 17 20 3
c order 20 2 18 4 10 16 11 3 5 13 12 1 9 7 19 15 6 8 17 14
c order 9 11 16 8 14 1 10 2 5 13 7 6 19 3 15 12 4 18 20 17
c order 19 20 12 7 4 16 1 2 13 11 14 9 15 8 17 5 10 6 3 18
c order 17 15 4 12 18 3 11 10 6 19 7 16 8 13 9 5 2 1 14 20
c order 17 11 19 13 9 2 1 7 14 20 18 4 15 6 3 5 8 12 10 16
c order 7 19 15 16 20 9 4 18 5 12 3 10 11 17 14 13 2 1 8 6
c order 19 9 6 13 17 10 11 1 2 4 20 5 12 7 15 16 3 8 18 14
c order 13 4 20 1 16 12 18 3 5 19 14 10 9 8 6 15 11 7 17 2
c order 9 13 8 18 16 17 4 10 5 20 19 3 1 15 6 11 7 14 2 12
p cnf 20 84
-20 3 17 0
-15 -18 6 0
-13 8 10 0
10 -5 -1 0
-13 -1 -14 0
-9 19 2 0
5 14 20 0
-14 8 -6 0
-12 20 8 0
18 4 -11 0
11 20 10 0
-11 8 7 0
14 2 13 0
-12 -10 3 0
-13 -10 14 0
18 -10 -20 0
-4 -1 -10 0
20 2 -3 0
18 6 -12 0
-7 3 -10 0
-2 18 10 0
8 -11 15 0
-4 -17 -13 0
3 13 -6 0
16 -13 3 0
-13 -15 11 0
-9 10 -14 0
19 11 -6 0
16 12 20 0
-17 -3 -4 0
7 -10 -18 0
9 15 19 0
18 17 -14 0
-16 20 -10 0
14 10 15 0
18 -9 -17 0
13 -11 -16 0
7 -2 -14 0
-9 3 10 0
11 5 -17 0
1 7 9 0
5 -1 3 0
-17 10 3 0
15 3 19 0
-14 -11 -2 0
-17 -7 -13 0
-16 -5 8 0
18 5 -14 0
16 7 -14 0
-13 -10 -8 0
6 2 17 0
10 -11 -17 0
12 11 -8 0
-12 -14 -19 0
-18 -6 1 0
8 7 16 0
-16 9 -14 0
16 -7 3 0
20 18 1 0
6 12 8 0
-4 15 1 0
17 5 9 0
20 -18 -15 0
-7 2 -5 0
2 -5 10 0
-10 -2 18 0
-1 3 2 0
17 7 -18 0
-18 -8 -15 0
-14 -20 -7 0
-16 -12 2 0
-18 5 13 0
-17 -12 -8 0
11 9 -17 0
5 -7 19 0
20 1 -13 0
8 17 15 0
-4 -1 16 0
-5 14 -1 0
-2 -11 -5 0
15 -16 -13 0
3 -18 17 0
-6 15 1 0
-17 -13 11 0
