c family=3-SAT n=20 instance=4 seed=2573548008 models=12
c order 10 11 12 4 18 19 15 13 17 20 14 1 5 7 16 2 3 9 8 6
c order 16 14 18 20 6 2 1 17 12 5 3 10 11 13 8 19 7 15 9 4
c order 2 3 14 11 20 16 10 18 4 5 7 12 13 8 19 15 9 17 6 1
c order 3 8 1 7 6 10 5 20 15 13 2 17 14 9 11 18 16 19 4 12
c order 3 16 10 13 6 5 11 8 7 1 4 17 20 9 19 15 12 18 2 14
c order 19 17 7 16 3 6 11 10 8 2 18 14 5 1 4 15 13 20 12 9
c order 13 8 14 3 10 1 15 16 6 4 12 9 11 5 17 19 18 2 7 20
c order 17 4 20 18 14 1 2 6 19 10 3 8 12 16 11 9 5 15 13 7
c order 6 8 19 5 2 7 12 15 18 16 1 17 11 13 9 10 3 4 14 20
c order 6 2 5 17 18 16 13 20 11 10 9 3 1 8 15 12 4 14 19 7
p cnf 20 84
-18 15 4 0
14 -9 3 0
2 -6 3 0
14 11 12 0
-3 -17 19 0
-17 -8 -16 0
-1 -15 -9 0
13 15 9 0
-17 -10 -19 0
-16 -9 12 0
8 -1 -19 0
10 -9 -7 0
-3 -16 12 0
-16 -12 17 0
-15 7 20 0
-17 12 9 0
2 8 -16 0
13 16 -1 0
-7 16 -13 0
19 15 -9 0
-17 -5 11 0
-6 -20 10 0
14 9 15 0
19 -4 -3 0
-6 -16 4 0
-14 15 3 0
19 14 17 0
-14 -15 -5 0
11 3 6 0
-12 20 -14 0
17 -19 -2 0
16 -14 -13 0
-14 6 3 0
-3 14 7 0
5 12 -16 0
18 -12 -11 0
-3 -15 -12 0
14 20 8 0
5 16 -1 0
9 -15 -16 0
-3 -20 4 0
-6 -17 -9 0
-2 7 1 0
-13 12 -3 0
-15 9 5 0
-9 2 10 0
-11 -12 13 0
15 17 10 0
10 -7 -18 0
-19 -13 -8 0
-17 18 1 0
-6 9 13 0
8 17 -1 0
10 8 6 0
-13 11 14 0
3 -12 -13 0
19 7 -5 0
4 1 10 0
-17 14 12 0
18 -14 -6 0
2 13 -19 0
10 16 9 0
8 -1 17 0
-14 -4 11 0
-11 7 3 0
-13 17 -7 0
14 -20 9 0
-10 18 11 0
-18 11 3 0
-6 -11 -13 0
-12 5 17 0
-8 1 -13 0
-10 4 -20 0
-15 -12 7 0
-20 19 7 0
-6 -10 5 0
-11 12 -19 0
-18 9 3 0
-19 7 -14 0
8 3 -4 0
7 -3 18 0
9 -7 -18 0
17 16 -6 0
-20 5 2 0
