c family=3-SAT n=20 instance=8 seed=2573548008 models=1
c order 19 11 7 15 20 10 3 17 9 16 18 2 4 12 14 1 8 13 6 5
c order 3 4 10 7 12 15 16 18 1 9 6 2 19 13 5 11 8 17 20 14
c order 8 19 18 2 6 10 1 4 7 5 15 17 20 14 11 16 9 13 12 3
c order 9 8 3 17 14 19 15 5 4 16 2 11 13 6 20 7 12 10 1 18
c order 18 4 12 3 19 2 17 6 13 14 7 11 5 15 1 16 9 20 8 10
c order 9 4 19 2 11 3 5 18 6 7 8 10 1 16 15 12 17 13 20 14
c order 15 7 1 20 16 13 12 5 14 3 2 18 8 10 11 6 9 19 17 4
c order 20 15 12 7 14 6 8 4 1 16 19 18 9 17 3 13 11 5 10 2
c order 19 5 16 6 20 1 10 12 18 15 4 3 9 11 7 17 2 8 14 13
c order 9 1 5 2 6 10 8 13 3 17 15 11 16 7 20 4 18 14 12 19
p cnf 20 84
-7 -18 2 0
-12 -13 5 0
-4 20 13 0
11 2 12 0
-11 12 -7 0
19 4 7 0
17 4 -10 0
15 4 12 0
10 -9 -12 0
-7 -20 18 0
4 -10 -18 0
13 -7 16 0
7 -9 20 0
14 -19 18 0
-19 2 3 0
-8 -15 2 0
-8 10 -17 0
-8 -20 3 0
6 -12 16 0
9 -2 20 0
-6 -15 1 0
-16 15 3 0
5 17 13 0
-14 6 -7 0
-4 16 -20 0
11 6 -1 0
-19 -18 15 0
10 -17 16 0
-5 18 -15 0
-11 6 -2 0
-4 11 7 0
-13 -18 -12 0
-5 -10 -19 0
3 11 10 0
-15 11 8 0
6 13 5 0
8 4 5 0
11 13 3 0
-18 6 4 0
-20 2 -17 0
-6 -16 15 0
10 -9 -17 0
-15 -18 -3 0
8 1 -3 0
-19 15 -20 0
-2 -11 4 0
-16 3 2 0
1 -16 12 0
20 -9 18 0
-6 12 1 0
-19 20 -7 0
12 -20 -10 0
-8 12 -1 0
-20 5 18 0
10 -13 19 0
-13 8 19 0
-10 12 8 0
2 15 4 0
-17 -16 -4 0
-12 6 19 0
4 14 -13 0
-12 -2 8 0
7 -9 12 0
-13 -4 9 0
-14 -2 11 0
4 16 -13 0
-8 9 18 0
-6 -10 2 0
14 3 -11 0
13 14 1 0
-20 12 19 0
-4 -3 15 0
3 5 -2 0
-4 -18 -7 0
4 2 -12 0
8 -18 20 0
-17 15 11 0
20 5 7 0
16 -20 4 0
6 -4 13 0
-11 19 -2 0
-14 5 1 0
20 -2 -13 0
1 11 17 0
