c family=3-SAT n=20 instance=6 seed=2573548008 models=6
c order 10 11 12 19 14 9 20 2 1 5 4 16 8 15 13 18 7 17 3 6
c order 1 15 9 11 14 18 12 3 4 2 8 16 17 13 5 19 10 7 20 6
c order 12 3 8 11 6 10 19 1 7 13 9 16 4 20 14 15 2 18 17 5
c order 20 4 9 14 8 16 11 18 3 7 13 19 10 2 12 6 1 17 15 5
c order 17 7 1 15 5 8 14 10 19 2 20 16 13 3 11 6 9 4 12 18
c order 6 3 4 13 14 15 1 10 8 12 19 5 9 16 20 2 7 18 17 11
c order 9 7 5 3 19 17 4 10 13 16 14 6 18 12 8 1 11 20 2 15
c order 2 20 17 1 13 3 12 8 15 11 6 5 16 18 4 7 9 10 14 19
c order 3 2 1 8 18 6 19 12 20 10 13 11 9 7 17 5 15 14 16 4
c order 18 8 17 1 15 2 19 9 4 20 6 3 7 16 12 14 13 11 10 5
p cnf 20 84
-9 15 -7 0
-7 -3 13 0
-4 19 16 0
-18 7 6 0
1 -16 -14 0
-11 15 -14 0
15 -4 10 0
17 9 -3 0
-10 2 -3 0
4 8 15 0
-11 -3 2 0
-4 15 -18 0
-3 -13 -19 0
-15 12 -1 0
-19 17 -18 0
5 20 19 0
-16 -1 20 0
-20 -17 9 0
17 8 -5 0
-5 6 -1 0
-6 -11 -15 0
-17 -4 20 0
-5 18 -11 0
6 -17 5 0
-17 -2 5 0
14 -15 16 0
20 -2 -3 0
16 20 -15 0
-14 -10 -13 0
-12 -9 15 0
-11 6 16 0
-12 13 -10 0
-12 19 -8 0
15 -8 14 0
11 -8 5 0
-7 15 14 0
4 -8 -18 0
-14 -3 -8 0
18 20 -2 0
1 9 5 0
14 -17 4 0
6 -7 -2 0
-10 -8 -14 0
-15 -12 7 0
-16 -3 -7 0
-4 -14 16 0
17 -4 -12 0
-17 -1 7 0
20 -5 -17 0
-15 13 -4 0
7 5 12 0
-3 -15 7 0
6 -18 -8 0
19 11 -7 0
-15 -12 20 0
-4 -6 -3 0
17 15 14 0
8 -15 -19 0
-15 11 10 0
1 -7 13 0
-14 1 -8 0
-6 13 -15 0
14 -11 -4 0
-4 9 20 0
-14 -2 16 0
6 15 -8 0
-2 17 -9 0
-5 -8 19 0
1 -18 12 0
4 6 10 0
13 6 -7 0
-14 3 7 0
-17 -7 -10 0
18 -5 15 0
-11 17 -5 0
-8 -5 1 0
-3 -17 4 0
-7 -18 8 0
-8 -9 19 0
-4 13 -18 0
-16 1 12 0
2 -10 -8 0
-2 1 -12 0
16 -6 -13 0
