c family=3-SAT n=20 instance=0 seed=2573548008 models=8
c order 20 9 17 15 18 2 16 13 4 3 12 1 19 5 10 11 14 7 6 8
c order 13 1 8 17 16 2 10 9 11 20 18 4 6 5 3 12 15 7 14 19
c order 6 15 1 8 2 5 18 3 17 16 11 12 20 9 7 14 19 4 10 13
c order 6 16 19 2 5 12 7 15 3 14 13 17 4 9 10 8 1 18 20 11
c order 14 16 20 19 3 4 8 13 2 5 15 7 12 6 17 9 10 11 18 1
c order 4 7 17 3 14 13 2 18 11 16 9 19 12 6 1 20 15 8 10 5
c order 10 13 16 3 8 6 20 11 1 14 18 4 12 5 2 15 19 17 9 7
c order 15 8 9 3 13 14 17 2 6 10 12 4 5 20 1 18 7 11 16 19
c order 19 1 17 20 12 13 10 9 4 15 16 11 5 7 8 14 18 6 3 2
c order 3 5 20 8 4 16 11 18 1 15 2 6 10 17 12 13 7 14 19 9
p cnf 20 84
-6 -20 -18 0
-13 19 4 0
3 -2 13 0
6 1 -3 0
8 -14 16 0
-9 -10 -12 0
-13 8 -10 0
-15 1 6 0
1 3 5 0
-5 -19 11 0
15 -2 -6 0
7 15 -8 0
9 20 -4 0
2 15 10 0
-11 -1 -8 0
10 2 -19 0
-16 -11 -6 0
-13 14 -3 0
14 9 -18 0
11 14 20 0
-17 11 2 0
6 11 -13 0
-20 -17 16 0
-13 -19 -7 0
-15 -8 5 0
8 -15 18 0
-4 12 5 0
18 20 -14 0
-14 17 8 0
-15 1 3 0
-8 -3 5 0
7 20 9 0
-17 16 -2 0
13 5 -14 0
14 -6 -9 0
7 -16 18 0
-15 19 -12 0
7 -10 -11 0
20 5 -3 0
6 2 4 0
8 -18 16 0
2 3 -7 0
-5 -2 -7 0
-4 14 -13 0
-9 3 -2 0
-2 -20 19 0
-6 15 10 0
6 -9 -4 0
-15 11 20 0
7 12 8 0
-14 -19 15 0
4 -16 10 0
-9 13 10 0
9 -1 10 0
-1 13 8 0
7 -12 1 0
-5 -1 -19 0
2 -1 -8 0
12 -10 14 0
-12 2 15 0
14 4 8 0
-11 -1 14 0
-18 8 20 0
5 -4 13 0
10 -13 19 0
15 14 1 0
13 5 -17 0
-4 -18 5 0
-2 10 -14 0
-14 8 -1 0
15 20 -8 0
1 17 15 0
12 -17 4 0
-7 8 -17 0
-11 17 18 0
19 15 5 0
9 -1 8 0
-14 1 13 0
-9 -18 -16 0
6 -12 16 0
14 -12 -6 0
-18 5 10 0
-7 14 9 0
11 9 -7 0
