c family=3-SAT n=20 instance=1 seed=2573548008 models=3
c order 19 14 16 3 4 10 9 12 1 17 13 6 7 15 5 11 8 20 18 2
c order 10 20 5 11 14 8 17 18 2 4 12 19 3 6 16 15 13 9 1 7
c order 18 8 2 19 10 14 20 6 11 4 13 15 12 16 17 9 7 5 1 3
c order 2 1 3 5 17 7 8 12 14 18 10 11 16 19 9 4 15 6 20 13
c order 17 2 3 11 14 15 19 1 18 8 10 6 12 5 13 20 4 9 7 16
c order 11 7 10 20 17 13 1 2 3 18 8 4 15 5 6 9 14 19 12 16
c order 16 20 6 15 11 1 3 5 17 4 18 9 2 7 8 14 13 19 10 12
c order 16 11 12 5 13 1 15 7 10 17 20 8 3 19 14 4 6 9 18 2
c order 19 20 6 1 7 15 12 5 3 10 11 17 8 4 13 18 2 14 9 16
c order 15 8 6 7 3 1 18 13 12 2 11 9 19 14 20 4 5 16 17 10
p cnf 20 84
7 12 -13 0
6 13 14 0
12 11 -1 0
-2 -18 -17 0
-17 9 20 0
-14 -17 -8 0
19 12 -15 0
4 3 13 0
-3 -9 6 0
5 20 10 0
12 -17 20 0
-14 8 -18 0
19 3 -7 0
-7 -17 6 0
-6 -12 -2 0
-4 10 -19 0
4 10 -20 0
19 12 1 0
14 -9 19 0
-9 -2 15 0
7 1 -11 0
-2 14 -18 0
-13 19 12 0
-11 2 -18 0
-17 13 -2 0
9 18 -3 0
-19 9 3 0
-10 19 9 0
-18 -10 15 0
-7 -3 -4 0
3 9 13 0
-15 13 -14 0
-12 -17 -19 0
-14 9 18 0
10 3 -11 0
-8 19 20 0
-12 15 8 0
6 -9 -14 0
-12 -18 -1 0
-19 15 4 0
-11 -8 15 0
-1 7 -4 0
-17 7 1 0
3 -18 -9 0
-18 -17 14 0
-13 -12 8 0
19 15 -10 0
15 14 -8 0
-9 -18 -10 0
13 -2 3 0
2 -20 -8 0
10 -17 -11 0
6 9 -13 0
-9 -5 16 0
15 6 1 0
9 -19 14 0
2 -16 -10 0
-11 -1 -7 0
-11 3 20 0
-13 17 -9 0
11 18 -10 0
-15 17 12 0
-12 14 -8 0
20 -10 15 0
-5 -11 17 0
8 -3 9 0
13 -20 19 0
-18 -1 -10 0
2 -13 6 0
1 2 14 0
7 -18 -17 0
-9 18 15 0
-13 -8 -10 0
-2 -11 3 0
-17 -7 -19 0
-3 7 10 0
-5 9 -19 0
15 10 2 0
6 -16 -18 0
-15 -4 10 0
7 -15 -5 0
12 -1 -11 0
-1 -14 18 0
14 12 -10 0
