c family=3-SAT n=20 instance=5 seed=2573548008 models=3
c order 5 4 16 15 11 13 12 2 19 10 14 3 9 1 17 8 18 20 6 7
c order 16 7 4 3 20 5 9 17 18 13 8 1 6 15 10 11 14 19 2 12
c order 6 3 11 16 4 17 9 13 1 14 10 15 7 12 5 8 19 18 20 2
c order 15 10 18 20 16 4 2 17 7 13 8 5 1 19 12 9 14 3 6 11
c order 9 14 19 3 20 6 2 17 1 5 8 13 11 15 12 10 16 7 4 18
c order 8 5 19 15 14 4 7 6 11 1 9 12 20 3 16 13 10 2 17 18
c order 7 6 4 18 12 11 20 10 8 16 2 17 15 19 9 5 1 3 13 14
c order 5 11 10 13 17 15 18 6 20 7 19 1 14 8 16 3 9 12 4 2
c order 14 9 15 19 2 7 11 13 20 5 4 17 8 16 10 12 3 6 1 18
c order 3 15 17 11 9 1 4 8 19 2 7 14 13 5 16 6 10 20 18 12
p cnf 20 84
11 -15 4 0
3 -10 -2 0
12 -5 -9 0
-17 19 -5 0
-13 18 1 0
9 16 4 0
-17 12 -3 0
7 -20 16 0
19 13 1 0
-8 9 14 0
-11 -13 -12 0
20 -8 15 0
18 -3 -6 0
13 16 20 0
-20 -7 11 0
13 16 19 0
-3 -9 20 0
-13 15 14 0
12 -6 8 0
-1 17 -20 0
5 -3 -12 0
-2 20 -15 0
-11 5 -2 0
-6 17 -3 0
-1 -15 17 0
11 -13 -2 0
14 -12 -20 0
19 18 -8 0
18 -3 -13 0
-13 11 -15 0
12 -7 -20 0
-18 -9 11 0
-3 13 -20 0
-17 6 11 0
-12 -7 11 0
13 -2 -11 0
1 -12 -6 0
-10 -18 -16 0
-17 7 5 0
-2 8 -18 0
-18 -5 19 0
17 15 -4 0
18 8 3 0
10 -17 -18 0
5 13 -11 0
-17 -2 9 0
-1 -15 -9 0
20 19 -2 0
-20 -8 15 0
19 5 -4 0
19 7 4 0
-15 5 2 0
-6 -5 -19 0
-7 -3 -12 0
-7 -20 -14 0
14 19 15 0
19 -10 -7 0
-10 -8 -18 0
-8 19 -1 0
-1 -7 -11 0
1 8 18 0
-4 -18 -11 0
-12 -2 -5 0
-11 19 -6 0
-17 -6 13 0
-5 -18 3 0
-16 2 9 0
-11 10 -4 0
-15 2 1 0
10 -12 -6 0
-13 -17 1 0
20 8 -16 0
-10 -18 -2 0
19 -16 -4 0
16 -2 -7 0
11 1 -13 0
3 7 -16 0
15 -13 7 0
14 16 8 0
6 -10 -13 0
18 20 -10 0
-3 19 -7 0
-3 11 2 0
-3 19 10 0
