c family=3-SAT n=25 instance=6 seed=2573548008 models=17
c order 10 23 3 11 6 7 19 4 9 22 24 8 14 13 15 17 25 16 1 21 5 2 18 20 12
c order 1 8 11 19 10 2 16 25 21 12 22 24 3 9 4 13 6 17 5 7 15 23 14 20 18
c order 8 11 9 12 22 24 17 25 18 10 14 4 6 3 5 15 16 19 2 20 7 23 1 13 21
c order 11 15 9 1 8 25 18 4 5 10 6 23 14 22 2 3 24 16 7 20 19 12 17 21 13
c order 19 12 10 18 3 13 9 11 21 22 2 5 14 24 4 16 7 1 25 17 15 23 20 6 8
c order 8 15 6 3 22 18 17 2 1 16 5 24 21 10 11 20 14 7 23 19 13 25 12 9 4
c order 12 23 1 4 15 2 16 5 8 20 14 3 10 11 24 21 7 25 18 17 9 13 19 6 22
c order 15 19 22 17 10 7 12 25 21 8 16 18 14 11 5 23 2 9 24 6 1 13 3 4 20
c order 10 23 15 20 12 6 14 4 7 8 16 1 21 25 19 11 17 3 22 13 24 9 5 18 2
c order 8 16 19 5 22 2 17 4 14 15 24 3 12 10 13 11 25 9 7 1 23 21 6 20 18
p cnf 25 105
4 2 -23 0
5 4 24 0
1 -12 -6 0
23 -18 -11 0
5 16 20 0
14 -3 19 0
-1 5 22 0
19 13 -9 0
-17 24 10 0
1 16 17 0
9 -7 -25 0
-25 9 4 0
-3 -19 6 0
-21 -23 20 0
13 11 -9 0
-17 20 8 0
-1 18 21 0
8 -17 25 0
-3 -6 17 0
-19 6 -4 0
-7 -19 6 0
10 -16 12 0
-14 -21 16 0
-5 -17 19 0
-15 3 4 0
13 -3 4 0
24 23 22 0
-17 -11 -16 0
16 4 15 0
-18 12 -13 0
19 22 10 0
-6 16 19 0
15 4 17 0
2 3 -15 0
-10 -20 23 0
-5 -20 -1 0
16 -12 -20 0
8 13 -7 0
-9 21 5 0
-20 12 17 0
5 -6 -19 0
4 -25 -9 0
-4 -19 -17 0
-6 21 -8 0
20 -7 1 0
-17 3 20 0
-8 18 -23 0
13 -2 17 0
-13 12 1 0
6 24 -1 0
5 -24 13 0
14 -1 -7 0
17 -16 -15 0
9 15 -22 0
15 -6 -3 0
-6 4 -25 0
10 24 5 0
21 -4 20 0
-16 -9 -5 0
4 7 -8 0
-12 -18 -21 0
-15 24 14 0
8 -17 -3 0
-14 9 1 0
9 -2 16 0
-25 15 20 0
-11 -7 20 0
-18 -5 -20 0
23 -14 -3 0
-9 -10 1 0
-14 1 -17 0
18 10 12 0
9 24 2 0
-8 25 21 0
-19 -16 -7 0
-21 -1 -15 0
11 17 -8 0
-14 -2 6 0
-3 13 -9 0
18 12 -7 0
23 13 -20 0
8 -15 -14 0
20 21 24 0
20 -14 -6 0
-14 -2 -12 0
-12 -7 -8 0
-2 17 23 0
-11 -9 16 0
-16 -20 23 0
-12 9 20 0
-9 -16 10 0
-23 3 7 0
12 7 15 0
16 -3 -7 0
-15 -14 -20 0
-13 6 -20 0
-24 7 14 0
20 22 6 0
12 -22 -15 0
24 -7 -19 0
-21 1 12 0
9 21 17 0
-2 4 -19 0
20 -2 -4 0
-19 3 -5 0
