c family=3-SAT n=25 instance=7 seed=2573548008 models=8
c order 8 9 4 1 10 18 11 7 21 22 6 20 2 16 25 19 14 13 17 15 5 3 23 12 24
c order 11 25 20 5 24 21 19 1 10 16 12 8 6 17 2 22 7 18 3 13 15 23 14 9 4
c order 4 17 22 8 15 23 19 25 13 21 2 16 18 11 10 7 24 12 6 3 14 9 5 1 20
c order 6 1 20 7 8 17 15 3 12 16 22 4 21 24 18 25 19 2 10 23 5 11 9 14 13
c order 17 7 19 22 15 10 2 21 5 1 25 14 12 23 6 8 24 16 3 20 13 9 18 4 11
c order 13 5 25 6 9 23 17 21 16 19 3 15 24 20 18 22 1 7 11 12 4 10 2 8 14
c order 2 25 15 9 10 5 17 7 12 6 14 21 22 4 11 3 8 13 18 19 24 1 20 16 23
c order 20 8 7 23 3 2 13 4 12 17 6 11 22 18 15 5 21 1 24 14 9 16 25 10 19
c order 9 2 8 5 14 16 18 19 10 15 4 7 21 11 6 24 3 22 12 23 13 20 17 25 1
c order 6 10 5 13 4 15 20 12 7 11 24 14 19 22 2 25 18 17 8 9 1 16 3 23 21
p cnf 25 105
7 -14 17 0
-23 17 14 0
16 3 13 0
-16 14 20 0
11 -14 -17 0
11 -25 -18 0
-8 -23 15 0
-1 17 7 0
22 -7 12 0
18 5 -8 0
-20 -7 -6 0
-23 -12 11 0
-8 -12 -14 0
-11 -6 10 0
2 -22 12 0
-11 23 -13 0
20 -19 -22 0
-19 -1 16 0
-17 -9 3 0
10 2 -11 0
-19 -13 2 0
20 23 -4 0
4 18 9 0
20 -22 9 0
12 -21 11 0
-19 3 9 0
9 -20 3 0
9 -25 -3 0
-16 -10 2 0
17 -21 7 0
6 18 17 0
16 3 8 0
25 12 -16 0
-7 13 6 0
-4 18 16 0
-3 -25 -7 0
11 25 4 0
5 -19 -16 0
9 -16 17 0
20 -13 4 0
-24 1 25 0
24 13 -3 0
4 21 16 0
-15 2 8 0
18 14 -10 0
-17 6 -3 0
9 -3 -13 0
-22 17 -3 0
-12 9 -2 0
-21 7 -11 0
-22 6 -4 0
5 -7 19 0
22 -15 14 0
22 -14 21 0
12 -6 -25 0
10 3 23 0
24 -10 -19 0
-10 25 -23 0
11 -9 -3 0
18 -3 15 0
22 8 -5 0
1 2 -22 0
-4 10 6 0
12 -25 9 0
5 4 9 0
-12 -5 16 0
15 19 18 0
23 19 17 0
22 -25 -8 0
-2 11 5 0
1 9 -22 0
-19 17 -20 0
-2 -21 4 0
-22 -2 -24 0
-8 18 2 0
25 -5 -7 0
-24 6 -12 0
20 -14 -19 0
-21 -13 -5 0
19 -24 16 0
9 18 23 0
-24 14 13 0
-10 24 -18 0
15 6 -9 0
-16 -5 -12 0
12 -17 -11 0
-23 6 -24 0
3 -25 -17 0
-17 -1 2 0
-15 -6 25 0
13 5 -2 0
16 -1 4 0
-17 14 8 0
22 9 23 0
2 20 9 0
-2 -5 18 0
-10 -13 25 0
-19 -15 -12 0
-7 -1 -10 0
-17 -7 6 0
-23 1 -19 0
14 -9 -16 0
-12 21 2 0
-16 -17 4 0
14 -18 -10 0
