c family=3-SAT n=25 instance=8 seed=2573548008 models=108
c order 17 20 11 19 23 3 14 5 13 10 25 24 22 4 12 18 9 15 21 16 6 7 1 8 2
c order 19 14 13 7 16 3 10 1 17 5 15 18 23 12 6 9 24 2 25 22 4 11 8 20 21
c order 15 21 13 23 22 3 11 2 14 12 18 20 5 1 25 10 6 8 9 19 4 7 17 24 16
c order 4 2 21 23 1 15 17 3 13 6 9 25 11 12 22 14 18 5 10 24 19 8 16 7 20
c order 7 10 21 18 8 4 16 13 23 1 11 3 15 5 25 12 2 17 6 9 19 14 22 24 20
c order 16 6 22 4 10 19 13 21 7 24 20 25 15 11 12 23 14 5 2 3 18 9 1 8 17
c order 18 13 25 20 10 17 1 2 7 11 19 12 21 9 6 15 24 22 5 3 23 4 14 8 16
c order 17 13 12 11 16 10 3 14 24 21 4 9 2 25 7 6 15 23 19 18 22 20 5 1 8
c order 4 12 6 10 25 19 23 9 1 11 20 24 13 15 17 14 7 8 18 21 22 3 16 2 5
c order 6 16 21 23 20 25 11 2 19 24 5 22 18 4 15 9 3 8 10 7 1 14 17 13 12
p cnf 25 105
-25 -12 7 0
18 11 1 0
11 -22 -5 0
-5 12 16 0
-25 -22 -18 0
-11 25 -18 0
14 -21 23 0
6 -3 19 0
10 -5 -25 0
21 -13 -18 0
12 21 -4 0
-6 15 16 0
-16 8 12 0
-6 -19 -11 0
-3 -11 -5 0
-22 4 25 0
-22 19 12 0
-23 21 -19 0
22 7 -14 0
17 19 -1 0
-6 -1 11 0
-25 20 6 0
17 24 -1 0
-4 -16 13 0
-6 -21 -23 0
8 -9 16 0
-3 15 23 0
-14 16 24 0
7 -11 2 0
-23 8 -6 0
-17 -3 -24 0
-9 -1 14 0
20 -3 15 0
-7 12 -3 0
12 25 11 0
-11 1 -22 0
-16 1 4 0
12 11 3 0
22 -2 17 0
-18 25 11 0
-3 19 -17 0
10 7 11 0
15 -5 -3 0
2 6 3 0
13 17 16 0
-22 -17 -3 0
17 4 -8 0
25 6 -24 0
16 -21 -9 0
22 23 25 0
-18 25 11 0
14 -8 11 0
-17 -16 -22 0
-10 -21 -15 0
-20 -1 8 0
-10 -22 -23 0
2 -7 -25 0
-2 -6 11 0
20 13 1 0
11 -16 23 0
-17 -15 -24 0
-4 12 -25 0
-14 10 -3 0
2 -21 3 0
-10 -25 23 0
14 -21 -22 0
-23 -4 -1 0
17 -19 14 0
-4 -6 -9 0
-9 -16 -25 0
-1 12 -21 0
-5 -11 -3 0
-23 -2 1 0
8 -12 -18 0
-20 -2 7 0
-16 5 -2 0
10 -21 -8 0
18 13 3 0
-1 22 9 0
14 -2 -13 0
-2 -5 -11 0
6 13 -4 0
23 14 -1 0
2 11 15 0
10 13 25 0
-7 -21 -18 0
18 25 17 0
7 -12 -11 0
-4 -24 5 0
8 -23 7 0
8 15 -3 0
-4 -7 8 0
3 -2 -12 0
-18 11 -6 0
-15 -16 6 0
-21 4 -11 0
-16 -1 6 0
2 7 -20 0
5 -4 -9 0
25 23 -24 0
25 -19 -3 0
-15 -16 1 0
-8 20 23 0
10 23 16 0
-3 21 16 0
