c family=3-SAT n=25 instance=0 seed=2573548008 models=19
c order 25 24 8 3 13 23 17 15 22 4 6 1 12 19 16 21 11 2 10 7 20 9 18 14 5
c order 4 20 10 17 2 18 1 12 13 14 21 8 6 11 5 23 25 22 24 7 15 19 3 9 16
c order 4 22 9 18 5 1 15 24 14 20 16 10 12 19 8 23 11 17 25 7 6 21 2 13 3
c order 11 15 7 13 14 18 25 16 20 3 1 21 24 10 9 2 6 17 8 12 19 5 22 23 4
c order 9 10 20 8 23 15 16 14 2 18 1 3 7 24 11 19 13 12 5 21 17 6 25 4 22
c order 4 9 5 14 25 6 20 7 12 8 24 2 1 22 15 19 10 11 23 21 16 3 18 17 13
c order 14 19 23 5 13 18 2 20 21 24 9 4 22 3 25 11 7 17 15 16 6 12 10 8 1
c order 13 20 16 22 24 17 19 6 5 25 11 23 3 2 12 7 4 8 15 9 1 14 10 18 21
c order 3 15 9 17 20 4 14 11 22 12 8 6 2 10 5 21 7 19 1 16 24 23 25 13 18
c order 22 6 18 10 25 11 17 20 13 16 2 14 3 7 5 21 8 15 12 19 23 9 24 1 4
p cnf 25 105
-19 -1 16 0
-24 17 5 0
-18 -17 -5 0
18 21 -1 0
10 -18 9 0
24 15 -4 0
7 -17 -10 0
1 -15 10 0
-23 -12 -3 0
-1 2 12 0
-17 -22 20 0
7 1 19 0
-24 5 3 0
-2 17 20 0
23 -16 4 0
17 -23 -4 0
-12 23 -8 0
12 -9 16 0
23 -15 11 0
8 11 -14 0
11 14 13 0
13 -15 1 0
18 -24 14 0
-10 -20 5 0
-14 24 11 0
-13 -25 14 0
-10 21 9 0
-8 -7 -14 0
1 -24 -15 0
6 19 -10 0
-19 -7 -17 0
-19 20 4 0
-17 4 -23 0
5 23 22 0
19 -8 13 0
19 23 13 0
-17 22 20 0
14 -3 20 0
-18 -7 -22 0
-4 2 -16 0
-13 1 -2 0
-12 19 2 0
7 18 -22 0
-7 18 -20 0
24 -12 3 0
-7 19 -24 0
-19 8 -21 0
21 16 -24 0
2 25 14 0
19 8 -18 0
-10 7 11 0
24 3 -17 0
-19 3 25 0
-17 14 15 0
-7 -14 16 0
-24 -15 25 0
10 5 -14 0
-24 -15 3 0
-16 9 11 0
6 12 11 0
7 17 -6 0
-9 6 -2 0
17 -19 -13 0
-2 11 5 0
-23 -16 -17 0
-7 23 -24 0
11 6 4 0
-5 15 13 0
-2 6 4 0
-19 2 -14 0
10 -1 -3 0
-22 -15 -11 0
22 -25 2 0
24 -5 -18 0
-6 -24 7 0
-6 -21 23 0
21 -20 -16 0
6 10 -18 0
3 -15 4 0
16 -1 9 0
-16 -17 3 0
-9 -12 -22 0
9 -7 2 0
-19 -4 -11 0
-13 -7 -12 0
-20 9 17 0
-1 -10 16 0
-9 -10 -3 0
-1 -13 -22 0
14 -5 23 0
-11 9 -13 0
15 -4 9 0
-3 15 2 0
20 16 19 0
-25 -11 21 0
-5 -17 16 0
25 -19 -24 0
24 16 6 0
-7 22 -8 0
-2 -8 -3 0
-13 -22 -10 0
16 -24 -18 0
-23 20 14 0
21 -13 9 0
-18 -12 4 0
