c family=3-SAT n=25 instance=2 seed=2573548008 models=14
c order 25 3 18 6 4 15 7 21 12 20 22 19 23 13 14 1 9 8 11 10 16 24 2 17 5
c order 8 5 24 20 10 7 15 11 2 25 4 22 19 9 12 21 1 23 17 13 18 16 14 6 3
c order 2 12 18 8 3 13 23 19 1 6 21 25 10 15 22 24 7 20 9 16 4 17 5 11 14
c order 13 9 19 4 24 16 1 23 12 3 22 21 18 6 15 2 10 8 17 5 14 11 7 20 25
c order 3 12 4 7 23 22 18 9 11 16 21 19 17 13 15 5 14 2 10 24 6 25 1 20 8
c order 23 2 25 4 13 20 12 14 7 15 11 1 22 19 21 17 24 3 9 5 10 8 16 6 18
c order 19 18 2 5 25 15 11 8 16 10 13 23 7 24 4 3 14 20 17 9 22 21 12 1 6
c order 13 20 4 8 17 18 3 25 11 15 12 23 7 22 14 10 24 1 16 2 9 19 5 6 21
c order 1 16 12 11 22 10 21 3 8 4 18 6 2 15 9 5 23 17 24 19 25 7 13 14 20
c order 21 24 10 1 12 8 5 18 23 2 7 4 19 13 11 3 25 20 17 15 16 22 9 14 6
p cnf 25 105
2 -8 -10 0
9 -3 -20 0
13 19 -1 0
2 14 -17 0
-5 3 -2 0
-5 15 22 0
-19 -7 9 0
-18 -16 -7 0
-6 -10 22 0
-23 -14 1 0
-16 7 -6 0
-13 17 24 0
3 21 20 0
25 3 -15 0
2 16 17 0
2 7 -4 0
15 16 -7 0
-17 -11 9 0
-9 -21 -2 0
-12 15 3 0
15 -10 5 0
-1 -7 -12 0
14 -3 -6 0
-13 -25 -21 0
22 19 6 0
9 -22 10 0
-5 -21 -11 0
23 -21 17 0
2 10 8 0
24 -7 10 0
5 11 -15 0
-2 12 -24 0
21 -9 -20 0
-12 11 9 0
-23 13 24 0
-13 -16 24 0
-14 20 -17 0
3 5 22 0
-6 21 -10 0
19 6 17 0
-14 1 -8 0
11 4 -8 0
5 -14 -19 0
7 -16 -15 0
17 -21 -3 0
14 22 15 0
16 19 7 0
-16 5 -24 0
21 11 -18 0
15 7 -16 0
-23 14 -18 0
5 6 -1 0
7 6 15 0
25 3 10 0
2 5 -3 0
-20 -15 12 0
-10 -2 1 0
10 18 -23 0
-2 -9 -10 0
-5 12 -9 0
23 -10 18 0
-7 1 -21 0
-20 14 -19 0
-11 -20 21 0
20 -16 1 0
-12 23 -4 0
-8 -6 20 0
-25 -15 -19 0
16 3 -1 0
-10 -14 -1 0
-9 -25 -17 0
2 23 5 0
4 21 7 0
-12 -1 -21 0
23 12 20 0
-2 24 20 0
-24 10 -25 0
3 16 24 0
-20 -1 14 0
-3 -16 13 0
-25 13 20 0
-10 23 8 0
-19 -11 9 0
-2 14 -23 0
-21 -25 -13 0
-3 -8 13 0
-5 -25 3 0
-21 25 -16 0
6 -8 7 0
-24 -20 9 0
-7 -10 6 0
16 -1 8 0
5 4 -20 0
-19 4 -15 0
15 4 23 0
20 17 -15 0
-25 23 11 0
24 -9 -13 0
25 12 17 0
-5 17 -15 0
5 3 4 0
21 -23 2 0
-7 2 19 0
6 3 -7 0
16 17 -25 0
