c family=3-SAT n=25 instance=4 seed=2573548008 models=47
c order 22 12 17 23 7 21 3 5 11 24 10 18 6 20 13 1 15 25 16 4 19 2 14 9 8
c order 14 4 7 21 16 1 10 8 17 13 6 11 25 24 19 3 15 5 23 12 2 18 20 22 9
c order 22 16 10 9 21 14 12 6 24 20 15 11 3 2 25 8 7 19 13 5 23 4 18 1 17
c order 12 23 4 21 2 17 9 25 16 8 11 1 20 18 3 14 7 15 13 6 24 5 22 10 19
c order 18 9 1 22 12 23 17 21 13 6 24 16 5 14 25 2 3 8 4 7 19 11 20 10 15
c order 7 22 12 21 11 13 25 20 17 9 23 18 14 8 1 2 6 3 15 19 16 10 24 5 4
c order 13 11 10 21 12 2 14 17 6 18 25 7 22 16 5 20 9 1 15 19 4 24 3 23 8
c order 4 22 16 24 11 14 8 9 7 2 23 18 15 25 10 6 21 5 13 12 19 20 17 1 3
c order 8 21 6 3 11 20 5 12 25 23 4 7 1 24 15 19 13 14 22 10 18 16 2 17 9
c order 4 5 3 15 24 18 23 2 21 16 22 19 25 17 12 8 10 20 1 14 7 13 9 6 11
p cnf 25 105
1 -21 20 0
25 24 -9 0
19 21 9 0
-8 25 -22 0
-13 -14 15 0
-8 -9 -12 0
12 5 -7 0
-15 -21 13 0
6 10 7 0
19 -11 4 0
-10 19 -13 0
-2 -18 -19 0
-5 1 8 0
-5 19 -2 0
-12 21 -2 0
23 17 9 0
-15 25 10 0
15 2 16 0
19 3 -15 0
25 19 3 0
24 -16 12 0
9 22 -20 0
24 -14 13 0
1 -10 3 0
-17 -25 -3 0
-11 -22 -25 0
9 -15 -18 0
-16 -23 -10 0
-21 10 -11 0
16 24 17 0
-9 24 8 0
21 19 5 0
-10 19 -24 0
6 10 4 0
-6 18 1 0
-16 11 -21 0
2 23 -22 0
-8 -20 -23 0
-22 -13 11 0
-19 -10 -16 0
21 -17 -6 0
-22 -23 21 0
14 -6 -18 0
-1 15 14 0
23 3 -14 0
-25 18 -11 0
-8 4 12 0
4 -7 -24 0
17 -3 18 0
1 -2 -8 0
-21 -19 -25 0
-19 12 24 0
1 -8 -14 0
-14 9 18 0
-2 13 12 0
23 13 -22 0
10 -14 -25 0
19 -18 21 0
-3 -23 4 0
14 8 -3 0
-6 14 -25 0
-23 -13 -22 0
-22 18 21 0
20 12 -4 0
-4 -5 -16 0
-15 -16 12 0
15 -9 -22 0
-9 17 16 0
17 25 12 0
-2 -1 9 0
3 -14 -13 0
-4 -13 12 0
-6 17 18 0
3 -16 -15 0
20 4 13 0
-9 1 -15 0
15 5 -3 0
15 4 13 0
-14 -12 -19 0
2 24 7 0
-11 -10 24 0
-15 8 -1 0
17 -21 -13 0
17 -16 -21 0
-18 12 -22 0
6 13 -22 0
11 10 7 0
-22 14 16 0
17 9 6 0
7 -25 -8 0
21 -11 -1 0
3 -11 -4 0
-5 -18 -25 0
-15 -1 19 0
11 -23 -16 0
20 -6 3 0
13 12 -8 0
21 -8 -23 0
-21 -10 4 0
20 17 -22 0
15 -24 -4 0
-7 23 12 0
10 6 20 0
5 18 -17 0
-15 21 13 0
