c family=3-SAT n=25 instance=9 seed=2573548008 models=60
c order 12 9 1 6 15 17 11 19 8 21 13 20 24 23 5 14 25 22 3 16 10 7 4 18 2
c order 17 3 15 8 20 21 2 7 22 4 13 10 16 18 6 14 11 1 23 24 19 12 5 9 25
c order 4 12 17 9 1 16 14 7 23 21 10 18 2 22 20 6 3 15 5 11 13 19 24 25 8
c order 5 16 8 10 18 1 15 3 21 23 20 13 22 19 11 2 14 6 25 4 17 24 9 7 12
c order 10 16 23 9 14 22 8 1 15 12 6 11 19 2 5 24 7 3 13 17 20 25 4 21 18
c order 5 11 25 2 12 15 3 6 14 7 19 13 24 8 16 21 9 4 17 10 23 1 18 22 20
c order 25 10 5 21 23 19 1 7 11 18 2 12 4 14 17 15 6 24 22 13 9 8 20 16 3
c order 12 2 25 15 6 9 7 1 8 5 24 3 21 14 4 22 13 18 11 17 16 23 19 10 20
c order 17 3 19 1 12 6 13 23 11 7 22 16 24 9 14 21 10 20 8 4 15 25 18 5 2
c order 24 19 1 22 3 21 10 9 25 16 20 7 11 15 6 13 8 23 14 5 18 17 12 4 2
p cnf 25 105
-22 10 20 0
-20 -11 -14 0
11 21 -5 0
9 -4 13 0
-23 21 -1 0
12 1 25 0
17 8 -9 0
9 -5 -16 0
14 24 23 0
-21 -9 -14 0
12 -21 -20 0
-14 3 2 0
-23 2 -3 0
14 18 17 0
-17 14 -21 0
-9 17 18 0
2 -12 14 0
-5 -21 19 0
-19 21 -10 0
14 16 17 0
10 19 -18 0
-10 18 -8 0
-15 11 9 0
9 -7 12 0
-6 -20 3 0
-6 -9 -17 0
-20 -17 -8 0
3 -21 18 0
15 -21 13 0
-4 19 -23 0
4 15 -8 0
-8 25 7 0
23 13 17 0
18 7 23 0
13 -19 -4 0
-18 24 -12 0
-8 -6 -1 0
-8 -7 25 0
24 -19 -17 0
8 -21 -11 0
-5 -24 -1 0
14 17 -18 0
-11 -17 14 0
14 1 12 0
-8 -3 -15 0
15 7 12 0
-12 -13 -9 0
-9 1 14 0
12 9 -5 0
5 14 24 0
2 -7 10 0
24 11 -10 0
1 -7 12 0
-10 17 22 0
1 -14 19 0
-11 12 7 0
20 14 -25 0
-3 11 2 0
13 -8 7 0
17 -15 -16 0
22 -21 -10 0
15 4 10 0
16 14 -2 0
24 6 1 0
3 2 9 0
-12 16 1 0
19 21 -17 0
-5 -14 1 0
9 -1 -4 0
25 15 -4 0
25 11 20 0
1 22 24 0
-15 -3 8 0
-23 2 13 0
15 3 20 0
2 20 7 0
-21 -12 7 0
-7 -16 -22 0
-6 -2 7 0
25 1 -15 0
5 -21 -19 0
-8 -15 -2 0
-2 -15 -8 0
-13 -15 21 0
22 3 -15 0
4 -23 8 0
-20 1 -10 0
-23 3 -15 0
11 -14 -10 0
-6 3 -17 0
-25 17 9 0
1 17 10 0
-15 -25 -20 0
-4 25 -20 0
6 11 22 0
-20 -2 -23 0
-20 18 23 0
-4 13 20 0
-10 -1 -22 0
-18 -21 -5 0
7 17 -11 0
11 -25 24 0
-5 2 9 0
-25 24 10 0
-1 6 -10 0
