c family=3-SAT n=25 instance=5 seed=2573548008 models=14
c order 21 25 1 5 18 9 14 7 3 20 17 4 23 13 8 22 10 12 2 24 19 6 11 15 16
c order 23 9 1 2 21 19 20 3 22 8 18 14 17 10 15 4 7 11 24 6 25 16 13 12 5
c order 18 2 12 10 17 19 21 20 7 22 25 4 11 13 8 1 3 24 23 9 15 16 5 14 6
c order 4 19 9 21 7 25 1 24 14 10 16 13 12 17 5 20 18 6 2 3 11 8 22 15 23
c order 6 21 3 15 16 1 12 7 2 20 18 4 10 5 23 19 17 14 9 24 13 22 25 8 11
c order 8 7 5 25 4 11 18 13 19 10 6 14 16 23 24 15 22 1 17 2 9 21 3 20 12
c order 8 10 22 13 15 1 11 6 2 20 18 25 17 5 12 24 14 4 9 3 19 21 16 23 7
c order 3 1 25 24 12 17 9 10 7 5 13 19 22 4 6 15 21 16 2 14 8 23 11 20 18
c order 5 6 16 24 12 1 21 3 4 11 7 9 20 18 15 10 19 23 22 2 13 8 14 17 25
c order 4 6 14 23 2 1 18 24 8 20 3 11 5 16 19 13 15 9 22 17 21 10 25 7 12
p cnf 25 105
20 -5 -13 0
-14 2 18 0
-15 23 1 0
-25 8 -9 0
-18 23 -10 0
15 16 -7 0
-11 -20 -25 0
-12 -9 -13 0
-11 23 18 0
3 -13 -23 0
25 5 -2 0
-21 -20 -19 0
-16 -25 -20 0
-25 -23 16 0
-4 -23 1 0
21 12 4 0
14 -5 -2 0
12 13 10 0
-15 -6 25 0
-24 -25 21 0
15 13 -16 0
-13 4 2 0
-16 9 -23 0
4 12 19 0
-21 10 -22 0
-16 -5 8 0
-15 -25 -20 0
-1 -21 -10 0
-17 19 10 0
-16 -5 23 0
-2 -10 -8 0
12 13 14 0
-2 -6 13 0
15 4 12 0
13 -1 23 0
-17 -8 -7 0
13 5 -1 0
21 25 -5 0
19 13 10 0
15 -17 11 0
-12 18 13 0
23 -4 11 0
2 -9 -6 0
21 -6 9 0
12 -13 3 0
-15 2 1 0
-3 -6 5 0
21 4 15 0
-24 20 -4 0
24 -11 -15 0
21 -23 -24 0
6 14 -4 0
-12 8 -24 0
-25 -24 -7 0
23 24 -4 0
13 11 2 0
-24 -25 -9 0
-4 -16 -25 0
22 -6 -11 0
-12 10 -5 0
-23 7 -11 0
-3 19 7 0
-11 -24 -6 0
-14 -24 5 0
5 18 6 0
-13 -25 -19 0
14 -19 -22 0
-20 -6 7 0
-6 11 19 0
-21 5 -17 0
20 -22 -6 0
-20 -8 6 0
16 20 1 0
-12 7 -6 0
-15 -19 -7 0
15 -3 1 0
-18 -15 9 0
5 -11 16 0
-2 -21 12 0
20 -4 19 0
7 -23 -9 0
21 -16 3 0
19 20 -1 0
18 5 -14 0
10 -25 -6 0
2 -9 -20 0
13 12 19 0
-17 -18 -12 0
-25 21 4 0
13 5 -4 0
-1 -22 -10 0
10 13 -23 0
-2 21 16 0
-20 -11 -19 0
-14 2 -11 0
23 20 10 0
21 7 -24 0
-7 -8 -6 0
-4 -5 14 0
16 7 -24 0
-14 3 24 0
8 -18 -14 0
-15 20 23 0
21 20 -11 0
-12 -20 17 0
