c family=3-SAT n=25 instance=1 seed=2573548008 models=8
c order 8 22 19 3 14 18 4 1 5 24 23 17 20 2 15 9 12 13 16 10 6 7 25 21 11
c order 9 16 5 19 10 12 18 20 13 23 3 11 21 22 6 8 1 24 25 14 17 15 4 7 2
c order 14 18 22 25 15 10 7 20 21 1 9 5 2 6 4 13 17 19 23 3 16 24 11 12 8
c order 17 1 18 2 20 10 3 23 19 9 22 12 25 4 13 16 5 7 8 15 6 11 21 14 24
c order 17 2 6 18 3 21 15 16 13 22 20 19 24 8 14 10 7 12 9 25 23 1 5 11 4
c order 19 18 17 14 24 21 16 1 20 8 6 25 12 10 9 7 11 23 13 2 4 22 15 5 3
c order 11 6 2 3 18 21 9 19 1 4 23 15 8 25 7 14 10 20 24 12 13 16 5 17 22
c order 15 20 14 7 21 16 18 23 10 1 13 3 11 8 9 25 12 6 17 4 24 5 22 19 2
c order 24 5 21 14 8 3 16 10 19 23 25 13 18 6 20 15 4 17 2 7 11 1 22 9 12
c order 7 8 17 9 22 20 1 12 3 4 25 6 5 2 24 18 11 15 19 23 21 10 13 14 16
p cnf 25 105
-13 15 -12 0
21 15 -16 0
25 -20 -11 0
-7 -10 25 0
4 -10 9 0
-7 -10 25 0
12 3 16 0
-5 14 -15 0
9 -25 -1 0
15 -9 17 0
8 -4 14 0
-10 16 19 0
16 -22 10 0
7 -18 -25 0
7 -20 -3 0
-12 -1 18 0
-22 23 -4 0
-2 -10 -21 0
15 -4 20 0
-7 -8 16 0
-12 -3 -22 0
-10 -12 -22 0
-8 2 3 0
-14 -23 -15 0
9 -2 -7 0
13 19 20 0
-5 11 25 0
-5 19 20 0
-22 -15 -20 0
-4 2 1 0
20 -14 5 0
7 -9 -15 0
13 22 2 0
-5 -17 -10 0
-2 -10 -6 0
-1 7 17 0
-10 -23 -18 0
-12 -11 -6 0
14 20 23 0
19 22 6 0
20 -21 14 0
11 8 -16 0
-3 -7 8 0
-7 -22 -8 0
-5 15 -12 0
14 -13 15 0
-21 -19 -15 0
-19 7 1 0
18 14 21 0
6 15 24 0
-11 23 14 0
-18 2 10 0
3 -15 -19 0
-6 12 -3 0
12 7 -23 0
14 24 -21 0
-9 -19 5 0
-21 22 10 0
-12 -25 -14 0
6 21 3 0
-12 13 -3 0
10 23 13 0
-11 13 3 0
-2 -11 19 0
-4 -9 -21 0
-6 -21 14 0
2 -3 24 0
15 -7 -16 0
6 -1 4 0
19 -24 -16 0
14 1 3 0
11 -12 13 0
-13 -6 9 0
16 2 11 0
24 -17 -23 0
13 5 8 0
-25 -18 -4 0
23 -4 -2 0
-7 -21 24 0
20 -21 17 0
-15 1 23 0
-25 6 -15 0
-2 -23 -20 0
1 4 17 0
-8 4 -15 0
5 -7 23 0
-12 -18 -11 0
-18 24 -19 0
-1 -6 12 0
-10 -2 16 0
20 -13 -5 0
-18 -20 14 0
13 -5 12 0
18 -9 20 0
-1 -25 2 0
-1 -2 -18 0
19 -12 3 0
16 -3 1 0
-19 18 -5 0
-16 3 6 0
-12 24 20 0
18 -13 14 0
8 19 -18 0
16 24 25 0
22 -9 -4 0
