c family=3-SAT n=25 instance=3 seed=2573548008 models=16
c order 16 17 1 25 2 22 10 15 20 13 12 7 9 6 23 14 5 19 21 18 24 4 3 8 11
c order 1 9 2 5 23 12 7 3 20 19 16 8 24 6 25 13 10 15 17 4 14 18 11 22 21
c order 11 14 10 22 4 2 1 12 9 23 15 19 8 24 17 5 25 3 20 16 18 21 6 7 13
c order 15 20 11 1 4 21 19 10 16 23 9 14 2 17 12 6 5 3 25 22 18 7 8 13 24
c order 19 12 6 22 16 2 5 11 24 4 9 1 3 15 25 21 13 20 8 7 18 23 10 17 14
c order 19 6 1 24 25 11 9 7 22 8 2 5 14 10 16 21 13 3 17 20 18 15 4 12 23
c order 6 11 10 1 16 13 20 3 19 25 12 22 2 17 24 7 23 15 8 5 14 18 4 9 21
c order 2 19 17 12 6 25 10 16 5 21 24 9 11 15 22 1 7 8 13 23 14 20 18 3 4
c order 19 24 10 12 11 3 7 4 16 23 5 8 17 1 25 2 14 20 21 6 18 13 22 15 9
c order 15 4 23 25 8 14 24 16 22 12 11 2 5 1 7 3 6 9 10 19 13 17 18 20 21
p cnf 25 105
-8 25 -7 0
16 -11 14 0
24 2 -25 0
-21 -14 10 0
4 -24 15 0
-14 -10 -4 0
3 16 -25 0
-2 -19 7 0
-24 -23 13 0
-3 -8 24 0
24 16 18 0
19 -5 -3 0
-5 17 -21 0
-18 1 24 0
-1 -20 6 0
-21 9 10 0
7 -20 -22 0
-4 -22 -15 0
3 -20 12 0
11 1 2 0
19 10 8 0
20 5 16 0
-4 -12 -11 0
3 -1 23 0
3 -1 -21 0
-22 7 -14 0
-21 -1 6 0
9 16 12 0
-22 4 12 0
13 -20 -19 0
-8 -2 -17 0
13 -4 3 0
-1 21 19 0
24 -17 20 0
25 12 -13 0
24 -20 -22 0
21 -16 -25 0
17 -13 -2 0
-25 22 -15 0
-3 11 -8 0
16 -15 8 0
-12 -4 -9 0
15 21 5 0
-15 5 14 0
13 16 18 0
-18 17 11 0
-13 23 9 0
-20 23 -18 0
9 -6 -1 0
-8 -12 -2 0
19 3 22 0
-9 10 8 0
23 18 6 0
-17 -23 25 0
8 22 23 0
-9 -1 12 0
-6 13 -2 0
11 14 -20 0
-13 25 22 0
23 20 21 0
-6 9 -5 0
10 -8 9 0
9 11 21 0
6 14 17 0
-9 20 -7 0
-25 -2 9 0
18 25 21 0
-15 -13 -4 0
-12 7 17 0
3 -14 -17 0
19 -7 14 0
21 -22 -7 0
9 -25 11 0
-24 3 -20 0
-8 -1 17 0
-24 11 -4 0
-17 -12 8 0
25 -24 -21 0
-14 -20 -3 0
10 6 5 0
1 12 -18 0
-18 17 2 0
-17 2 1 0
21 15 -13 0
-24 25 4 0
2 12 -17 0
-12 19 15 0
8 9 -12 0
25 22 -21 0
4 16 -11 0
1 -5 3 0
-18 25 -7 0
-23 17 -11 0
24 -8 -15 0
-22 -4 -19 0
-13 -25 -18 0
-7 8 14 0
3 -8 -22 0
-16 18 -17 0
2 17 -14 0
-18 -13 -19 0
-19 -15 -22 0
-25 -22 -9 0
1 -8 13 0
21 24 -15 0
