c family=3-SAT n=30 instance=9 seed=2573548008 models=280
c order 3 27 24 15 7 28 9 29 13 20 6 26 23 4 2 18 16 19 8 5 30 12 1 11 17 22 10 14 21 25
c order 19 8 22 15 9 23 11 6 7 16 12 1 18 14 13 30 28 24 21 10 29 25 26 5 4 17 27 3 2 20
c order 1 14 19 27 12 10 11 23 6 13 4 18 17 24 21 15 8 16 5 20 26 28 29 2 22 9 3 25 30 7
c order 13 24 22 17 1 9 2 28 21 3 18 11 16 27 4 7 5 12 14 30 20 8 15 25 10 19 26 6 29 23
c order 20 7 8 15 14 12 16 25 6 1 28 5 4 3 22 26 29 10 17 23 13 21 9 2 18 19 11 30 27 24
c order 20 25 21 9 13 16 14 11 27 30 8 26 3 19 29 28 1 2 18 15 7 23 6 24 10 5 17 22 12 4
c order 7 10 6 19 25 23 2 3 22 4 13 5 30 29 24 21 1 9 20 17 11 18 12 14 8 28 27 15 16 26
c order 26 6 20 5 15 11 25 16 4 8 18 28 24 2 1 7 10 17 23 14 30 29 12 27 22 3 13 21 9 19
c order 20 26 5 13 29 18 6 27 19 21 9 28 3 30 2 16 8 25 23 24 14 17 7 1 11 15 10 4 22 12
c order 12 13 25 15 22 23 18 24 10 21 5 2 4 19 28 9 7 27 26 11 29 6 8 20 3 30 17 14 1 16
p cnf 30 126
-4 10 -23 0
-28 -8 9 0
9 -3 -17 0
-13 -3 14 0
30 -10 13 0
-21 -16 -6 0
-1 15 11 0
-20 13 14 0
-15 28 -22 0
9 16 -12 0
-30 -13 -8 0
13 -11 9 0
-8 -11 -26 0
-26 7 -30 0
-30 -9 24 0
-13 -9 -21 0
-20 4 17 0
-29 5 3 0
4 19 -27 0
-28 -8 -14 0
-26 -25 10 0
-23 17 15 0
-7 -22 -30 0
2 13 19 0
18 30 9 0
2 -6 -16 0
-26 -22 9 0
28 20 -9 0
-24 25 4 0
6 -11 30 0
-6 18 23 0
8 -4 26 0
-6 10 -25 0
-27 -17 -13 0
29 30 -11 0
-2 29 27 0
4 -7 23 0
-25 20 3 0
1 5 20 0
25 -1 28 0
25 -29 -14 0
-8 7 3 0
-12 10 15 0
-30 4 12 0
-11 -28 -8 0
-5 19 14 0
21 -4 -15 0
29 23 -1 0
17 -29 -2 0
16 3 6 0
14 -8 -2 0
6 11 4 0
29 26 -6 0
8 -28 -18 0
11 -10 -26 0
-4 -15 -8 0
-11 -1 -28 0
-20 22 -11 0
-2 14 -1 0
-18 -29 3 0
13 8 23 0
26 14 1 0
30 23 -29 0
4 20 -18 0
-28 -17 12 0
-19 21 -20 0
10 4 15 0
24 27 -5 0
16 8 27 0
-10 25 -16 0
-15 -18 5 0
-10 -13 -1 0
6 21 -20 0
-13 17 -23 0
-11 -12 14 0
9 8 14 0
10 7 23 0
-27 -2 20 0
14 -29 20 0
-29 -21 6 0
-2 3 14 0
20 30 -3 0
18 -19 28 0
4 14 -20 0
24 -8 23 0
15 5 4 0
24 27 2 0
-22 -7 -5 0
-30 -23 -4 0
-17 -10 -7 0
18 3 29 0
27 -29 -7 0
-6 -2 29 0
-24 -12 6 0
9 -7 8 0
10 -1 -20 0
-15 17 -14 0
-29 -19 -28 0
-17 18 -4 0
-5 26 -17 0
24 5 -7 0
1 -8 -11 0
-15 25 -27 0
13 -6 -24 0
-6 13 15 0
27 -17 -6 0
-17 -16 1 0
-3 29 -23 0
-10 9 -6 0
-11 -30 18 0
6 20 10 0
2 16 -30 0
30 21 29 0
20 26 2 0
30 -5 19 0
-6 -20 4 0
-18 -22 10 0
-28 -1 -21 0
24 -9 1 0
-4 -26 14 0
-7 -15 17 0
-15 6 8 0
9 -20 30 0
-30 -19 -25 0
15 30 -25 0
27 15 -23 0
