c family=3-SAT n=30 instance=0 seed=2573548008 models=215
c order 8 27 24 2 17 14 11 10 12 7 4 25 21 19 28 26 6 23 5 22 30 3 1 9 18 13 15 16 29 20
c order 22 17 11 27 16 5 30 12 20 6 13 1 15 4 28 7 19 29 3 21 23 26 18 25 14 24 8 9 2 10
c order 14 29 2 11 25 10 12 22 9 23 5 27 16 19 15 26 8 7 28 21 17 24 30 6 13 20 1 3 4 18
c order 12 2 11 28 10 24 18 6 3 30 8 1 23 14 17 19 22 21 4 9 25 13 20 16 26 15 5 7 27 29
c order 1 18 14 25 21 17 23 15 27 11 13 26 3 19 6 28 7 2 30 5 4 16 29 20 9 8 22 24 12 10
c order 14 13 8 19 16 22 5 15 3 2 28 23 24 30 25 1 21 17 9 18 10 6 12 11 20 29 4 7 27 26
c order 30 22 25 8 11 21 18 2 23 9 3 20 29 14 15 4 5 28 17 19 24 10 27 6 7 26 12 16 13 1
c order 13 11 3 16 23 2 27 30 7 8 25 9 14 18 19 12 10 6 15 1 5 21 17 26 22 28 29 4 20 24
c order 26 13 9 27 10 15 18 8 19 21 29 1 20 22 3 30 5 11 14 6 16 7 23 24 4 2 25 28 12 17
c order 26 30 20 6 27 15 28 21 13 25 11 1 22 14 5 3 8 24 2 10 29 16 19 4 7 23 17 18 9 12
p cnf 30 126
1 26 18 0
-13 -18 -30 0
3 -4 30 0
2 -5 22 0
-29 -21 -13 0
9 -24 23 0
23 17 12 0
-11 15 -9 0
16 -12 5 0
10 12 -20 0
8 -25 -7 0
30 4 -29 0
15 12 -3 0
21 28 12 0
-20 -8 -2 0
-16 -15 -3 0
5 12 -6 0
28 -18 29 0
-13 22 23 0
24 18 -15 0
3 8 22 0
-1 -13 -28 0
10 -18 27 0
7 -30 20 0
-23 -27 -9 0
-1 -28 3 0
-21 -4 20 0
-18 -24 11 0
-21 -2 28 0
23 -22 20 0
-13 6 -25 0
14 -16 29 0
-4 1 30 0
-23 14 12 0
25 -13 20 0
-13 12 -15 0
-28 21 26 0
-30 -9 26 0
18 -4 11 0
-24 -5 -16 0
-23 -25 14 0
-26 -6 -28 0
-29 -1 2 0
21 -13 25 0
-27 -3 -5 0
-25 -21 24 0
18 12 -1 0
16 10 4 0
-18 -1 -26 0
14 27 -20 0
-18 11 7 0
-29 19 -3 0
-7 27 1 0
-2 7 -4 0
8 -6 17 0
15 -1 -7 0
-19 30 26 0
11 9 14 0
-7 22 28 0
4 -19 27 0
25 -21 -6 0
-24 18 17 0
6 -2 -23 0
-5 -29 -26 0
-22 -14 26 0
9 -1 -26 0
-18 -5 30 0
-2 -13 -15 0
-22 2 -9 0
-18 28 -15 0
1 -26 -27 0
-13 16 -3 0
-29 20 -11 0
10 -2 8 0
-28 25 -27 0
28 8 26 0
17 20 29 0
-24 -12 16 0
27 -2 -26 0
-25 29 -1 0
-28 -21 -3 0
11 -21 7 0
28 27 -11 0
29 1 -4 0
-15 17 -1 0
30 -5 -3 0
3 15 -5 0
-10 23 -29 0
21 -19 25 0
-8 7 13 0
-23 -28 -19 0
-4 -13 -28 0
15 14 10 0
5 -19 -27 0
-30 5 -27 0
23 -20 -26 0
18 28 -22 0
-15 17 -6 0
-10 -19 -12 0
16 1 -4 0
28 8 -1 0
-24 30 -8 0
-7 -4 -10 0
6 -7 15 0
10 -7 25 0
10 21 -1 0
-13 -19 -5 0
16 -15 4 0
-10 -4 -5 0
-4 -29 -16 0
-22 2 14 0
17 -16 3 0
16 24 15 0
-10 11 1 0
-19 21 -6 0
5 24 -11 0
28 -25 3 0
-2 -14 26 0
7 -3 -24 0
-10 20 -12 0
18 3 -8 0
-29 25 28 0
-12 10 -8 0
-4 9 -18 0
-7 13 -18 0
-12 29 10 0
