c family=3-SAT n=30 instance=4 seed=2573548008 models=8
c order 21 13 2 6 9 3 14 12 27 17 25 16 10 11 4 22 7 20 19 5 24 8 1 28 15 29 30 26 23 18
c order 8 17 24 20 9 27 22 4 14 30 15 6 1 23 13 18 3 2 29 25 11 26 21 7 5 28 16 19 12 10
c order 7 20 1 8 30 26 11 19 28 16 22 3 24 23 13 15 6 25 2 29 21 18 9 4 14 17 12 27 5 10
c order 24 19 29 17 10 23 21 4 14 22 1 30 20 7 25 27 13 11 12 15 9 28 16 5 6 3 26 2 8 18
c order 24 20 1 6 11 5 7 4 2 23 27 26 18 22 9 8 29 14 19 3 12 21 15 10 13 28 16 30 17 25
c order 3 20 16 2 25 10 14 19 27 9 6 18 8 29 12 26 22 4 11 17 13 21 15 24 5 1 30 28 23 7
c order 3 15 12 5 9 30 13 8 7 1 18 28 11 21 17 20 27 6 2 22 23 10 26 14 29 25 24 4 19 16
c order 4 22 11 21 19 13 5 15 20 9 16 26 23 7 18 25 1 27 6 10 17 28 24 29 3 12 30 2 8 14
c order 28 12 14 4 30 5 10 2 7 19 27 6 8 29 16 18 9 15 20 1 22 3 24 26 25 17 21 13 23 11
c order 5 14 20 19 28 9 16 27 11 6 24 23 18 3 10 2 12 4 30 22 21 1 29 8 7 26 17 15 25 13
p cnf 30 126
-27 26 -21 0
12 -13 -18 0
-15 -13 28 0
9 3 -2 0
-1 2 -17 0
-30 -2 -29 0
-24 21 11 0
-4 22 -21 0
15 16 -3 0
-23 -24 -3 0
-24 28 9 0
14 4 17 0
-12 6 8 0
4 -28 3 0
23 1 -20 0
-8 21 -13 0
-23 -15 10 0
25 22 -30 0
-13 -4 -27 0
-7 -28 -6 0
-5 -2 6 0
6 -27 11 0
-10 16 30 0
29 15 -4 0
-16 9 -13 0
-13 -25 -26 0
1 -27 20 0
6 15 -4 0
23 -17 -11 0
-5 14 -11 0
-21 -25 17 0
-5 -15 26 0
-1 3 19 0
27 2 -20 0
25 -19 -17 0
-3 -26 -17 0
19 -8 -10 0
-8 29 -2 0
18 -25 13 0
-30 3 27 0
-14 -7 19 0
30 9 2 0
30 17 -20 0
-2 23 26 0
-26 -3 -14 0
-4 12 -27 0
8 15 -16 0
26 -15 -1 0
17 9 10 0
-2 -29 -1 0
3 9 -26 0
23 -15 -5 0
-26 28 11 0
13 -15 19 0
-19 3 21 0
17 30 -5 0
17 -18 24 0
28 3 26 0
8 -7 28 0
12 30 -24 0
-7 30 12 0
5 -9 10 0
27 -6 28 0
18 -27 -13 0
6 -27 -26 0
-22 -6 -7 0
-30 -21 12 0
10 7 -6 0
16 29 -8 0
4 -3 -8 0
-7 9 -14 0
-12 -6 -18 0
6 15 -12 0
-7 -4 -16 0
-4 3 -29 0
29 5 -19 0
23 -19 -30 0
7 1 4 0
-7 -14 -11 0
12 11 -5 0
-28 8 -4 0
16 3 1 0
19 2 -18 0
10 -5 -27 0
-14 4 30 0
4 -22 28 0
-13 -3 19 0
-22 2 -25 0
3 -18 -27 0
-7 14 3 0
2 29 24 0
19 16 -4 0
19 16 -1 0
6 -2 27 0
-11 -10 -2 0
10 -25 29 0
-26 -22 9 0
-16 -22 26 0
-20 -29 11 0
-4 -5 -17 0
4 23 -22 0
-19 -27 -2 0
-21 -29 12 0
11 -23 -14 0
-15 25 17 0
15 19 5 0
20 -7 4 0
-18 -11 10 0
18 -16 -30 0
-27 -16 26 0
27 -17 14 0
11 -10 8 0
-1 -17 29 0
25 -22 16 0
20 6 14 0
26 9 15 0
-7 21 -22 0
25 12 16 0
29 -17 -10 0
13 2 18 0
-24 11 15 0
-28 23 19 0
-30 -12 -27 0
29 4 14 0
-25 -14 6 0
15 -19 -28 0
