c family=3-SAT n=30 instance=7 seed=2573548008 models=20
c order 1 6 4 24 13 5 23 25 9 7 17 11 2 12 8 29 28 14 22 16 21 30 20 18 10 26 19 15 3 27
c order 30 27 13 23 2 12 19 25 21 16 8 4 15 7 6 18 24 14 28 26 3 17 22 5 10 11 20 29 1 9
c order 13 1 5 16 25 8 14 7 6 17 3 15 29 9 26 30 4 28 2 11 22 21 18 27 20 24 19 12 10 23
c order 17 12 25 6 4 3 20 15 10 1 24 7 22 9 28 23 5 26 2 16 19 18 21 8 27 13 29 14 30 11
c order 19 3 18 11 22 20 2 8 26 6 27 28 7 23 15 16 1 12 25 29 30 13 17 14 10 21 4 9 5 24
c order 5 6 26 10 9 21 3 24 27 30 20 12 28 17 25 16 4 13 2 29 7 8 22 18 23 19 14 1 11 15
c order 26 27 30 1 9 22 18 13 25 5 4 8 23 17 12 28 16 14 19 20 7 11 24 29 15 3 6 2 21 10
c order 5 8 2 29 23 15 11 17 22 6 19 10 26 25 30 9 20 18 7 16 14 1 3 13 27 4 28 24 21 12
c order 29 19 15 20 22 7 6 10 25 26 11 3 24 18 5 12 30 16 17 23 27 1 28 2 8 13 21 9 4 14
c order 7 12 23 6 29 19 14 3 4 15 24 22 5 21 9 18 8 27 13 17 10 16 25 30 1 20 26 11 2 28
p cnf 30 126
19 -10 1 0
-15 20 -13 0
10 -7 -21 0
17 -27 -13 0
21 -22 9 0
30 -22 -18 0
15 3 19 0
9 28 20 0
2 29 -4 0
2 -14 -11 0
-14 -28 2 0
-25 -26 -9 0
4 -30 -15 0
-12 -13 -11 0
-10 7 -23 0
3 -25 -14 0
21 23 26 0
15 3 -20 0
-12 6 -3 0
21 15 -29 0
17 -21 -3 0
1 -13 -29 0
12 -4 14 0
-23 -9 17 0
19 22 1 0
7 15 1 0
-28 4 -2 0
-4 14 13 0
-21 29 13 0
3 8 26 0
14 24 27 0
-14 5 9 0
6 -4 -11 0
14 7 -3 0
-17 23 -4 0
11 22 24 0
-21 -2 12 0
6 -22 12 0
27 -22 -21 0
-27 -7 21 0
13 -6 17 0
12 29 25 0
26 13 -8 0
5 13 4 0
-28 -12 -1 0
21 25 -12 0
-3 6 19 0
-10 8 4 0
27 30 3 0
-25 2 -8 0
-17 25 -19 0
-28 -23 24 0
-6 26 -19 0
9 -18 -4 0
-29 18 -16 0
-10 13 2 0
21 -25 -28 0
-21 -25 -7 0
-16 -9 7 0
1 5 6 0
1 -22 6 0
-22 5 -1 0
17 24 -29 0
3 26 -20 0
27 -23 1 0
15 -19 -28 0
27 13 -1 0
6 -11 -13 0
6 -15 20 0
28 -17 22 0
-3 13 -12 0
-29 12 -25 0
13 29 -7 0
23 -21 -2 0
-29 -6 3 0
16 3 12 0
5 -19 -12 0
-11 7 17 0
-15 4 8 0
-20 -7 6 0
-6 -17 13 0
-19 -1 -2 0
15 10 -21 0
-8 5 1 0
-25 5 18 0
-10 27 -13 0
-30 27 -21 0
-28 -29 12 0
24 -17 -12 0
-10 -18 -30 0
30 8 28 0
-26 12 1 0
12 7 30 0
-8 9 -5 0
-30 14 -1 0
15 28 -27 0
14 -20 18 0
5 16 28 0
2 -20 22 0
3 -12 -19 0
19 4 7 0
-8 -15 -16 0
-5 -18 -12 0
-23 -15 -22 0
24 30 -16 0
11 -4 19 0
6 10 5 0
-14 19 13 0
-3 8 16 0
20 12 6 0
8 26 -10 0
11 19 1 0
-13 -2 -18 0
6 8 7 0
-23 -15 5 0
-7 -11 29 0
25 26 2 0
-13 -27 -12 0
19 -25 1 0
11 5 29 0
24 27 30 0
-6 -5 -8 0
-15 -8 29 0
-3 17 4 0
26 -7 9 0
-2 26 -8 0
