c family=3-SAT n=30 instance=8 seed=2573548008 models=176
c order 16 10 26 15 7 18 3 11 9 29 24 5 6 1 13 2 8 22 28 21 25 17 27 4 20 30 23 12 14 19
c order 4 27 1 12 20 8 30 15 28 17 14 3 19 5 25 26 11 29 6 21 9 13 23 18 7 22 16 2 10 24
c order 24 13 25 6 22 15 29 11 9 19 30 20 18 28 27 5 8 4 14 23 17 3 1 2 12 21 16 7 10 26
c order 19 26 23 30 16 17 20 11 4 9 21 29 18 13 24 15 22 10 5 27 25 3 6 14 1 28 12 2 8 7
c order 29 9 12 18 4 28 15 1 14 21 19 26 3 8 10 6 20 23 16 25 22 24 7 2 13 5 27 17 11 30
c order 29 5 18 12 24 15 11 26 9 30 2 13 8 6 25 1 10 21 20 23 16 28 27 14 17 22 3 4 7 19
c order 6 3 21 17 11 27 4 16 5 22 20 2 7 9 28 14 12 18 26 30 25 23 13 19 15 10 24 29 1 8
c order 18 27 15 14 25 13 10 22 30 9 16 6 17 8 12 29 2 28 11 7 20 24 4 1 21 23 3 5 26 19
c order 5 9 24 18 8 2 10 27 23 28 30 15 20 29 21 14 4 16 1 7 17 11 3 19 22 12 26 13 25 6
c order 10 17 19 16 28 30 24 14 27 8 18 3 6 15 12 13 21 29 23 25 4 22 26 1 5 20 11 7 9 2
p cnf 30 126
16 22 28 0
19 -20 -22 0
-13 -26 -11 0
15 -4 -3 0
-27 22 12 0
-18 3 -29 0
-29 7 28 0
-17 6 -22 0
13 23 -20 0
-20 5 2 0
-20 -2 29 0
14 -5 -29 0
-27 24 -4 0
-20 11 30 0
-27 15 28 0
19 13 15 0
-10 26 2 0
-2 4 -20 0
2 6 13 0
23 6 13 0
15 1 -29 0
13 8 -10 0
-22 17 -18 0
-16 -21 4 0
5 -4 -26 0
5 -29 26 0
-27 8 22 0
20 -18 -7 0
-14 -23 -4 0
14 -20 3 0
-29 -27 11 0
27 20 10 0
17 -5 -25 0
-13 -2 27 0
-5 -18 1 0
-25 28 24 0
17 -24 26 0
-2 -29 6 0
-27 -28 29 0
1 15 -16 0
-7 -10 28 0
-17 13 6 0
2 14 -17 0
-2 -18 -14 0
-1 -13 3 0
-22 4 6 0
-9 27 -5 0
-3 8 22 0
15 23 -10 0
9 26 23 0
-21 26 24 0
25 -11 2 0
20 14 -21 0
-12 -15 20 0
-29 -5 -6 0
13 1 -21 0
-6 7 24 0
20 -6 -9 0
-10 19 5 0
-20 -12 24 0
1 -15 21 0
-30 25 -18 0
10 27 -8 0
5 22 9 0
27 -16 -23 0
19 3 26 0
2 29 -27 0
-21 20 -13 0
-8 -30 18 0
14 19 -10 0
4 -17 18 0
-11 -5 27 0
19 17 -2 0
13 21 -29 0
2 -12 3 0
-1 19 -9 0
4 -24 -7 0
-14 -30 -23 0
21 6 -13 0
-20 22 -7 0
-29 26 1 0
-27 -24 -21 0
29 2 25 0
14 -1 -27 0
-28 24 -7 0
14 -19 -16 0
8 3 -27 0
20 -4 -17 0
-17 -2 -16 0
13 -18 28 0
30 3 -4 0
26 -23 8 0
-30 10 -23 0
-28 -4 23 0
30 1 5 0
-13 1 -16 0
-12 -29 20 0
-4 -25 16 0
17 -29 -12 0
12 -19 -16 0
16 -12 20 0
-5 19 -23 0
2 29 -11 0
-9 -27 3 0
1 29 16 0
26 -5 -19 0
-30 21 -7 0
-2 19 -27 0
17 12 -13 0
-21 28 5 0
-30 21 23 0
-1 -7 27 0
12 25 -10 0
28 -17 6 0
1 -10 16 0
-7 28 22 0
-28 5 20 0
-25 -23 5 0
-11 23 16 0
-17 -5 -9 0
-9 3 -29 0
-6 -5 14 0
-8 -4 -12 0
-2 16 -28 0
-25 2 -27 0
15 28 22 0
