c family=3-SAT n=30 instance=6 seed=2573548008 models=317
c order 30 10 25 8 9 23 17 13 7 6 19 5 21 11 14 18 4 2 27 20 29 22 16 1 15 28 3 12 26 24
c order 12 22 11 26 19 15 30 24 28 7 20 13 25 16 23 8 5 17 6 2 18 21 9 3 14 10 1 29 4 27
c order 15 2 10 3 12 9 18 5 19 30 24 20 1 16 14 22 21 13 11 17 28 6 7 4 29 25 8 23 27 26
c order 9 7 17 23 13 16 28 24 6 21 14 20 18 29 11 10 1 26 3 8 5 30 22 15 25 27 19 4 12 2
c order 28 8 6 30 23 10 16 9 7 14 13 3 5 29 15 20 26 11 17 12 25 22 27 2 1 21 18 19 24 4
c order 11 20 27 28 26 12 14 10 30 25 16 7 21 19 17 24 23 8 29 5 18 2 6 4 1 9 3 13 15 22
c order 15 28 16 14 22 5 25 2 27 20 4 29 17 6 1 10 21 30 18 24 3 19 12 26 8 11 9 7 13 23
c order 15 9 26 30 25 5 18 19 1 22 10 6 13 21 17 11 28 2 12 8 7 20 14 24 4 3 23 27 16 29
c order 1 18 22 9 26 10 8 13 24 3 2 30 20 17 11 29 28 4 14 15 21 25 12 5 16 6 23 27 19 7
c order 16 14 11 18 23 8 4 27 17 12 29 13 22 28 2 7 20 10 1 19 15 26 25 6 30 24 21 9 3 5
p cnf 30 126
-20 25 14 0
-2 19 11 0
-22 12 -19 0
-2 18 -23 0
-11 13 23 0
16 27 29 0
-13 -10 9 0
-23 -6 21 0
10 -5 -14 0
18 11 15 0
-28 12 -1 0
10 7 25 0
25 -22 1 0
16 6 -27 0
26 -12 -10 0
-7 -4 -20 0
-10 -22 29 0
26 18 23 0
20 15 -16 0
-20 -10 11 0
10 14 6 0
26 -5 -10 0
6 3 20 0
13 -10 -17 0
-3 -23 30 0
-28 15 -17 0
10 -6 -18 0
3 -20 -11 0
-19 -14 28 0
17 -26 5 0
-30 4 14 0
-8 -28 -5 0
-22 -29 -15 0
27 -1 -29 0
-5 -29 7 0
23 28 -24 0
17 -24 25 0
-15 11 21 0
-4 14 -8 0
2 -24 27 0
1 -5 2 0
-4 5 23 0
-9 14 30 0
26 -13 -24 0
-23 -13 4 0
7 -27 3 0
30 28 -22 0
21 -1 17 0
-27 -19 30 0
6 14 13 0
12 26 -2 0
20 15 9 0
-16 -21 -29 0
19 -28 -6 0
22 12 24 0
-26 14 23 0
-18 4 16 0
18 -9 22 0
-25 3 -2 0
10 -6 -18 0
-6 5 22 0
30 -9 2 0
-5 -26 23 0
28 -15 14 0
27 16 18 0
13 21 -19 0
-28 30 -1 0
-12 16 10 0
2 23 -10 0
5 10 27 0
2 -16 27 0
-12 -29 10 0
-25 -24 3 0
-21 -7 -25 0
23 30 -2 0
17 -7 28 0
-14 -20 12 0
2 5 14 0
26 24 -27 0
20 -11 21 0
14 5 4 0
11 -25 7 0
5 8 3 0
5 26 -27 0
20 23 -13 0
-30 25 -29 0
-30 16 -20 0
24 -7 21 0
1 12 15 0
27 -23 28 0
24 13 5 0
8 27 19 0
19 -4 30 0
27 28 -24 0
-27 -13 2 0
11 -20 23 0
-11 -29 -25 0
-5 -7 18 0
16 4 -29 0
17 -4 -7 0
-1 12 11 0
11 -15 -2 0
24 -22 13 0
17 19 7 0
15 1 -21 0
21 -20 6 0
10 5 24 0
-10 29 -1 0
25 -15 -18 0
7 -12 -10 0
-29 -3 5 0
10 -25 -4 0
11 16 24 0
17 6 10 0
11 -24 -4 0
-27 11 -20 0
-1 7 -23 0
-23 1 -20 0
-2 18 -12 0
-8 10 -28 0
14 -25 30 0
3 2 19 0
-10 23 20 0
-1 21 -17 0
1 25 -9 0
18 -19 9 0
