c family=3-SAT n=30 instance=1 seed=2573548008 models=2
c order 9 18 20 28 25 15 23 4 30 16 21 2 26 17 10 1 14 3 12 5 19 13 11 22 24 8 29 27 6 7
c order 9 26 1 8 11 27 25 29 24 28 16 6 13 2 7 3 12 14 4 20 15 23 19 22 10 21 17 5 30 18
c order 23 17 8 11 25 24 26 20 14 9 6 3 12 22 27 21 28 2 18 19 30 7 15 4 13 29 16 1 5 10
c order 11 9 12 30 29 25 14 21 4 2 19 10 20 18 26 27 6 3 8 22 7 17 23 16 15 24 5 28 1 13
c order 17 1 18 28 23 29 26 9 8 25 22 16 13 10 30 15 7 19 24 3 20 21 11 12 2 6 14 5 27 4
c order 24 12 8 16 26 17 4 30 1 19 28 7 22 21 3 6 27 14 10 5 13 15 25 20 9 2 29 18 23 11
c order 11 20 2 5 8 27 18 26 1 10 23 16 9 3 21 6 7 4 14 15 25 12 19 22 17 24 13 28 29 30
c order 29 17 16 26 3 27 14 15 18 22 30 8 25 24 12 10 5 19 6 28 9 7 4 20 11 13 2 21 23 1
c order 6 21 18 10 5 7 1 28 13 30 15 9 3 4 27 2 14 12 11 29 19 23 24 17 22 25 20 26 16 8
c order 2 4 22 24 10 15 21 1 23 19 5 27 12 29 26 30 11 20 17 16 3 8 28 13 6 14 18 7 9 25
p cnf 30 126
1 -28 11 0
1 -7 -8 0
-18 24 14 0
-2 18 -10 0
22 17 -2 0
10 -30 3 0
-25 14 -4 0
-22 25 4 0
12 -2 28 0
-17 -22 -12 0
24 -4 -5 0
24 -29 8 0
19 9 -11 0
15 21 5 0
7 15 28 0
11 16 -13 0
-19 -25 -21 0
10 12 6 0
-25 -23 -26 0
-25 8 6 0
15 -1 13 0
2 -19 28 0
20 -3 -22 0
-2 -15 -14 0
-13 27 -14 0
21 18 -27 0
25 -30 -7 0
-21 -12 -1 0
27 -15 3 0
-29 1 -20 0
-21 -10 -20 0
20 -1 -6 0
-12 6 -8 0
20 -8 13 0
30 14 10 0
29 7 -25 0
-13 6 18 0
17 16 1 0
10 -17 24 0
21 -27 -26 0
22 27 -24 0
-18 17 25 0
-22 -30 5 0
6 -11 -30 0
25 -1 22 0
25 -3 5 0
5 1 -7 0
-20 -1 18 0
-19 -6 2 0
-1 28 12 0
11 -22 -2 0
1 21 2 0
28 -29 -30 0
8 -29 4 0
-19 -2 -27 0
11 9 14 0
24 9 -15 0
-7 27 -20 0
7 -13 -2 0
-23 -30 -15 0
1 24 -3 0
-24 29 10 0
3 4 -14 0
-9 -22 11 0
-11 8 -2 0
8 -5 -7 0
-17 18 -19 0
-25 -2 11 0
11 14 15 0
5 24 28 0
-20 -7 3 0
-30 16 -20 0
-29 5 -24 0
4 -20 -2 0
2 25 -19 0
20 -18 -27 0
-8 -20 -28 0
27 -3 1 0
13 23 -6 0
-25 -13 15 0
-13 -26 -10 0
-28 -5 -11 0
25 3 -5 0
7 15 -9 0
17 -13 -8 0
-13 17 -22 0
4 -30 22 0
9 -25 27 0
2 23 19 0
24 -23 -13 0
12 14 -30 0
-6 21 7 0
-24 8 18 0
-1 -3 -10 0
7 -26 18 0
27 -11 -7 0
21 17 30 0
12 28 -26 0
27 -1 -26 0
-6 -23 19 0
23 -16 -1 0
14 -4 26 0
-21 -1 -25 0
-20 -13 -21 0
-16 11 -23 0
5 30 18 0
-22 8 27 0
9 24 13 0
-10 -14 -29 0
-1 -4 -5 0
28 24 -30 0
18 8 14 0
1 -6 -2 0
28 -7 -8 0
-18 8 -19 0
10 -20 7 0
-19 20 13 0
20 -28 -25 0
17 28 -4 0
14 1 25 0
17 22 13 0
-25 -26 -19 0
-4 19 -25 0
7 -17 -19 0
-19 -22 25 0
25 8 13 0
