c family=3-SAT n=30 instance=2 seed=2573548008 models=128
c order 10 27 29 20 19 3 11 18 23 16 4 24 8 28 5 21 2 25 30 15 13 7 14 12 1 9 6 22 26 17
c order 19 2 16 22 13 24 26 15 12 17 11 10 6 8 20 27 14 23 21 18 9 25 3 7 5 29 1 4 28 30
c order 5 19 4 16 21 20 22 1 13 11 24 18 27 23 26 30 8 25 14 15 28 10 12 3 2 9 17 29 6 7
c order 10 28 9 25 1 3 26 16 4 22 2 19 21 6 8 20 27 7 15 5 23 14 30 17 29 18 13 11 24 12
c order 8 30 14 17 5 13 1 11 2 9 6 23 16 3 26 4 18 7 19 22 25 27 20 21 29 24 12 15 10 28
c order 30 22 8 20 19 23 5 12 25 9 17 18 6 7 2 27 15 28 14 29 24 4 10 16 3 13 11 21 26 1
c order 5 27 29 14 10 17 11 8 21 20 2 12 13 28 22 16 25 3 23 4 19 15 9 30 18 7 24 1 26 6
c order 23 14 19 5 30 9 12 3 11 15 8 16 7 4 21 1 27 17 25 18 28 22 26 10 6 2 13 24 29 20
c order 14 21 3 19 17 8 23 30 1 13 26 7 22 2 9 16 25 11 27 15 10 28 6 4 20 29 5 12 18 24
c order 7 20 30 4 2 26 14 22 29 23 19 17 12 28 13 11 10 3 5 1 24 16 27 18 15 25 6 8 21 9
p cnf 30 126
22 23 -18 0
2 -15 -3 0
-3 -19 -27 0
12 -11 -20 0
-8 13 18 0
-17 7 -25 0
-27 -23 -5 0
-8 -7 -30 0
1 27 8 0
12 29 -28 0
-6 -24 -3 0
16 7 -27 0
5 2 -7 0
-11 16 24 0
-15 12 -22 0
9 15 -24 0
26 30 2 0
-16 -28 -23 0
-22 2 -10 0
-3 -24 13 0
17 15 -25 0
18 11 -27 0
-18 26 30 0
-24 -11 -6 0
-2 -18 -29 0
11 -29 -28 0
29 11 7 0
-8 -1 -3 0
-17 7 11 0
-18 -21 -28 0
-6 -26 -12 0
2 21 -27 0
-24 30 21 0
-1 17 -18 0
28 -29 16 0
-3 -12 -9 0
18 -10 -28 0
-27 30 12 0
-21 -7 19 0
20 14 4 0
11 23 -1 0
14 -2 13 0
-4 -21 -25 0
-16 25 -13 0
-12 -10 27 0
-10 29 2 0
29 13 9 0
4 -29 7 0
-17 18 25 0
-13 -14 20 0
-17 -12 -7 0
30 -19 14 0
6 -5 13 0
14 -10 1 0
-29 -21 13 0
1 -19 26 0
-12 -21 18 0
-29 15 30 0
-14 19 13 0
15 2 22 0
-25 8 -27 0
2 -20 1 0
-27 -8 -30 0
-8 30 -12 0
-7 -11 -16 0
-19 -10 -21 0
28 -4 9 0
19 8 -21 0
-18 -6 2 0
11 -27 30 0
-1 -16 19 0
14 -5 -8 0
16 -9 13 0
20 -25 9 0
-18 26 -28 0
3 27 25 0
-11 -27 -16 0
-5 10 2 0
-2 -3 -26 0
-30 27 19 0
22 -15 -25 0
-15 17 -30 0
10 11 30 0
-14 -5 -26 0
28 -6 14 0
14 7 -3 0
2 -9 26 0
4 26 -8 0
28 24 22 0
-26 -9 24 0
23 6 -13 0
3 -21 -1 0
4 15 -30 0
12 17 8 0
-1 -13 25 0
-24 30 23 0
-1 3 -13 0
18 -11 -15 0
-27 23 -17 0
-11 -4 5 0
-25 12 -22 0
25 2 5 0
9 -4 6 0
6 -25 -21 0
-17 9 26 0
24 -20 2 0
8 27 5 0
-29 -13 2 0
-14 -7 4 0
-20 17 -27 0
-8 7 26 0
26 -4 -19 0
1 -6 -5 0
-14 17 -5 0
-10 -3 15 0
-28 -3 16 0
27 -15 3 0
-5 -18 -19 0
-28 -23 -17 0
-3 19 29 0
18 -15 30 0
28 18 -17 0
19 -2 -14 0
-21 30 17 0
-25 23 -29 0
-24 -7 4 0
