c family=3-SAT n=30 instance=5 seed=2573548008 models=4
c order 4 3 6 29 30 10 21 26 14 16 7 5 20 15 17 1 11 8 24 23 9 28 27 22 2 19 18 25 12 13
c order 23 20 24 17 5 25 22 19 1 14 11 27 9 2 28 26 18 29 10 12 13 7 30 6 4 3 21 8 16 15
c order 26 16 25 8 7 13 14 30 10 11 24 20 5 3 22 27 29 6 18 12 19 2 9 17 4 23 28 15 1 21
c order 14 22 18 30 11 8 19 29 16 9 23 24 1 26 10 7 6 20 4 25 12 2 13 15 27 17 3 5 21 28
c order 8 2 16 23 9 4 7 6 24 13 18 25 17 15 27 19 5 11 12 22 29 30 3 10 21 14 26 1 28 20
c order 17 1 8 23 22 12 11 25 30 28 6 3 19 16 29 13 24 21 15 9 5 4 18 14 2 26 10 20 7 27
c order 15 30 27 11 13 20 6 17 7 2 16 3 21 14 10 23 24 12 1 25 19 28 18 29 8 9 22 5 26 4
c order 23 19 21 9 25 11 27 13 22 28 26 10 1 3 29 7 12 4 14 20 2 30 15 16 18 8 6 24 5 17
c order 21 12 1 28 7 15 2 14 13 23 4 10 6 26 18 29 3 19 16 11 9 25 5 17 30 8 24 22 20 27
c order 21 30 8 4 22 12 2 7 28 23 13 24 26 18 10 29 20 11 9 3 25 1 15 27 5 19 14 6 17 16
p cnf 30 126
9 -16 17 0
14 -17 7 0
30 11 -19 0
-12 -3 -9 0
-10 22 13 0
-13 -3 -22 0
-30 -27 4 0
-5 9 21 0
-24 -5 23 0
19 -3 -21 0
26 17 8 0
11 18 16 0
-13 -9 5 0
8 -15 18 0
-21 -18 -11 0
24 14 -15 0
15 2 10 0
12 19 25 0
11 6 -19 0
-8 20 -16 0
30 4 19 0
-16 27 17 0
-19 12 7 0
16 -8 27 0
-17 -9 1 0
15 -27 9 0
-17 -4 15 0
18 25 7 0
20 5 1 0
-16 1 3 0
21 -18 -13 0
2 -8 25 0
2 -22 10 0
-30 19 -26 0
13 5 -20 0
28 14 -27 0
-26 -9 -1 0
15 23 26 0
5 16 -15 0
-15 30 11 0
-3 -6 -14 0
-26 -21 -23 0
-13 -2 25 0
29 2 19 0
3 26 -28 0
16 29 14 0
-22 11 -6 0
-2 10 -21 0
-14 8 -22 0
-4 -5 29 0
13 7 -5 0
26 -12 -3 0
12 -20 13 0
-3 -2 26 0
24 20 6 0
14 -1 19 0
1 10 17 0
-23 28 -25 0
-23 -3 5 0
14 8 -12 0
23 -5 -8 0
23 17 7 0
-28 8 7 0
-18 -7 17 0
-1 8 -21 0
28 -22 -5 0
27 -13 -3 0
-17 -1 27 0
27 19 -26 0
8 14 21 0
-5 -27 13 0
-20 4 -29 0
2 -26 -11 0
-11 -9 -20 0
30 12 27 0
19 14 -3 0
-22 10 -15 0
27 24 -29 0
30 -12 -26 0
17 -13 20 0
30 -7 -27 0
30 4 -14 0
-29 4 -6 0
3 22 -23 0
23 -5 -29 0
-6 23 8 0
-22 26 19 0
-17 -30 -22 0
18 -25 -6 0
-17 12 -25 0
-2 -22 7 0
29 3 -13 0
7 8 22 0
29 -24 -11 0
-29 -5 -11 0
15 -26 -18 0
10 14 2 0
28 -27 7 0
14 4 -13 0
10 -9 6 0
19 -3 4 0
30 3 20 0
30 -13 -27 0
-29 21 -23 0
-22 -9 15 0
-22 23 7 0
10 16 30 0
30 -17 -2 0
20 8 13 0
28 -10 -11 0
12 21 3 0
-24 3 -10 0
26 -27 10 0
3 30 -28 0
-14 -25 -10 0
-19 -30 -5 0
-15 -8 2 0
1 -7 -4 0
7 -21 -20 0
27 -14 24 0
14 22 27 0
-9 16 21 0
-17 -30 -11 0
17 4 -5 0
-20 -27 -22 0
24 -27 -29 0
