c family=3-SAT n=30 instance=3 seed=2573548008 models=1
c order 26 30 11 20 13 22 24 7 1 27 19 15 25 28 8 21 6 4 17 23 10 29 16 12 2 5 14 9 3 18
c order 13 28 3 26 10 14 21 16 7 19 2 24 1 30 8 29 20 18 5 12 15 4 17 27 9 25 23 11 22 6
c order 7 13 10 4 16 27 29 17 1 19 20 9 25 26 12 14 3 8 11 5 24 18 28 15 30 23 2 22 21 6
c order 14 6 30 20 3 19 10 29 21 8 25 23 13 16 9 12 27 28 2 15 11 24 5 17 22 18 7 4 26 1
c order 11 30 18 1 17 26 9 8 27 29 16 15 2 19 24 25 23 4 28 22 5 20 10 7 12 21 6 13 3 14
c order 17 10 6 29 1 26 5 12 28 13 25 27 30 21 19 14 2 20 11 23 15 9 18 3 4 8 24 7 16 22
c order 9 15 8 26 16 30 11 27 19 25 10 4 2 12 21 14 28 7 23 1 29 18 24 20 13 17 22 6 5 3
c order 26 24 28 27 10 1 21 18 6 13 8 23 9 25 30 16 3 20 17 19 5 15 22 4 11 14 29 7 12 2
c order 22 6 28 18 20 3 29 30 27 24 13 25 14 1 10 8 21 19 17 5 16 2 23 4 26 12 15 9 11 7
c order 18 12 30 5 25 8 11 4 1 20 2 29 17 14 13 26 21 22 28 10 3 9 19 15 27 6 24 23 16 7
p cnf 30 126
25 23 26 0
-23 2 -1 0
-1 -26 10 0
-7 -20 -15 0
-22 -14 13 0
2 15 -13 0
18 -15 -23 0
-4 20 -10 0
-27 -17 8 0
-8 -26 6 0
7 -4 -1 0
-7 -17 3 0
-25 -6 -8 0
23 18 -30 0
-17 -30 12 0
16 -10 9 0
-12 -21 2 0
-30 -2 -20 0
-24 -8 -1 0
20 13 -19 0
-27 -14 -22 0
9 11 10 0
-1 16 -18 0
-1 -15 2 0
-23 -20 2 0
11 3 -27 0
25 -1 22 0
-14 -20 -26 0
-17 9 30 0
-12 -19 15 0
4 -26 13 0
-16 -23 -13 0
-15 -17 14 0
-18 -5 -11 0
10 20 -23 0
8 -10 -11 0
24 -16 -22 0
2 29 25 0
7 -16 3 0
-24 15 -13 0
-7 24 -9 0
25 3 20 0
20 -8 -21 0
26 14 -7 0
29 14 -21 0
-14 20 -12 0
30 -2 6 0
11 -29 -6 0
-19 -27 28 0
19 -24 -11 0
-9 -5 12 0
-29 -4 30 0
-18 19 -25 0
-19 16 1 0
-12 15 28 0
17 -3 10 0
9 -23 -6 0
1 -27 -26 0
17 15 9 0
-29 -15 -8 0
10 -5 21 0
26 8 2 0
29 26 -8 0
-11 27 6 0
9 25 -16 0
-16 -21 28 0
10 26 -28 0
29 -30 20 0
-27 22 15 0
16 26 -8 0
14 27 21 0
-28 -10 18 0
-8 4 11 0
-27 -18 21 0
-20 10 21 0
-22 -27 13 0
-30 27 -19 0
-17 15 16 0
-28 27 29 0
23 -24 -16 0
-23 19 2 0
14 30 4 0
-18 6 11 0
-20 -28 -30 0
-18 -26 -16 0
3 9 -15 0
2 8 21 0
-4 27 -6 0
12 -15 14 0
-28 -27 -1 0
23 -7 -25 0
8 7 5 0
17 29 -25 0
19 9 -29 0
-1 25 30 0
18 -20 -10 0
19 27 21 0
-23 -8 12 0
-21 14 17 0
-27 23 -10 0
-20 25 7 0
-18 21 -27 0
10 -11 -5 0
-8 24 -14 0
11 -12 -14 0
10 -2 -16 0
-6 -5 -1 0
2 13 -16 0
24 8 6 0
10 -12 -9 0
-22 -17 14 0
27 18 11 0
11 -16 6 0
-12 -30 -6 0
-10 21 18 0
-9 -6 -22 0
6 -17 22 0
-6 -17 18 0
-5 15 -21 0
-20 12 -7 0
15 -23 -10 0
13 23 8 0
-6 -10 -18 0
5 -10 -18 0
-28 16 -25 0
26 -30 -14 0
