c family=3-SAT n=35 instance=3 seed=2573548008 models=4
c order 25 24 23 15 16 3 27 32 33 5 28 20 1 34 12 22 13 4 17 10 30 31 26 35 2 29 8 9 21 14 6 19 7 18 11
c order 29 20 35 22 31 10 12 26 21 4 17 15 2 13 27 19 7 5 9 24 16 23 33 1 25 30 28 32 8 34 3 18 6 11 14
c order 5 26 34 20 10 31 4 29 33 6 18 17 12 35 2 25 22 32 27 30 11 28 16 24 23 13 19 3 14 15 21 8 1 9 7
c order 28 11 32 19 16 20 9 22 8 1 31 26 24 21 15 23 17 3 29 10 35 25 18 7 2 33 4 13 14 6 12 5 27 34 30
c order 26 31 12 1 3 24 22 27 10 34 25 6 20 32 29 13 30 28 19 9 2 4 17 8 5 21 23 14 16 15 33 11 7 35 18
c order 28 24 22 31 13 16 5 4 1 3 14 33 25 23 15 6 30 26 34 35 19 12 10 21 17 27 20 7 18 8 9 2 29 32 11
c order 32 1 30 27 10 8 5 31 9 12 26 29 23 3 13 22 21 7 33 14 35 24 28 25 34 11 19 18 17 4 15 6 20 16 2
c order 18 11 10 13 8 32 22 30 6 24 25 28 35 33 9 15 1 12 4 7 21 17 27 2 3 34 19 23 29 20 14 5 16 31 26
c order 4 3 28 31 9 18 23 26 30 17 27 21 2 22 14 16 11 7 5 1 25 29 34 20 32 15 12 8 10 33 19 6 24 35 13
c order 27 16 6 9 8 34 18 12 24 30 10 28 11 3 29 19 32 4 21 25 14 35 23 7 33 20 31 17 1 2 5 26 15 13 22
p cnf 35 147
-5 -28 -18 0
-22 -20 27 0
20 13 -17 0
14 -30 -26 0
-34 -20 -31 0
-31 19 34 0
18 -30 3 0
-32 -17 -35 0
9 -35 -27 0
-34 -22 -20 0
25 -20 -23 0
5 12 17 0
1 9 -13 0
-10 -29 -35 0
21 -3 8 0
28 35 27 0
-11 -15 -18 0
13 17 -33 0
-26 -12 9 0
17 11 18 0
32 -4 8 0
27 6 -3 0
31 23 -3 0
7 25 15 0
34 29 -18 0
-1 24 -10 0
-21 16 -15 0
-9 28 30 0
-22 16 1 0
26 14 30 0
-5 31 11 0
17 31 -30 0
-26 28 -13 0
-33 19 -22 0
-35 26 -5 0
34 19 -8 0
-4 31 -6 0
7 33 -6 0
5 16 -6 0
-6 30 15 0
31 -30 -11 0
18 -35 -10 0
-6 -8 15 0
-22 -6 11 0
-12 -1 -15 0
-3 11 19 0
-23 -15 18 0
31 27 30 0
-13 -32 -15 0
23 27 26 0
-19 20 28 0
6 -3 -9 0
-31 17 -4 0
-24 -26 -29 0
-30 34 13 0
4 -25 11 0
13 23 33 0
35 27 -32 0
-23 27 -8 0
32 2 26 0
29 34 -17 0
-34 -28 18 0
-5 21 -16 0
14 18 -15 0
-5 -11 6 0
2 -16 1 0
29 4 2 0
-12 -6 -7 0
13 -23 -16 0
-2 -8 34 0
-31 30 20 0
-33 -5 -10 0
33 15 6 0
26 -32 23 0
25 35 -17 0
-18 -14 17 0
-7 -34 31 0
9 29 -22 0
-4 -9 -32 0
-5 28 -1 0
-28 26 -4 0
28 5 14 0
-22 -26 20 0
-32 21 2 0
-9 -10 -13 0
26 4 1 0
6 -24 -9 0
20 5 -15 0
-34 -7 -23 0
30 -31 21 0
30 -10 24 0
33 -12 -28 0
-7 27 4 0
-35 -33 31 0
-24 1 -35 0
27 22 14 0
14 1 3 0
-21 -25 6 0
-12 10 -1 0
-2 -26 -8 0
17 -9 30 0
-28 31 -11 0
-16 13 -19 0
-22 32 -19 0
-25 30 -19 0
-7 -19 28 0
35 -27 15 0
-12 -27 -9 0
-6 -5 26 0
-17 23 -30 0
-24 1 -3 0
19 -11 23 0
19 10 -22 0
-10 -30 -20 0
30 -1 -34 0
15 -32 2 0
-2 29 -25 0
-5 -3 1 0
-18 6 -30 0
31 32 19 0
33 17 -23 0
-24 35 13 0
-11 1 -2 0
4 24 -27 0
-33 -25 19 0
14 13 12 0
-20 -21 34 0
-6 -33 10 0
33 24 1 0
6 -5 18 0
-15 6 18 0
-12 -7 -4 0
30 7 9 0
-22 2 21 0
-6 -21 -19 0
-15 -32 -35 0
-12 13 33 0
-15 -9 24 0
-29 -16 6 0
-9 -23 8 0
-28 -18 4 0
1 10 -29 0
-26 -21 -6 0
-13 33 -26 0
3 -35 -5 0
-21 19 35 0
29 26 -32 0
