c family=3-SAT n=35 instance=7 seed=2573548008 models=16
c order 32 17 12 5 20 14 34 25 3 16 23 29 1 28 9 13 10 21 18 30 6 31 26 33 19 24 8 35 27 4 2 11 15 22 7
c order 13 6 2 35 26 21 23 17 25 30 11 29 27 12 7 3 20 10 14 5 28 24 15 9 34 8 32 18 22 16 4 19 31 33 1
c order 12 33 18 11 2 32 9 16 26 6 20 22 8 28 27 34 15 19 14 21 30 24 23 29 31 5 7 17 4 25 35 10 13 3 1
c order 11 23 8 35 25 31 5 3 12 13 20 30 1 27 6 16 19 26 7 29 4 34 2 32 9 18 17 15 21 28 24 10 33 22 14
c order 26 16 32 18 8 22 28 17 9 19 20 5 21 35 23 10 27 24 11 6 1 13 30 12 3 7 33 14 31 25 15 29 4 2 34
c order 35 25 13 22 18 31 14 33 28 19 8 23 30 24 20 5 4 6 3 10 2 9 1 21 12 16 32 29 26 27 7 17 15 34 11
c order 8 1 6 7 5 10 33 25 2 31 27 17 15 34 4 18 11 24 30 22 23 20 28 13 29 21 16 9 19 14 35 32 12 3 26
c order 21 3 15 33 4 20 30 16 26 14 32 12 34 11 7 2 5 29 28 10 8 31 19 9 27 23 1 24 25 18 35 22 17 13 6
c order 32 30 13 27 25 35 15 18 24 21 19 10 2 12 33 23 22 7 6 20 3 11 5 28 29 34 31 9 8 14 17 26 1 4 16
c order 27 17 12 19 28 16 10 26 30 13 11 8 2 20 22 4 21 14 34 33 25 31 6 9 1 7 5 32 18 29 35 3 15 24 23
p cnf 35 147
-12 29 26 0
-33 -27 35 0
-7 5 -20 0
-11 30 10 0
24 23 -21 0
7 20 26 0
-6 -17 29 0
-6 19 31 0
11 19 -25 0
13 15 34 0
-35 14 24 0
22 20 -17 0
-11 -29 6 0
20 -5 3 0
-31 26 10 0
27 -21 4 0
10 22 21 0
20 -11 -8 0
-32 -5 -30 0
-25 -34 32 0
23 -32 -15 0
14 -17 -18 0
9 -33 10 0
-28 24 27 0
17 -13 21 0
26 -12 3 0
-24 -6 33 0
-22 -34 -10 0
2 -10 9 0
19 32 -22 0
4 10 -12 0
31 -22 -20 0
34 -29 32 0
15 6 2 0
25 -15 -12 0
6 -19 29 0
-9 -19 -5 0
17 26 -32 0
33 -26 -32 0
-10 29 -9 0
5 18 -2 0
-26 -3 12 0
-34 -27 26 0
29 35 2 0
18 -21 15 0
-6 7 8 0
18 10 -24 0
-19 -25 1 0
19 -16 -23 0
1 -15 -25 0
16 13 -21 0
-35 -3 28 0
8 -28 20 0
-14 4 -25 0
17 -13 -3 0
35 -32 -33 0
2 7 -13 0
20 4 17 0
28 12 13 0
27 -1 4 0
24 -23 18 0
-26 29 4 0
-7 31 28 0
-16 -23 12 0
-8 -33 5 0
13 -26 17 0
-6 -35 -20 0
-3 17 -26 0
20 -9 -16 0
-31 8 21 0
-10 -20 -7 0
6 -12 23 0
21 -25 -7 0
26 16 -12 0
13 -7 9 0
-34 7 11 0
-2 11 25 0
14 -33 -27 0
30 -18 -6 0
-13 -18 -29 0
3 -2 11 0
-10 8 24 0
7 -15 -6 0
13 -6 -10 0
-32 2 -29 0
-4 20 8 0
-13 -10 35 0
-18 23 14 0
20 7 34 0
-32 -13 -25 0
-17 -19 -3 0
20 34 19 0
-8 2 24 0
3 -2 -20 0
-17 -27 -28 0
11 26 31 0
31 -20 24 0
2 -32 7 0
-5 27 29 0
-26 8 -32 0
27 26 -17 0
31 29 -11 0
-15 19 10 0
26 -19 -13 0
9 -6 -7 0
-10 16 -31 0
-3 -9 -10 0
-26 3 -19 0
-6 33 18 0
6 27 22 0
-4 7 -24 0
24 -21 -29 0
26 21 10 0
31 -9 -22 0
21 32 -25 0
15 -19 22 0
3 22 10 0
26 -7 17 0
22 3 4 0
-14 -26 -28 0
-3 -16 35 0
34 -13 11 0
-28 -23 13 0
-9 -18 -10 0
24 25 7 0
-33 -22 4 0
-29 -8 31 0
-16 27 34 0
-8 -22 -2 0
7 4 28 0
8 -6 -10 0
13 -3 14 0
-11 -19 34 0
1 17 -35 0
15 10 3 0
-16 -20 30 0
-29 -9 23 0
-1 -6 -17 0
24 -26 12 0
-21 9 -12 0
-10 -32 -5 0
11 -15 -13 0
30 -17 -4 0
-13 -23 -9 0
11 -20 -7 0
16 28 -31 0
-1 28 5 0
