c family=3-SAT n=35 instance=9 seed=2573548008 models=288
c order 4 26 30 22 3 7 32 15 5 10 16 1 27 11 17 13 33 24 28 34 2 12 31 8 35 23 6 25 14 21 9 29 20 18 19
c order 1 16 3 26 2 8 4 29 34 19 21 32 15 35 23 27 24 9 12 7 20 11 18 28 31 13 14 5 25 6 22 17 33 10 30
c order 35 18 17 25 24 13 7 32 19 15 33 31 16 8 5 29 14 21 4 2 3 27 30 11 23 6 20 34 28 10 26 22 1 9 12
c order 22 28 35 23 11 15 1 34 19 6 5 24 27 17 3 33 25 29 18 12 16 9 2 26 21 32 10 30 7 14 31 13 4 8 20
c order 11 34 32 6 20 16 1 5 31 22 7 23 3 9 13 29 26 35 24 12 15 33 10 4 8 28 30 27 21 25 17 18 19 2 14
c order 17 33 34 4 14 32 18 10 24 13 26 12 11 19 15 31 27 20 6 2 5 9 29 16 1 3 23 21 30 7 28 8 35 25 22
c order 33 35 34 28 31 1 23 16 27 4 19 13 12 3 7 9 17 32 22 24 11 21 26 2 8 29 30 5 6 20 14 25 18 10 15
c order 18 27 1 14 6 2 21 11 8 24 19 16 30 4 17 35 12 33 20 34 5 25 23 28 9 31 7 32 3 26 15 29 13 22 10
c order 14 1 35 18 27 4 22 19 20 26 17 7 33 23 34 12 13 21 16 3 28 5 32 31 30 9 6 8 11 29 10 25 2 24 15
c order 26 20 1 4 16 10 18 9 27 31 25 32 13 17 14 5 15 23 8 2 29 22 28 34 11 19 35 21 3 33 12 6 7 24 30
p cnf 35 147
-35 -29 33 0
-18 -2 -28 0
17 20 -1 0
18 26 -31 0
21 35 -11 0
31 -6 5 0
3 -32 -31 0
-29 -2 24 0
-13 -2 34 0
-34 4 21 0
-15 -13 14 0
-28 2 -14 0
22 -33 8 0
15 19 -25 0
-9 4 -27 0
23 -15 -6 0
-7 23 -6 0
9 23 6 0
6 -5 21 0
-17 -2 16 0
-12 -32 26 0
-35 26 8 0
29 11 26 0
28 -25 24 0
-8 20 -10 0
-26 11 -33 0
-4 33 25 0
-35 23 20 0
-32 3 -6 0
-11 26 -25 0
-18 -26 -24 0
-20 24 28 0
27 35 -21 0
9 -26 20 0
29 33 -7 0
-32 -9 8 0
-7 4 16 0
-2 17 6 0
3 -24 -33 0
7 -34 19 0
-7 11 6 0
18 -19 -7 0
7 -17 14 0
-12 -32 35 0
-3 28 15 0
8 -34 -25 0
-10 23 9 0
14 22 -29 0
29 -31 16 0
-17 -6 15 0
-2 -22 12 0
13 12 29 0
-31 -16 27 0
-13 -12 7 0
14 35 -30 0
5 26 -33 0
-10 11 -22 0
-10 -11 -1 0
26 24 -2 0
18 -11 33 0
-13 -35 4 0
-14 11 18 0
21 -8 10 0
27 -19 14 0
29 21 -8 0
-1 -23 -29 0
23 -33 25 0
29 14 -16 0
-21 -5 -31 0
-20 -22 29 0
-34 23 7 0
-14 -7 25 0
4 14 -25 0
30 -15 -8 0
29 30 -33 0
11 15 -28 0
6 -2 -32 0
2 -12 -26 0
-18 14 29 0
32 35 -28 0
-17 24 -19 0
-9 18 7 0
3 15 -19 0
-28 -14 -23 0
33 10 14 0
30 18 -10 0
-28 -24 12 0
-33 23 25 0
-32 -17 19 0
20 8 -11 0
-2 11 9 0
-17 -9 5 0
-7 33 18 0
16 12 34 0
-30 7 -35 0
-25 -34 1 0
-28 -5 11 0
18 -7 -32 0
19 -35 13 0
-21 -5 22 0
17 34 -6 0
-24 -4 -29 0
33 2 -18 0
-22 -7 -5 0
-28 -13 -10 0
-8 -21 19 0
28 10 32 0
26 -2 -8 0
28 -10 -15 0
-13 -21 16 0
-14 -28 35 0
20 -1 -30 0
7 17 -9 0
-16 -3 -9 0
-9 3 30 0
-30 -11 -26 0
-33 20 -27 0
4 35 23 0
-14 29 -19 0
-30 -15 -34 0
-24 28 13 0
22 -18 -30 0
-15 14 11 0
-3 32 -12 0
-3 15 -9 0
-30 25 31 0
15 -24 -3 0
27 -24 2 0
31 -35 21 0
16 -29 -25 0
-25 15 13 0
7 -26 -14 0
18 14 15 0
-33 14 -24 0
16 -11 20 0
15 30 2 0
26 -14 -28 0
20 31 -34 0
21 -26 3 0
8 -22 -10 0
-4 -24 -8 0
-6 8 5 0
-14 2 -31 0
3 -28 -29 0
12 19 4 0
33 -31 34 0
21 -27 18 0
