c family=3-SAT n=35 instance=5 seed=2573548008 models=180
c order 29 23 9 30 11 32 27 22 28 21 2 7 35 12 24 34 33 8 15 4 3 31 13 1 10 14 17 20 5 19 25 6 26 18 16
c order 18 25 6 30 17 9 15 28 20 12 32 27 26 21 29 2 1 22 4 35 5 23 24 13 3 7 11 34 10 8 33 14 19 31 16
c order 20 10 30 1 14 7 16 12 9 21 29 19 18 34 27 11 23 22 13 28 3 8 35 32 5 24 26 15 31 25 2 17 4 6 33
c order 3 2 34 32 13 14 8 1 20 24 26 15 6 18 31 9 11 12 4 10 28 23 25 5 17 35 27 19 16 21 22 33 29 7 30
c order 19 16 9 17 6 24 10 4 31 32 3 20 8 5 28 30 13 18 7 33 25 12 14 26 35 2 21 29 11 27 15 22 34 23 1
c order 18 7 34 5 28 13 25 30 12 32 9 22 26 35 29 3 20 11 33 24 14 15 10 6 1 16 27 8 21 23 2 17 4 31 19
c order 15 7 22 28 5 21 9 19 13 26 30 34 2 33 20 25 1 11 17 27 4 16 35 23 32 6 10 31 3 14 12 29 18 8 24
c order 34 26 8 19 7 13 29 23 33 20 15 21 14 35 31 10 9 5 30 12 1 22 4 17 2 25 16 6 24 3 11 32 28 18 27
c order 15 18 17 27 3 23 4 20 34 13 10 35 22 9 29 5 25 32 7 26 30 12 33 28 2 16 6 21 11 24 19 1 31 14 8
c order 26 30 2 17 11 4 34 28 1 8 25 9 16 32 20 6 14 33 15 27 23 18 24 5 10 3 31 22 7 13 35 12 19 29 21
p cnf 35 147
-3 -33 -26 0
-33 11 -18 0
5 23 12 0
31 -17 -35 0
-19 31 6 0
35 17 28 0
6 8 -34 0
32 -1 17 0
-30 2 -17 0
-1 -26 -32 0
15 8 14 0
15 9 8 0
-21 18 -30 0
3 -15 27 0
-11 25 19 0
22 21 14 0
-3 17 5 0
-31 17 -27 0
-9 -12 -32 0
-8 20 -13 0
-6 -30 -23 0
4 -14 -24 0
-22 -20 7 0
11 5 -10 0
-22 -35 30 0
-30 -2 -31 0
-10 -12 34 0
-24 25 -27 0
2 27 -14 0
34 -16 -18 0
14 33 7 0
14 25 -10 0
4 -25 -18 0
5 6 -27 0
-18 6 8 0
-32 22 21 0
-31 13 3 0
32 -10 -3 0
30 17 26 0
33 -13 22 0
27 4 -8 0
22 -5 -35 0
-13 11 15 0
-29 8 -35 0
35 -24 25 0
-27 7 35 0
-12 -5 -2 0
-33 -22 -9 0
20 31 -16 0
-2 24 -16 0
32 -10 1 0
-2 -20 -6 0
-4 11 33 0
-34 13 14 0
-31 4 -34 0
-6 19 -23 0
29 27 -20 0
-17 -7 -14 0
17 23 33 0
-31 -24 5 0
-14 32 30 0
-21 30 -28 0
14 21 -29 0
13 25 6 0
-1 22 -35 0
-28 30 11 0
-11 4 -12 0
-3 16 -9 0
5 29 -31 0
25 32 34 0
-5 -11 -30 0
2 17 -9 0
-1 -3 -20 0
4 -10 24 0
7 -2 -16 0
-31 25 -28 0
-5 -33 -35 0
19 26 18 0
21 -11 7 0
-32 31 12 0
-27 17 -19 0
30 -26 -1 0
7 13 4 0
3 8 16 0
-33 30 -26 0
-26 27 -31 0
21 6 -23 0
27 31 -30 0
-14 -26 9 0
26 -4 -8 0
19 -2 22 0
15 -35 -20 0
12 29 31 0
3 -21 9 0
-5 20 23 0
-33 8 5 0
-26 -20 16 0
33 -12 -15 0
32 -22 20 0
-17 -3 31 0
2 25 20 0
22 -6 -14 0
-6 -17 26 0
-35 13 -2 0
-21 9 1 0
-33 -21 4 0
-30 18 -5 0
35 7 31 0
27 26 -16 0
19 -10 33 0
33 4 6 0
9 24 14 0
28 -29 -19 0
30 1 13 0
31 34 -18 0
-25 24 -19 0
17 -14 27 0
31 -3 -22 0
21 11 8 0
28 12 -1 0
-30 18 -7 0
-20 7 35 0
-35 10 -13 0
-10 -29 21 0
5 -24 4 0
25 35 2 0
15 -17 -33 0
-24 22 29 0
26 33 -28 0
-16 23 9 0
26 24 16 0
-33 22 -26 0
6 3 -12 0
10 -4 -17 0
-1 -14 -24 0
-14 -21 -11 0
33 -21 -31 0
-11 6 -5 0
33 13 -28 0
-15 11 16 0
-25 4 -27 0
20 17 -4 0
15 8 31 0
-2 32 26 0
16 33 -34 0
-25 -34 7 0
-19 20 -21 0
