c family=3-SAT n=35 instance=1 seed=2573548008 models=166
c order 10 29 18 25 33 14 34 16 2 13 15 22 5 26 8 24 11 4 21 17 7 31 32 19 30 28 3 1 12 35 27 9 6 23 20
c order 5 27 12 15 32 4 3 10 16 28 9 1 33 21 23 24 19 11 6 2 29 30 22 7 20 26 8 14 31 25 17 18 13 34 35
c order 17 31 14 21 30 27 10 29 34 7 9 26 23 20 16 33 3 18 13 12 35 28 25 19 8 6 24 32 2 11 22 4 1 15 5
c order 1 29 6 5 23 2 31 9 20 12 22 8 33 15 26 4 28 21 3 24 30 34 19 10 32 16 11 17 18 14 25 35 13 7 27
c order 7 21 2 12 23 20 26 15 19 1 6 13 29 27 28 3 35 32 5 4 30 16 31 22 14 9 34 33 10 25 11 8 24 17 18
c order 28 2 31 34 21 11 5 3 20 15 4 25 10 35 30 18 7 23 13 33 1 19 9 17 29 14 16 32 26 24 6 22 27 12 8
c order 5 29 14 25 11 17 6 20 1 16 3 13 32 26 24 12 7 10 30 18 4 2 28 27 9 23 15 22 34 8 33 21 31 19 35
c order 27 15 17 32 4 20 24 21 29 14 10 19 18 11 23 12 26 8 13 5 16 35 9 7 30 22 1 3 2 25 33 31 6 28 34
c order 32 7 11 8 12 34 29 26 5 16 24 18 23 17 14 33 27 21 35 15 4 3 1 20 10 28 19 25 9 31 13 2 22 6 30
c order 19 27 21 9 34 14 6 8 11 4 10 17 25 7 3 28 24 16 31 5 22 33 18 15 23 13 1 2 30 32 12 26 35 29 20
p cnf 35 147
25 -16 19 0
9 -1 -34 0
-19 35 22 0
4 -21 -18 0
-16 12 20 0
-22 -28 16 0
10 -24 -19 0
4 1 13 0
15 9 18 0
-14 25 13 0
5 33 -26 0
-8 5 -32 0
23 26 -22 0
-4 22 1 0
8 -1 23 0
-12 -31 -18 0
-28 -34 -10 0
27 -26 12 0
34 -31 -6 0
22 -5 -14 0
24 -12 -19 0
-19 29 25 0
-20 32 8 0
-19 -23 33 0
25 -7 -12 0
16 12 29 0
11 -16 -20 0
-27 -18 13 0
-12 -7 -35 0
-30 -32 2 0
-27 -22 20 0
23 5 15 0
11 19 8 0
5 -27 14 0
-28 18 11 0
12 -19 24 0
9 -18 15 0
22 -16 20 0
-3 -35 -7 0
-29 -31 -10 0
13 1 21 0
-15 -19 -2 0
6 -3 23 0
15 4 24 0
34 5 -27 0
-31 -19 32 0
16 28 10 0
29 -12 -22 0
-13 32 20 0
-11 23 24 0
33 -30 -10 0
28 -10 23 0
-18 4 -27 0
-19 -2 20 0
-26 17 -19 0
-32 -8 18 0
34 -2 12 0
-4 -12 -34 0
-13 16 21 0
7 35 -19 0
-31 20 27 0
19 24 -27 0
26 13 -5 0
-35 29 -33 0
7 -30 8 0
-1 -3 -28 0
-20 32 31 0
12 33 -32 0
-31 -14 15 0
-32 8 21 0
-21 -8 16 0
-1 -3 -14 0
28 -17 19 0
-23 -8 19 0
6 -28 -34 0
30 28 24 0
26 8 -33 0
-10 -22 -33 0
34 -28 33 0
10 13 -9 0
27 -24 -11 0
32 3 -4 0
7 -19 2 0
-5 -17 -10 0
-21 34 3 0
-35 29 14 0
33 -19 -27 0
-25 -31 32 0
-34 -14 10 0
-35 27 -24 0
-17 2 18 0
-13 23 -26 0
6 -23 -28 0
17 -26 34 0
-14 15 -25 0
1 -11 12 0
-10 15 8 0
22 -32 17 0
-5 35 -11 0
11 4 -1 0
-4 -22 13 0
-1 17 -13 0
-20 -17 21 0
-5 -4 -31 0
-20 -11 15 0
21 -3 -10 0
-11 14 34 0
-31 -34 -25 0
28 -22 -19 0
-14 -34 9 0
29 27 2 0
13 28 -21 0
30 7 -8 0
-12 4 -5 0
15 -33 -1 0
-4 -23 -17 0
18 -17 3 0
30 26 28 0
2 23 6 0
35 -27 -31 0
22 15 20 0
-31 7 35 0
25 22 11 0
-23 -2 -4 0
21 31 -30 0
-26 -21 -5 0
5 -9 12 0
14 31 15 0
-14 -30 13 0
-20 -34 -33 0
-23 26 -22 0
32 24 23 0
13 -14 -18 0
-22 -13 2 0
10 -31 -9 0
18 12 21 0
4 25 -35 0
1 -5 -15 0
31 33 -35 0
34 -16 4 0
13 -8 6 0
16 -18 15 0
-22 9 21 0
21 -25 11 0
21 8 -11 0
12 -30 -10 0
2 -30 26 0
