c family=3-SAT n=35 instance=8 seed=2573548008 models=74
c order 13 22 18 3 23 5 8 16 34 28 27 7 19 29 25 6 33 14 20 32 30 10 26 1 11 24 4 21 12 15 2 9 17 35 31
c order 16 27 11 1 9 19 17 25 23 18 13 21 2 33 31 30 3 10 5 28 20 15 4 22 6 14 35 32 29 7 34 12 8 26 24
c order 15 27 1 34 30 4 17 31 26 33 2 24 13 29 32 14 3 20 12 22 18 8 28 5 7 25 35 21 16 6 11 23 9 10 19
c order 1 32 30 17 14 9 28 19 3 26 29 2 4 23 5 11 7 16 34 20 35 12 18 6 8 31 33 15 25 24 22 27 10 21 13
c order 25 3 11 2 31 35 5 29 15 7 32 17 18 6 34 14 23 20 30 19 12 26 28 13 10 9 8 21 4 16 33 22 27 24 1
c order 23 4 19 33 20 27 5 16 30 8 17 32 31 22 26 7 3 18 25 13 28 21 1 2 14 15 34 10 11 6 24 9 29 12 35
c order 13 23 3 15 26 31 24 16 2 20 30 8 14 34 6 29 33 19 10 9 25 5 28 17 35 12 18 22 4 27 1 7 11 32 21
c order 33 6 12 26 19 17 23 21 10 32 24 11 31 5 16 22 3 15 7 34 18 2 30 13 25 14 28 1 4 35 9 27 29 8 20
c order 16 5 1 25 27 29 34 7 8 33 15 26 24 20 10 11 19 32 30 28 9 18 17 23 3 31 22 6 12 2 13 35 14 4 21
c order 32 10 11 17 1 19 8 25 35 29 6 31 26 21 20 16 28 22 14 33 2 3 13 15 9 27 12 7 5 34 24 30 4 18 23
p cnf 35 147
-28 -25 23 0
-32 6 1 0
16 -17 -27 0
26 -17 24 0
31 -3 21 0
-18 31 8 0
32 10 28 0
8 31 9 0
18 6 -13 0
-32 -25 22 0
-18 35 13 0
-15 -26 1 0
-1 28 -35 0
13 -16 -4 0
3 -27 -30 0
-32 23 -35 0
-24 -4 15 0
15 -29 11 0
23 -7 35 0
-4 -16 -18 0
-25 -35 -31 0
16 7 14 0
-5 -17 -30 0
-26 -28 -32 0
26 31 2 0
-26 -18 -6 0
-35 24 23 0
27 34 20 0
-20 29 2 0
26 13 3 0
20 3 -35 0
30 -1 31 0
31 -10 3 0
34 -13 -20 0
-2 -17 -25 0
-28 -22 3 0
1 33 -27 0
24 -21 -7 0
32 30 -35 0
5 -18 -3 0
1 32 24 0
-10 -4 -5 0
-21 -9 26 0
-2 -9 -34 0
3 -2 -22 0
-3 10 8 0
-33 8 19 0
1 -9 -8 0
4 26 28 0
1 31 -5 0
10 -19 3 0
-29 25 2 0
8 29 25 0
11 9 -23 0
-15 21 -32 0
-14 -26 -22 0
-12 -25 -14 0
34 -24 9 0
-34 16 -33 0
-4 10 -28 0
20 23 12 0
-4 13 15 0
-6 -10 -12 0
17 -34 13 0
-27 32 30 0
-31 4 29 0
14 1 -23 0
23 -10 35 0
6 30 25 0
30 14 -34 0
23 -35 -16 0
-10 -21 26 0
16 23 17 0
-4 -32 33 0
4 -8 32 0
5 13 -32 0
-15 -30 -13 0
-33 -11 -23 0
-32 -10 -27 0
-29 19 -11 0
28 31 -15 0
-17 -8 22 0
10 11 -3 0
27 -10 -35 0
-33 1 -32 0
-34 -14 33 0
24 13 11 0
-30 -21 35 0
34 -4 22 0
-6 4 20 0
9 -30 1 0
3 9 20 0
-5 34 30 0
10 -28 -20 0
10 5 21 0
-23 -32 20 0
-25 2 -12 0
-6 -26 -25 0
15 25 10 0
-9 23 35 0
26 -24 -12 0
19 -30 22 0
26 -30 34 0
8 23 15 0
-35 17 -32 0
-17 16 -23 0
-31 -35 4 0
32 11 10 0
1 3 -21 0
-27 34 -35 0
-10 -17 35 0
35 28 -17 0
-9 6 -21 0
25 27 -20 0
-32 12 -17 0
-29 -1 30 0
17 -34 -26 0
7 25 -33 0
15 -22 27 0
2 -1 14 0
12 -18 -1 0
-11 31 32 0
34 29 19 0
-4 -22 -27 0
3 -14 15 0
19 -3 23 0
34 -32 -8 0
-32 -20 -18 0
-2 -8 -23 0
-20 -5 -25 0
-2 -3 -22 0
4 -7 -12 0
-31 6 -15 0
28 -1 -16 0
-8 -3 19 0
26 -30 -16 0
-28 12 -19 0
5 -35 -12 0
35 32 6 0
22 2 9 0
-8 -4 33 0
-8 -23 -16 0
32 15 -20 0
-16 -29 19 0
3 23 -17 0
5 13 -35 0
8 -28 31 0
