c family=3-SAT n=35 instance=2 seed=2573548008 models=13
c order 16 24 11 13 7 9 34 4 31 15 32 23 21 29 2 30 25 5 35 17 33 22 28 20 1 26 3 14 12 27 10 8 18 19 6
c order 26 28 2 12 34 31 25 27 5 20 19 33 24 3 32 10 35 21 18 14 11 15 8 17 29 1 7 30 22 6 23 16 13 9 4
c order 29 4 28 21 17 18 33 3 32 1 23 6 7 11 9 15 8 19 14 30 20 10 2 24 12 22 13 27 34 25 31 35 5 16 26
c order 19 21 5 10 7 20 11 29 3 2 8 34 6 16 25 9 23 24 1 14 18 35 32 15 33 22 27 17 26 13 30 28 12 4 31
c order 22 23 27 24 8 29 28 14 5 30 31 11 10 19 34 33 35 1 18 21 7 4 16 2 17 6 25 26 15 20 9 3 32 12 13
c order 13 10 29 1 31 28 16 8 32 17 9 25 19 2 6 27 33 22 7 11 26 30 14 15 12 18 20 3 34 35 23 4 5 24 21
c order 26 14 1 20 8 11 18 27 17 34 33 19 2 4 29 12 28 31 9 22 3 25 24 6 5 32 21 7 13 23 16 35 15 10 30
c order 28 34 16 8 13 7 1 6 30 22 26 17 29 35 19 20 9 18 3 4 21 11 25 23 15 27 14 33 24 2 12 5 10 32 31
c order 14 2 7 15 32 9 17 6 23 19 30 4 34 21 20 24 31 13 3 28 29 12 25 35 33 22 18 10 11 1 16 27 26 5 8
c order 19 34 24 13 25 18 9 17 29 2 8 3 21 5 35 33 15 30 11 12 1 14 27 23 6 7 32 16 4 10 28 22 26 20 31
p cnf 35 147
-35 -26 -33 0
28 -5 14 0
14 -19 -33 0
30 -27 8 0
2 17 -25 0
5 -13 22 0
33 -6 -12 0
-27 -22 30 0
-1 7 -26 0
-5 -18 -22 0
4 -11 -27 0
6 27 23 0
-9 -22 -15 0
-13 8 -33 0
21 -34 -3 0
-7 26 -16 0
11 -29 -9 0
12 -35 19 0
18 23 -33 0
-25 -8 27 0
-10 21 -5 0
-35 3 12 0
9 2 -34 0
31 16 -12 0
-22 5 8 0
32 -22 14 0
16 14 -5 0
-27 -22 -10 0
-13 -6 -30 0
-19 1 -15 0
30 12 -17 0
14 1 34 0
-14 -12 -8 0
-20 -26 7 0
-19 -11 -4 0
35 22 -10 0
1 -32 -26 0
29 5 -24 0
-29 -25 -1 0
-7 9 19 0
9 16 26 0
-15 8 5 0
23 21 -17 0
24 -8 -34 0
35 -23 -31 0
-31 -33 34 0
-6 -3 -15 0
7 -12 28 0
27 12 2 0
21 -16 -6 0
4 22 12 0
13 10 7 0
6 2 16 0
-14 -15 34 0
-7 16 12 0
-28 15 3 0
-4 8 -7 0
-34 26 -22 0
22 -23 -9 0
-14 27 16 0
15 11 -34 0
-18 -5 -33 0
7 -16 -33 0
-15 -21 -33 0
14 -30 -27 0
19 -5 -12 0
8 -3 -23 0
-28 33 16 0
29 34 -17 0
18 21 6 0
-28 -10 21 0
-31 -9 27 0
-30 10 9 0
-32 27 -13 0
9 30 17 0
21 -18 19 0
29 35 -10 0
18 9 21 0
-23 31 16 0
15 -2 -9 0
14 -19 -2 0
23 13 -17 0
-4 22 -3 0
-30 -25 11 0
31 9 27 0
-34 -35 3 0
10 6 2 0
29 -3 -17 0
-5 -10 30 0
-13 27 -34 0
3 14 -13 0
6 -12 -24 0
-13 -31 -8 0
18 -17 -20 0
29 12 -14 0
12 17 -28 0
3 -35 8 0
-28 -30 25 0
-5 7 -17 0
27 -23 13 0
21 -15 -6 0
1 -18 15 0
-11 -20 -3 0
3 -9 -23 0
-29 -9 19 0
-28 33 -6 0
5 31 -21 0
-12 29 -24 0
-6 31 -24 0
-26 29 8 0
15 -29 -7 0
21 -11 17 0
28 -10 -29 0
14 -35 -5 0
35 -25 -11 0
17 14 23 0
20 13 -14 0
-34 11 -29 0
1 -15 7 0
28 20 9 0
5 20 -16 0
-7 -35 34 0
8 -14 -18 0
10 -21 -3 0
-3 15 -11 0
20 -12 18 0
-28 16 10 0
15 -6 -25 0
-23 -32 -19 0
-21 1 -2 0
-25 14 -1 0
-31 8 15 0
23 -21 12 0
22 -29 31 0
24 -5 16 0
-33 12 32 0
14 -12 -25 0
-5 30 -26 0
28 24 11 0
35 1 -3 0
-18 12 -25 0
32 -10 4 0
31 35 -20 0
14 -31 8 0
-17 3 4 0
-6 1 -11 0
-33 26 6 0
