c family=3-SAT n=35 instance=6 seed=2573548008 models=515
c order 18 1 12 22 20 3 30 13 11 6 29 19 15 10 24 2 35 21 23 9 26 25 16 17 4 31 33 5 32 14 8 34 27 28 7
c order 2 29 35 1 14 26 21 7 4 28 3 19 27 32 34 31 18 25 33 20 5 22 10 17 9 8 24 13 15 11 30 6 23 16 12
c order 5 11 27 35 23 9 7 20 13 12 33 32 21 30 31 14 26 18 10 25 17 28 22 16 19 34 1 6 3 15 24 29 8 4 2
c order 32 10 16 34 17 28 1 23 25 30 31 2 5 12 13 24 27 3 21 18 15 6 8 7 11 22 33 35 19 9 26 29 14 4 20
c order 34 19 14 26 13 2 27 6 12 33 25 18 23 10 22 11 8 24 9 29 4 3 21 17 20 32 15 16 1 31 28 35 30 7 5
c order 6 15 34 26 16 13 8 7 4 21 18 11 23 3 9 12 24 2 17 32 25 29 5 22 10 35 30 31 19 20 27 14 1 33 28
c order 24 25 18 14 20 17 21 13 34 26 12 22 32 5 2 35 6 30 28 27 10 3 23 31 29 8 7 4 15 11 16 9 19 33 1
c order 23 26 11 24 25 4 1 12 13 3 9 16 20 15 32 21 29 14 19 34 6 27 7 28 31 10 17 5 35 8 22 33 30 2 18
c order 21 28 11 32 4 18 23 34 17 26 30 10 25 29 1 12 20 16 9 6 15 3 35 13 7 33 31 14 22 8 2 19 24 27 5
c order 31 28 25 26 3 19 13 33 16 35 2 10 8 32 17 21 34 15 7 22 6 9 23 24 29 4 18 20 14 11 1 5 12 30 27
p cnf 35 147
7 6 -29 0
13 32 -7 0
12 29 -33 0
-4 -35 -19 0
26 -7 -29 0
18 1 -23 0
14 18 19 0
28 -23 -8 0
-33 11 13 0
2 -26 -31 0
-23 25 -15 0
33 8 31 0
-14 -28 31 0
-10 -27 -15 0
12 -10 -7 0
-14 30 -32 0
14 24 -5 0
-26 34 27 0
19 1 13 0
18 19 4 0
-34 -7 -18 0
3 13 -23 0
-18 15 -32 0
4 31 -11 0
-25 2 -27 0
-19 8 -29 0
-5 16 7 0
25 14 21 0
-8 3 -2 0
32 -28 -33 0
8 -19 -4 0
-30 22 19 0
18 20 -4 0
31 -33 -34 0
-25 21 -16 0
-23 14 -8 0
-34 25 -12 0
-26 -18 35 0
-5 29 27 0
-33 -10 18 0
-8 9 -5 0
25 34 -33 0
12 -28 -8 0
-8 26 -34 0
11 13 -8 0
12 28 -7 0
-17 -4 15 0
-32 26 -30 0
-1 -9 28 0
25 24 18 0
-22 33 8 0
11 8 -15 0
-21 25 15 0
-21 -28 -10 0
-31 3 29 0
-32 -7 26 0
2 -6 -1 0
11 23 25 0
-7 30 18 0
6 -14 31 0
13 34 -35 0
-21 35 -33 0
28 8 1 0
-13 -17 28 0
-10 -3 5 0
-1 -6 26 0
-24 14 17 0
-4 -2 -9 0
-10 -27 11 0
-18 15 14 0
-29 15 -12 0
-17 -29 -30 0
-28 -16 3 0
-32 -14 -16 0
-6 25 -30 0
14 28 7 0
-19 -30 -33 0
-30 5 -22 0
-23 -4 -34 0
-22 -32 7 0
-26 35 -23 0
6 -20 29 0
31 14 -33 0
28 33 -31 0
-5 -23 -14 0
6 -19 3 0
-34 -26 31 0
11 9 25 0
20 25 -27 0
-34 -32 8 0
27 26 -3 0
-25 -19 -7 0
-17 29 18 0
14 -23 -31 0
-2 -35 5 0
5 -10 19 0
-32 2 -22 0
14 -30 -4 0
-23 12 -28 0
27 -29 2 0
23 11 31 0
25 30 33 0
32 28 -13 0
-8 12 4 0
-14 -5 11 0
18 -29 28 0
19 26 -23 0
-14 35 -12 0
26 23 -21 0
-31 -7 18 0
3 -25 -28 0
15 -5 13 0
5 -14 -3 0
-22 -7 -25 0
5 27 14 0
-30 20 -17 0
-7 -10 27 0
-16 3 -1 0
18 21 22 0
-21 13 5 0
-28 15 -33 0
-13 3 -35 0
-20 -14 4 0
22 -13 32 0
-9 -10 -21 0
25 13 -12 0
-16 6 9 0
-30 -7 27 0
33 30 -16 0
16 8 17 0
2 -4 -33 0
15 8 24 0
-4 6 -15 0
-1 27 -34 0
-28 31 15 0
24 -35 29 0
25 -9 26 0
4 -19 -2 0
18 24 -32 0
-7 -18 21 0
-5 16 -21 0
-28 -10 12 0
2 29 -31 0
18 -34 12 0
33 -25 -11 0
-1 2 -23 0
-5 13 -27 0
