c family=3-SAT n=35 instance=0 seed=2573548008 models=132
c order 7 21 31 24 3 9 25 28 12 19 22 27 35 34 17 18 32 23 8 1 2 5 11 30 15 6 29 10 20 16 14 33 26 13 4
c order 24 30 4 8 12 22 14 21 26 2 16 32 9 5 6 35 23 11 17 13 19 28 33 25 27 7 10 15 31 20 1 29 34 18 3
c order 29 9 17 27 8 23 30 35 24 26 6 34 14 31 11 32 21 22 3 12 5 1 2 13 19 33 20 18 15 10 28 16 7 4 25
c order 7 30 35 18 33 6 15 24 28 31 10 9 1 21 29 11 17 5 2 22 3 26 23 8 13 12 16 32 27 4 14 20 25 19 34
c order 2 12 32 9 11 14 15 20 23 4 22 26 25 6 35 24 7 30 34 33 13 10 18 17 16 3 27 28 19 29 8 31 5 21 1
c order 32 2 29 1 5 3 31 17 13 11 12 8 16 35 7 25 4 27 22 14 33 20 30 15 18 21 23 34 6 26 19 24 10 28 9
c order 7 13 32 2 18 24 3 22 15 4 19 8 31 11 35 26 33 14 12 17 30 23 28 16 6 9 29 1 5 10 25 27 34 21 20
c order 26 14 17 32 35 31 21 30 27 28 11 9 29 6 3 33 2 1 23 34 15 12 25 16 22 19 4 13 20 7 8 5 10 24 18
c order 13 27 25 14 22 10 15 12 24 8 6 20 18 29 7 34 9 19 23 17 31 4 3 5 2 28 26 30 11 1 16 33 35 32 21
c order 28 7 8 13 18 33 34 3 12 10 15 20 6 14 27 30 24 9 26 16 17 32 21 4 23 2 35 19 1 31 22 25 11 29 5
p cnf 35 147
33 14 7 0
-17 19 -26 0
-11 -34 33 0
17 -5 8 0
-35 -24 -34 0
-16 15 26 0
13 -26 -34 0
-34 -35 -30 0
19 14 -4 0
3 -21 35 0
15 19 -32 0
-8 19 -18 0
-31 -1 24 0
12 1 -7 0
5 -28 18 0
27 -16 14 0
16 15 -23 0
28 26 35 0
34 -18 -30 0
-23 10 30 0
25 24 5 0
-13 -15 14 0
-23 4 -8 0
27 20 -34 0
29 7 28 0
28 23 12 0
-23 8 -35 0
2 9 -19 0
18 -20 -15 0
-32 -11 -29 0
-24 29 -6 0
-1 15 8 0
33 -7 -2 0
9 7 -5 0
-24 -18 -11 0
-28 -21 -25 0
-29 -20 -8 0
-1 34 27 0
-23 -26 15 0
24 -1 -3 0
-13 30 -25 0
-24 -35 6 0
-28 5 22 0
9 -35 -3 0
-2 14 -1 0
-26 -6 -8 0
14 -30 34 0
-15 -19 -26 0
-16 -28 19 0
-17 -2 -4 0
8 -13 -29 0
-20 9 34 0
-25 22 -19 0
5 -29 18 0
5 20 -10 0
13 -5 -2 0
-30 33 22 0
-11 -20 -2 0
-1 -35 -19 0
8 -35 -22 0
30 -29 23 0
3 -24 -4 0
-14 13 21 0
6 15 -17 0
-31 -13 33 0
-12 -9 -20 0
-29 -13 15 0
1 -21 -11 0
-30 23 -24 0
34 2 -5 0
-31 -27 -8 0
34 10 -32 0
20 22 -21 0
28 13 27 0
24 -8 -31 0
-5 -20 -6 0
25 21 -8 0
-34 -6 -30 0
31 32 -22 0
-25 -16 -27 0
-33 14 -3 0
-14 32 -1 0
-7 8 4 0
10 -20 -1 0
20 16 -35 0
21 14 -9 0
27 11 -33 0
-6 -1 2 0
16 21 10 0
11 6 34 0
-21 -29 -3 0
23 6 5 0
10 24 16 0
19 9 2 0
-20 23 8 0
-24 19 11 0
17 -34 -26 0
1 31 11 0
-18 9 6 0
17 -21 10 0
31 22 -25 0
18 -14 24 0
-21 -11 -23 0
5 23 12 0
7 4 19 0
-29 32 3 0
-32 20 -10 0
9 -11 -3 0
-3 -19 33 0
-21 -20 -11 0
16 -24 -28 0
-24 9 -32 0
17 19 7 0
16 33 19 0
14 21 -34 0
-2 -12 -5 0
-20 -28 32 0
28 -31 -12 0
-18 31 -6 0
16 -35 -17 0
-13 -20 -5 0
19 -6 7 0
23 8 -34 0
16 35 -1 0
-25 -12 22 0
3 -18 -10 0
-28 -29 10 0
-31 28 17 0
-30 -20 34 0
-1 -13 3 0
-19 21 22 0
23 -24 -3 0
34 -11 32 0
-9 -16 -20 0
22 -12 -16 0
-33 10 -5 0
-12 22 -23 0
-5 29 34 0
-30 -7 12 0
-23 3 -18 0
7 -29 9 0
-25 -2 9 0
8 -17 -5 0
-26 16 25 0
3 -21 -25 0
-35 32 31 0
32 -34 10 0
