c family=3-SAT n=35 instance=4 seed=2573548008 models=35
c order 5 17 26 19 21 4 28 3 34 13 8 18 22 23 30 6 33 29 14 25 10 31 15 7 9 11 2 27 1 24 35 32 16 12 20
c order 11 6 14 17 18 10 25 27 21 16 19 31 26 9 23 20 1 2 34 28 35 5 32 29 22 30 4 24 12 3 8 15 13 33 7
c order 3 16 30 33 22 10 21 19 27 12 6 8 25 28 11 32 4 31 20 29 5 26 24 17 15 2 23 1 34 7 14 35 9 18 13
c order 2 7 28 30 29 32 31 3 8 18 34 13 35 23 25 17 22 1 26 27 10 33 14 16 9 24 19 21 20 5 12 6 11 4 15
c order 16 11 30 34 3 33 15 14 7 5 20 23 10 17 2 35 25 9 28 27 4 24 29 18 6 26 1 21 19 31 22 8 12 32 13
c order 3 33 2 21 32 17 23 9 1 7 24 8 30 28 11 31 34 18 22 26 15 19 25 12 13 35 4 16 20 29 14 10 27 6 5
c order 3 18 16 24 27 26 11 2 22 28 33 25 17 12 10 29 14 8 23 1 7 15 13 30 4 20 35 6 32 34 5 21 9 31 19
c order 15 35 4 22 11 32 19 27 1 29 28 30 17 12 24 16 20 2 14 26 10 33 8 23 7 9 6 21 34 25 5 13 18 3 31
c order 3 4 26 14 27 15 30 19 25 34 35 10 33 16 7 12 28 21 17 22 23 29 18 13 5 32 6 2 9 31 20 24 1 11 8
c order 1 2 31 35 18 32 16 4 10 14 13 5 26 23 12 19 3 21 15 27 33 30 29 22 11 34 8 28 25 9 6 24 20 17 7
p cnf 35 147
-30 7 16 0
10 17 -32 0
-5 18 -19 0
3 1 11 0
-33 12 3 0
25 1 33 0
-29 13 31 0
-8 -35 2 0
-33 -1 30 0
-11 -12 -18 0
-25 -12 11 0
28 19 -34 0
-32 -27 -13 0
-9 10 8 0
26 18 8 0
23 -3 28 0
-6 -19 5 0
-22 -31 -12 0
31 2 23 0
15 -11 -19 0
8 -10 -5 0
29 -14 -10 0
22 -1 -2 0
30 26 -25 0
18 34 -29 0
2 -9 23 0
-20 7 -19 0
21 7 18 0
-27 -11 -3 0
32 5 -20 0
31 19 3 0
-30 11 25 0
32 3 28 0
-26 -7 24 0
25 31 -2 0
19 2 30 0
5 26 -22 0
-4 11 2 0
11 -14 -23 0
17 9 27 0
26 16 -33 0
31 17 -22 0
-2 -18 8 0
9 26 12 0
-27 -3 5 0
-21 -11 -34 0
27 5 -15 0
-29 -20 -32 0
32 -9 3 0
-16 5 17 0
21 18 32 0
-24 15 16 0
-17 5 11 0
-1 -23 -22 0
30 -16 35 0
33 4 -14 0
4 -19 14 0
19 15 32 0
-5 23 33 0
31 17 -3 0
3 -9 -13 0
26 2 -5 0
-16 21 -26 0
-10 27 -15 0
3 31 24 0
-35 -30 -9 0
14 10 -23 0
18 -25 26 0
-25 -19 8 0
18 14 29 0
-31 -7 25 0
24 30 33 0
-7 -12 -34 0
17 31 -23 0
-8 21 -25 0
6 -21 20 0
-21 25 -4 0
-20 6 11 0
-35 9 -33 0
-25 -34 18 0
-8 23 33 0
33 -26 3 0
31 -4 -12 0
15 35 -14 0
27 -1 24 0
-3 26 -19 0
-23 2 -28 0
12 14 25 0
-7 19 -11 0
-22 6 -5 0
17 9 34 0
28 -17 27 0
14 22 26 0
-7 22 15 0
16 33 22 0
-20 -26 18 0
33 2 -20 0
31 -34 -3 0
-20 -17 10 0
5 18 19 0
-14 21 -34 0
-11 6 -8 0
-35 2 -12 0
32 -7 -35 0
-20 2 26 0
-7 -27 -33 0
29 -27 2 0
-15 34 35 0
22 31 -9 0
14 -1 -13 0
28 13 -31 0
12 -34 -7 0
29 -24 -33 0
-3 -5 -4 0
29 -26 25 0
10 30 -24 0
-30 -4 -29 0
-25 4 34 0
32 -22 -8 0
-19 -7 -35 0
-29 -7 15 0
-7 -24 -18 0
25 -2 18 0
1 -17 -20 0
-4 -30 18 0
24 -8 23 0
32 -8 -17 0
-16 -14 -6 0
-5 -13 -26 0
-28 -5 21 0
-13 -21 8 0
9 20 21 0
-15 17 -27 0
-28 -10 1 0
-32 29 -15 0
22 33 10 0
10 3 -5 0
-29 32 -31 0
-29 -20 33 0
8 -5 13 0
-5 -14 19 0
20 -10 15 0
-33 35 -15 0
-2 -35 17 0
-14 30 -3 0
29 34 -1 0
32 -34 -3 0
