c family=3-SAT n=40 instance=7 seed=2573548008 models=118
c order 14 16 30 31 5 19 8 29 4 18 25 28 2 27 15 24 37 23 34 9 26 40 11 22 32 38 6 13 21 17 1 12 10 3 20 36 7 35 39 33
c order 22 40 24 7 1 17 10 35 11 5 25 26 15 29 20 31 23 13 2 34 38 28 32 33 36 14 39 30 18 3 21 19 12 8 27 37 6 9 4 16
c order 19 8 11 29 6 10 28 4 25 18 21 30 13 33 23 14 27 37 31 35 26 5 2 32 39 36 1 20 15 17 22 7 9 3 16 24 12 40 38 34
c order 19 9 12 6 4 28 34 39 21 17 3 37 35 2 15 36 16 5 7 38 26 33 24 31 30 11 22 8 20 1 27 10 32 14 18 29 40 23 25 13
c order 26 32 37 6 14 20 28 9 17 3 31 16 1 15 40 19 33 8 21 12 24 27 10 39 7 5 30 18 22 13 36 4 2 25 29 35 38 11 23 34
c order 33 9 17 28 34 29 8 18 39 27 11 4 31 20 1 19 22 40 35 6 25 16 2 13 32 26 24 36 5 3 10 14 37 38 7 15 21 23 30 12
c order 26 27 31 6 10 19 28 25 13 11 16 37 23 3 2 29 40 38 24 17 22 4 30 12 20 39 33 8 21 14 35 32 15 36 34 7 9 5 1 18
c order 21 27 33 40 38 26 2 7 18 14 28 19 3 16 36 4 17 1 37 5 32 31 23 20 10 11 25 29 12 35 15 6 13 8 22 39 24 30 34 9
c order 20 16 40 26 8 28 5 2 10 34 12 21 11 18 23 1 3 38 30 39 29 24 14 37 17 36 9 15 32 13 27 7 25 6 31 4 19 22 35 33
c order 10 17 30 4 7 29 33 31 26 38 34 11 9 25 5 22 15 19 23 12 21 36 1 37 20 14 39 13 28 2 32 40 8 18 3 35 6 24 16 27
p cnf 40 168
4 30 -34 0
38 -17 23 0
9 -5 36 0
30 9 21 0
28 -19 -21 0
31 4 -15 0
-26 -34 -14 0
-23 -2 -3 0
-16 9 18 0
-28 -21 -4 0
28 -3 -36 0
25 -35 -7 0
-38 35 15 0
-36 21 11 0
-16 -5 33 0
-18 15 -33 0
-12 20 33 0
-19 4 -8 0
-35 -4 -9 0
-7 6 -31 0
3 21 -38 0
14 23 31 0
7 24 23 0
-19 11 40 0
-30 -7 1 0
2 -40 28 0
-15 11 33 0
37 3 -39 0
32 -34 -17 0
18 21 -32 0
-40 -34 10 0
31 20 3 0
-18 -37 -12 0
-40 -38 -9 0
-3 -2 -29 0
-22 -30 13 0
37 2 -20 0
-12 -31 39 0
-36 -12 -19 0
5 -20 -16 0
-20 32 10 0
25 -31 5 0
-26 -19 15 0
-25 9 40 0
-16 -7 -30 0
16 -9 37 0
3 -33 16 0
38 -19 11 0
13 -14 27 0
25 -38 -10 0
21 32 22 0
-28 -35 -7 0
-40 -32 -16 0
-4 19 -37 0
-14 -25 -26 0
-25 -35 -3 0
-20 13 33 0
-4 15 29 0
30 -32 -22 0
9 22 39 0
-30 19 3 0
-30 -11 40 0
-22 18 24 0
-21 26 -4 0
-32 40 -16 0
27 1 -16 0
-32 14 -13 0
27 -35 4 0
8 -35 -22 0
-31 -2 -33 0
-34 33 31 0
-33 10 7 0
40 -39 -11 0
-1 15 -30 0
15 -24 7 0
-7 28 39 0
6 -17 -24 0
-24 9 -23 0
34 -38 -3 0
-17 6 -12 0
24 -26 34 0
-39 -32 -10 0
-18 -20 15 0
14 -4 -7 0
15 -5 -29 0
-21 -32 -18 0
36 35 33 0
27 29 -36 0
-28 -31 -18 0
11 -9 -32 0
-18 -2 -37 0
20 1 18 0
40 -10 -9 0
28 -25 6 0
15 14 35 0
26 -27 -23 0
-13 -37 27 0
-38 11 17 0
24 -8 -40 0
-29 20 -37 0
33 7 -16 0
1 -20 -40 0
24 -20 -19 0
-14 31 -28 0
27 6 8 0
14 25 19 0
-34 39 3 0
-39 -8 -15 0
-1 -35 19 0
8 -4 -27 0
6 1 37 0
-36 -8 -7 0
25 17 11 0
34 14 18 0
2 -39 3 0
-31 10 -1 0
-32 -40 -28 0
-28 -25 2 0
-38 20 -26 0
-34 -11 31 0
-17 -25 -21 0
11 -33 35 0
1 37 -2 0
13 -9 16 0
7 2 12 0
-34 33 -13 0
-38 -23 18 0
-24 7 -39 0
26 1 32 0
22 -39 7 0
-2 6 -40 0
-9 26 -17 0
-28 -36 -15 0
-35 -1 -23 0
-28 -9 -29 0
24 31 -38 0
16 -9 30 0
14 -21 24 0
7 -21 11 0
21 -38 -8 0
15 -20 -18 0
22 32 18 0
30 23 -7 0
-34 35 36 0
20 -9 34 0
36 24 15 0
28 -8 -40 0
40 -19 16 0
-27 -18 9 0
6 37 30 0
-22 -35 9 0
23 -27 13 0
37 40 -27 0
-6 30 -25 0
-28 19 -30 0
-27 -40 35 0
-31 -9 -13 0
6 -39 9 0
-19 10 -39 0
13 -15 23 0
-26 36 22 0
40 16 -10 0
1 2 38 0
1 -38 11 0
15 -2 -9 0
-33 -21 19 0
-19 -2 -22 0
29 9 -11 0
