c family=3-SAT n=40 instance=9 seed=2573548008 models=222
c order 35 37 36 24 19 28 13 12 10 29 40 20 16 2 9 8 5 31 1 22 14 34 33 23 4 7 6 11 30 26 15 3 27 39 25 18 21 32 38 17
c order 14 10 18 5 33 32 6 29 39 30 20 7 16 37 23 19 34 3 25 17 26 4 28 9 27 35 24 40 22 15 38 36 8 11 13 21 2 1 12 31
c order 20 31 5 17 38 34 40 23 16 18 10 1 9 25 36 33 6 32 14 4 2 29 11 26 37 15 24 27 13 12 35 22 30 7 28 39 8 3 19 21
c order 18 10 38 35 9 6 24 37 7 8 12 20 28 22 19 5 17 36 15 29 27 11 16 31 4 3 13 2 30 26 32 39 25 33 14 34 23 1 21 40
c order 27 18 35 37 30 28 10 22 14 15 38 4 21 3 5 20 23 9 40 33 7 36 6 31 26 32 17 29 8 13 2 19 39 12 25 24 11 34 16 1
c order 25 13 33 30 1 38 9 5 11 26 7 20 4 27 40 16 3 22 14 6 10 29 39 2 12 37 17 32 21 8 28 36 24 19 35 23 15 34 18 31
c order 28 33 9 13 11 16 31 2 1 14 7 37 24 30 8 12 18 21 36 22 39 32 23 27 3 20 25 29 19 17 6 26 34 35 4 10 40 15 38 5
c order 37 18 25 9 27 23 4 21 33 12 5 36 40 7 11 39 31 6 22 15 26 2 19 13 17 14 30 35 38 34 1 32 8 28 16 20 3 24 10 29
c order 36 19 12 26 30 8 38 39 14 22 34 1 16 37 17 6 10 7 28 18 13 9 29 40 3 35 32 33 25 31 27 21 4 15 2 11 23 20 5 24
c order 18 26 28 35 37 11 31 34 14 30 12 17 22 7 25 40 20 10 38 3 13 39 23 33 27 29 8 19 2 9 36 21 15 32 1 6 5 24 16 4
p cnf 40 168
-36 -15 -21 0
-2 -31 -26 0
-16 -40 -29 0
-1 12 11 0
3 -14 -17 0
31 14 -37 0
-24 30 22 0
-14 -11 -33 0
-40 -25 22 0
-32 16 9 0
24 11 6 0
36 -32 -12 0
3 -26 -18 0
9 35 33 0
-33 -2 36 0
26 -34 18 0
34 6 9 0
-8 32 27 0
-7 -13 -37 0
32 38 10 0
35 22 -2 0
16 -31 19 0
11 -8 -7 0
33 12 -13 0
-6 40 -27 0
-25 -6 26 0
21 -3 35 0
38 -34 -39 0
26 9 -12 0
-6 -23 26 0
14 38 6 0
-14 -26 -6 0
-8 -21 36 0
19 2 -37 0
-26 -21 -38 0
40 -2 -39 0
-40 1 -39 0
40 16 -5 0
-30 -18 -16 0
-37 -11 40 0
10 5 -4 0
-6 4 -38 0
-20 8 12 0
-35 27 12 0
-9 27 21 0
38 39 -33 0
3 -31 6 0
35 8 27 0
38 9 3 0
-27 -9 33 0
30 27 -6 0
-29 -9 32 0
22 2 -35 0
-32 -24 35 0
-25 31 -28 0
-21 -29 9 0
-17 21 -33 0
-11 -28 -15 0
17 14 -7 0
10 7 -27 0
-10 -19 -9 0
-24 30 -7 0
19 2 16 0
32 -12 40 0
1 12 40 0
-13 -28 -17 0
-13 -35 28 0
-36 -1 19 0
-23 -7 11 0
9 32 23 0
-9 1 -40 0
-28 -12 -25 0
-16 4 -9 0
32 -31 -21 0
-6 -38 9 0
7 19 40 0
17 3 -6 0
7 25 32 0
33 23 -30 0
13 -25 8 0
-15 24 -8 0
-27 40 23 0
-1 -12 -20 0
-38 35 1 0
-37 -2 -35 0
19 18 -31 0
-30 -25 -33 0
6 -19 -31 0
14 38 -18 0
-24 18 -11 0
-1 36 -24 0
39 20 -8 0
10 9 -19 0
36 -32 -15 0
5 23 17 0
32 27 -17 0
25 -11 -5 0
38 3 -16 0
-13 -38 -27 0
-16 -37 1 0
29 -35 18 0
-6 12 34 0
-6 -10 17 0
37 1 -10 0
11 5 9 0
11 10 -1 0
6 14 -30 0
-32 24 -26 0
30 3 -37 0
12 35 22 0
39 -10 -36 0
25 -15 -5 0
-33 12 37 0
3 29 -2 0
-2 -22 26 0
40 1 -31 0
-23 19 -29 0
-10 21 -18 0
-40 35 -4 0
30 -1 34 0
-17 24 30 0
21 5 27 0
11 -29 -15 0
11 4 12 0
19 12 -26 0
-31 -11 30 0
23 24 -16 0
22 13 -32 0
39 -5 33 0
-39 -35 -15 0
-37 1 -36 0
-23 20 -32 0
15 -25 -29 0
-26 10 22 0
8 12 16 0
-23 -32 -27 0
26 -18 19 0
-2 39 -15 0
-7 22 3 0
-36 -31 -37 0
16 -23 -25 0
-3 13 -39 0
-20 -9 -3 0
-29 36 -40 0
2 22 30 0
38 -19 2 0
28 20 -5 0
-3 17 15 0
26 -37 15 0
4 -24 14 0
-16 -3 27 0
3 -4 24 0
34 32 -14 0
-20 -39 28 0
-37 6 12 0
7 15 26 0
25 22 -20 0
12 -22 -19 0
4 -39 12 0
-30 2 -29 0
-24 30 -31 0
-33 -12 -35 0
38 -16 17 0
28 -21 -8 0
-17 -12 11 0
-20 32 23 0
21 -8 25 0
-32 -30 -10 0
