c family=3-SAT n=40 instance=3 seed=2573548008 models=97
c order 38 23 29 28 8 16 22 9 36 30 11 26 10 13 34 5 35 25 24 40 37 20 39 14 18 7 12 1 19 3 4 15 33 2 6 32 21 27 17 31
c order 18 4 32 36 31 30 40 39 3 27 24 29 12 19 21 25 15 2 34 26 20 38 5 37 23 11 13 14 35 8 10 7 16 33 1 9 17 22 6 28
c order 8 33 36 39 26 22 5 13 1 3 30 40 37 12 2 14 29 20 32 4 24 11 35 27 15 21 25 31 9 17 7 38 16 18 23 19 10 34 6 28
c order 30 11 40 25 15 31 12 33 39 24 21 17 3 2 27 38 5 19 16 4 9 29 37 35 32 8 22 28 10 20 23 18 26 7 13 34 1 36 14 6
c order 9 29 24 17 34 25 23 22 33 31 14 32 11 21 40 36 30 4 7 1 27 28 38 2 8 15 12 3 26 39 16 6 37 20 18 13 5 35 10 19
c order 26 7 12 13 22 27 25 3 9 36 6 29 39 17 23 18 16 5 21 35 11 15 2 37 1 34 31 40 24 14 10 30 19 4 20 33 32 28 38 8
c order 19 34 12 15 18 26 28 22 37 23 10 38 27 39 32 21 4 5 40 24 3 31 9 1 17 33 36 2 11 20 6 14 13 29 30 35 25 8 16 7
c order 29 12 20 15 22 28 13 3 39 18 11 30 34 17 1 24 6 37 23 2 31 40 27 32 35 8 5 19 7 10 9 33 21 4 36 26 25 14 38 16
c order 10 13 5 1 21 36 6 2 11 3 19 22 26 38 8 32 34 20 15 16 12 27 28 25 33 37 9 4 39 23 14 24 31 29 7 17 30 40 18 35
c order 40 18 33 21 25 35 4 15 8 27 23 5 19 32 38 3 14 16 37 28 39 6 36 26 31 13 11 2 24 1 12 30 10 7 17 29 9 34 20 22
p cnf 40 168
2 9 32 0
-7 8 5 0
-14 -36 15 0
9 -14 16 0
36 31 -16 0
34 31 -2 0
28 2 39 0
25 -26 -13 0
-29 -6 -19 0
-3 38 15 0
9 -5 -38 0
10 -17 -22 0
-18 -15 -37 0
29 -37 2 0
-30 24 13 0
-15 22 -36 0
32 22 -30 0
-30 -33 -19 0
-36 -5 -25 0
-39 29 8 0
29 -26 -1 0
18 -39 -15 0
13 36 -11 0
26 32 30 0
39 15 10 0
-27 29 -26 0
32 20 23 0
-21 -29 -16 0
-36 9 23 0
-32 34 -36 0
-35 31 27 0
3 -36 14 0
-13 -40 -11 0
-14 1 -7 0
-17 13 11 0
9 -1 19 0
23 -17 -22 0
-22 -23 33 0
-15 -4 -9 0
2 3 -23 0
-39 1 -10 0
-2 36 16 0
1 35 22 0
-21 -12 -8 0
9 2 27 0
4 29 35 0
39 -6 -14 0
-16 31 -30 0
34 12 35 0
-30 -17 18 0
20 38 33 0
-2 11 21 0
16 17 -22 0
30 -16 -37 0
-40 -13 -11 0
29 2 -39 0
20 34 -8 0
-7 19 -22 0
-19 20 -2 0
27 -6 -24 0
-28 -35 -34 0
-6 -18 28 0
25 35 -18 0
-6 -26 -40 0
-31 27 17 0
24 -23 -6 0
-18 20 -14 0
-7 20 23 0
-23 -8 -21 0
-14 -33 -31 0
-27 1 -38 0
31 -39 -16 0
26 -6 14 0
-6 -5 -22 0
-18 -25 -7 0
-38 -3 7 0
-21 -17 -31 0
1 -10 21 0
-37 17 6 0
-7 13 20 0
-24 32 21 0
21 36 -2 0
-15 -18 17 0
15 -13 16 0
-18 -31 23 0
16 9 2 0
-10 -17 -12 0
30 -34 32 0
6 8 32 0
-28 -6 35 0
-12 -9 -16 0
13 20 14 0
-36 26 -33 0
1 16 26 0
30 36 25 0
-27 13 -10 0
25 -36 9 0
9 -33 -7 0
-31 25 30 0
-37 -10 19 0
30 -1 5 0
7 6 37 0
15 7 8 0
31 -9 12 0
29 -40 13 0
-25 10 35 0
-7 12 -2 0
12 8 35 0
6 14 25 0
19 -18 -22 0
-37 12 2 0
6 -27 36 0
-17 -27 -40 0
16 29 6 0
15 24 -21 0
-2 -15 -28 0
-4 -32 13 0
-6 -7 -11 0
3 4 -28 0
15 3 36 0
-6 26 -5 0
-35 29 -12 0
32 33 -10 0
34 -18 36 0
8 -35 40 0
34 -9 -1 0
5 7 -9 0
13 19 27 0
-24 -28 10 0
34 18 3 0
13 -12 7 0
22 36 17 0
4 14 -5 0
-37 -27 12 0
-29 -37 16 0
-7 36 5 0
-25 30 20 0
18 11 -33 0
9 -28 -6 0
14 -32 -22 0
24 -16 8 0
-33 -9 6 0
-27 38 14 0
20 -15 7 0
29 28 3 0
-1 31 12 0
-13 36 6 0
25 22 5 0
-39 4 -9 0
-18 -6 -20 0
20 -16 9 0
16 -21 32 0
-37 19 -30 0
35 -18 34 0
25 -7 -2 0
32 -10 -36 0
-31 -27 -26 0
35 29 3 0
-28 34 -16 0
-27 32 -23 0
-15 -31 6 0
3 -19 -25 0
10 -25 -26 0
-39 17 19 0
15 20 -16 0
6 -10 -8 0
37 28 25 0
2 -38 -18 0
