c family=3-SAT n=40 instance=0 seed=2573548008 models=30
c order 7 21 30 35 10 36 9 20 26 6 3 39 17 34 33 23 18 19 16 13 1 4 25 31 12 11 32 40 37 8 29 38 5 24 22 14 15 28 2 27
c order 4 17 28 39 21 19 23 6 30 40 7 11 38 3 14 37 18 22 34 32 2 36 1 31 26 5 12 20 24 29 9 25 35 8 13 33 16 15 27 10
c order 10 7 37 38 29 32 26 31 22 34 1 16 11 5 2 19 14 27 6 17 30 12 36 15 40 39 28 20 35 33 9 18 13 4 25 24 23 8 21 3
c order 18 34 8 5 40 4 38 35 37 12 22 21 11 36 24 16 31 1 32 6 10 25 3 15 13 2 14 33 30 20 17 28 29 19 27 26 9 7 39 23
c order 20 23 30 9 22 28 3 25 24 17 26 38 4 19 29 35 36 14 11 2 5 12 33 13 16 27 8 31 21 10 32 39 34 40 6 18 37 1 15 7
c order 10 28 8 19 4 33 7 36 5 12 26 17 40 9 1 22 13 15 21 2 16 23 6 32 24 18 37 30 34 29 35 38 39 11 25 27 3 31 14 20
c order 27 2 26 7 5 12 31 18 33 39 30 14 23 29 28 6 38 24 10 22 32 8 21 40 17 3 36 16 15 25 37 34 1 9 11 4 20 13 19 35
c order 29 40 32 17 2 4 13 38 15 23 34 3 28 18 33 6 21 35 16 31 27 37 36 24 39 8 9 10 30 25 26 19 22 5 11 12 20 7 14 1
c order 2 33 21 6 4 27 22 7 39 24 31 38 32 35 23 17 13 19 37 34 28 3 18 9 29 25 12 1 15 10 36 20 16 11 14 8 40 5 26 30
c order 38 6 35 31 10 15 16 29 13 21 18 33 17 19 25 27 37 8 20 9 7 26 4 36 2 11 5 3 12 24 34 14 40 22 30 28 1 23 39 32
p cnf 40 168
27 19 -18 0
-17 31 14 0
25 -30 -7 0
12 7 37 0
-27 6 -28 0
23 -31 15 0
-5 8 -30 0
-23 17 24 0
-22 35 -27 0
-21 -11 8 0
36 -4 -9 0
-38 -2 -6 0
26 -36 -34 0
21 40 34 0
-22 13 -10 0
-31 37 -28 0
24 27 -6 0
15 7 -4 0
-20 -24 -10 0
-35 25 4 0
-7 34 2 0
-27 -32 -34 0
39 35 15 0
24 20 -14 0
38 -21 -31 0
38 5 -10 0
-19 -4 -30 0
-10 -16 1 0
-1 -21 -22 0
-6 -27 11 0
38 -6 -36 0
5 -31 -32 0
12 -38 -15 0
-12 -3 -29 0
-3 -10 1 0
-10 -6 24 0
-4 -6 36 0
-35 37 -6 0
26 -13 29 0
23 -17 2 0
-24 7 -28 0
36 32 -24 0
-37 28 -18 0
-18 -26 5 0
-35 -34 -8 0
-12 -38 -18 0
14 -26 9 0
-23 -30 -8 0
38 1 -4 0
-30 -13 5 0
7 2 -39 0
-3 10 -35 0
28 18 -27 0
-27 3 -16 0
37 -32 24 0
5 26 -3 0
-15 -3 -20 0
-32 39 -25 0
-15 25 -11 0
14 -8 -37 0
-33 -28 13 0
-27 1 15 0
-39 -20 -37 0
23 39 14 0
-8 -40 16 0
-1 9 -22 0
-21 -12 10 0
-23 29 -19 0
-37 5 9 0
10 -7 -26 0
1 -15 -27 0
20 40 26 0
40 30 25 0
-35 -15 -33 0
-29 5 -2 0
5 14 -4 0
-21 24 -26 0
33 21 9 0
38 -9 37 0
2 6 13 0
-30 6 2 0
-24 32 22 0
23 -22 36 0
18 13 16 0
18 -37 35 0
36 -23 -9 0
6 -20 10 0
25 6 -10 0
-38 37 -3 0
24 -32 -13 0
-21 38 12 0
-25 -13 9 0
-35 5 -15 0
30 36 -3 0
19 7 -30 0
3 9 -22 0
-10 26 -5 0
5 -4 -15 0
26 31 32 0
-16 25 37 0
-26 20 -35 0
-23 -40 27 0
-12 -4 -36 0
1 27 33 0
10 -15 14 0
24 18 -9 0
-19 -8 -21 0
-26 -39 -28 0
13 -23 9 0
21 28 -35 0
36 -9 -23 0
-13 18 -35 0
-8 35 -23 0
6 -31 -38 0
-24 -12 37 0
4 3 -34 0
35 -38 11 0
2 23 -24 0
34 -28 4 0
2 -36 20 0
29 1 -34 0
4 -13 -25 0
20 -29 -36 0
36 -11 -18 0
-9 -34 15 0
-4 2 -23 0
23 29 8 0
40 -16 24 0
-39 -26 -19 0
-8 12 18 0
-27 36 13 0
29 19 25 0
20 3 6 0
-5 7 -14 0
-38 8 39 0
24 11 -13 0
-3 -18 33 0
-21 -26 -20 0
28 18 -37 0
-25 20 39 0
18 14 10 0
-34 38 27 0
14 -19 39 0
16 -37 -12 0
-30 -26 31 0
-2 15 7 0
34 -2 -29 0
-26 34 -36 0
-27 -8 24 0
-39 15 32 0
-32 31 23 0
27 -1 36 0
32 14 4 0
2 -14 18 0
10 33 1 0
-30 6 36 0
-19 -31 16 0
-7 -29 4 0
13 22 14 0
34 -9 16 0
20 -31 -14 0
-35 33 25 0
-6 10 3 0
-25 -21 -36 0
4 22 -13 0
-17 -1 -11 0
-38 22 20 0
4 -36 5 0
