c family=3-SAT n=40 instance=8 seed=2573548008 models=68
c order 25 18 33 3 40 21 14 26 20 23 30 17 24 29 28 22 13 32 2 16 4 15 39 34 11 1 5 12 27 37 38 8 35 36 31 9 19 7 10 6
c order 20 23 12 34 38 1 2 40 8 31 16 33 7 13 35 18 37 22 25 19 29 14 28 24 30 5 3 27 6 36 10 11 4 32 39 9 17 26 15 21
c order 1 25 22 23 36 14 6 21 2 26 19 7 32 37 30 17 5 33 31 3 12 8 20 4 40 10 9 29 11 24 13 15 16 35 27 28 39 34 38 18
c order 3 38 2 37 7 25 4 20 17 30 31 8 6 15 26 9 10 19 33 39 1 18 27 22 40 14 16 32 34 23 35 24 13 21 11 5 28 36 12 29
c order 18 22 2 23 24 29 11 28 9 20 5 1 12 31 32 21 39 8 37 15 34 7 3 35 25 27 19 14 13 17 10 6 16 36 40 30 4 26 38 33
c order 32 22 7 30 8 26 11 38 17 3 19 1 13 27 12 39 18 31 29 10 20 4 24 37 34 9 15 6 23 35 14 21 16 2 33 5 36 40 28 25
c order 28 3 6 15 31 25 23 5 19 1 33 14 16 38 18 11 2 27 37 20 7 21 12 9 17 32 34 30 29 4 40 22 35 36 13 26 39 10 8 24
c order 39 32 18 4 7 34 6 27 17 24 10 14 5 21 15 28 11 38 37 3 31 19 36 8 2 23 1 20 13 16 12 40 26 29 22 9 33 30 25 35
c order 15 22 23 26 2 9 29 37 32 20 39 12 25 13 27 33 28 35 31 7 38 24 34 40 19 10 14 11 30 3 21 18 4 8 17 16 36 5 1 6
c order 15 29 6 36 24 22 8 3 18 19 30 23 16 32 9 5 40 34 37 21 27 13 11 20 2 26 17 38 7 28 10 12 33 14 1 4 35 25 39 31
p cnf 40 168
32 -39 37 0
6 1 -13 0
-36 29 -10 0
-14 -39 -22 0
9 14 -31 0
-16 8 -17 0
-15 -33 -17 0
-27 -31 13 0
13 -35 14 0
17 -10 21 0
-5 14 -10 0
20 -4 37 0
3 39 -10 0
-38 34 -32 0
7 -14 -30 0
35 28 -15 0
-12 -20 14 0
-2 -10 35 0
31 14 -39 0
6 22 35 0
-19 18 -27 0
-10 21 -27 0
-39 -38 28 0
12 3 39 0
-1 -17 -10 0
-24 -1 35 0
3 -9 12 0
6 9 -15 0
11 -19 24 0
-39 8 36 0
-14 31 23 0
-16 -8 -25 0
-36 29 16 0
-1 -36 -9 0
31 10 13 0
-16 26 -18 0
19 28 5 0
-37 39 -21 0
20 -11 15 0
-14 39 35 0
-13 -29 -35 0
-9 32 -18 0
-14 -30 26 0
-23 -2 40 0
-19 2 15 0
-16 -14 -10 0
29 -22 8 0
33 -3 11 0
-28 2 10 0
32 -33 34 0
-26 -21 40 0
-22 30 -31 0
-28 -25 3 0
38 -31 15 0
-34 5 17 0
-15 1 34 0
39 13 25 0
16 -5 -12 0
13 -34 -7 0
-19 34 -32 0
-35 -10 -37 0
-1 24 13 0
-9 -14 -36 0
16 -19 -26 0
20 14 -36 0
40 31 -1 0
-35 -16 -28 0
18 -5 -7 0
11 27 -15 0
-13 -38 -33 0
18 -28 2 0
30 -21 36 0
23 -34 -31 0
-4 -31 18 0
25 20 3 0
37 14 5 0
-37 1 22 0
-31 -3 -13 0
18 10 -11 0
6 30 -40 0
-34 2 -7 0
34 -21 -29 0
7 15 -40 0
-34 -18 -39 0
-6 8 -33 0
-14 35 18 0
20 2 16 0
-9 -25 19 0
-34 -20 -10 0
-5 31 38 0
-16 -8 -10 0
-8 38 30 0
-28 18 9 0
4 10 14 0
-15 25 1 0
-3 -33 -10 0
37 5 -32 0
-12 2 28 0
30 -36 17 0
-36 -9 24 0
-17 -21 -10 0
21 -28 26 0
25 -13 37 0
-8 1 9 0
35 8 -27 0
37 -16 -33 0
-2 16 21 0
-6 11 -36 0
-36 19 -38 0
-37 -26 15 0
1 13 5 0
39 17 -4 0
28 -2 5 0
12 -2 38 0
-32 29 27 0
40 -7 -30 0
12 20 7 0
-27 -17 30 0
20 -6 -10 0
37 2 -24 0
-19 -35 1 0
-24 -40 -33 0
-26 -19 4 0
-16 31 3 0
-36 12 -35 0
-18 -34 -21 0
14 -7 -16 0
-37 -24 -20 0
-32 -17 33 0
-38 37 33 0
28 32 5 0
-26 6 19 0
-20 30 -31 0
-24 -17 -20 0
-31 27 -1 0
19 -3 -23 0
6 -39 18 0
13 32 9 0
-17 1 -20 0
-36 -18 -6 0
38 40 3 0
-2 33 29 0
6 -34 24 0
-6 -26 27 0
-15 -13 -39 0
-20 -37 -33 0
23 40 -39 0
16 1 -6 0
1 -17 -12 0
-11 38 -16 0
-31 -23 11 0
-11 -6 17 0
13 -39 9 0
-13 23 -35 0
-27 7 -12 0
-2 36 -8 0
-38 -30 28 0
-31 -39 -3 0
-32 -39 1 0
-37 -2 -14 0
-19 -31 34 0
-36 35 38 0
4 -38 17 0
19 -33 -4 0
19 -21 7 0
13 22 -6 0
17 -33 -29 0
-30 -26 -35 0
