c family=3-SAT n=40 instance=1 seed=2573548008 models=4
c order 25 13 9 28 37 3 39 6 35 29 22 8 15 32 34 21 31 30 17 33 20 40 2 16 14 23 24 18 11 10 1 7 26 4 5 19 36 27 38 12
c order 28 7 6 14 2 35 19 1 40 12 16 26 23 36 31 30 4 18 21 8 34 15 13 27 3 38 17 11 32 9 33 5 10 37 24 29 39 25 22 20
c order 19 35 7 4 22 2 30 1 40 25 29 33 10 12 5 26 38 9 39 17 32 3 6 21 24 20 34 28 31 14 18 13 8 37 23 36 16 15 11 27
c order 10 3 38 14 29 23 6 31 20 9 39 22 2 24 40 26 37 11 19 21 18 32 13 16 5 35 15 33 17 30 1 36 12 4 25 7 8 27 34 28
c order 2 17 11 36 31 1 32 10 12 19 34 7 30 33 16 37 26 15 8 6 35 23 13 4 21 24 38 25 18 40 5 14 29 22 39 3 27 28 9 20
c order 9 4 18 36 6 39 29 28 11 22 3 35 12 33 15 40 14 30 23 16 25 34 26 21 1 10 19 31 8 17 2 5 38 32 24 13 7 20 27 37
c order 39 30 7 12 5 20 37 34 4 40 25 21 38 32 1 8 35 27 2 11 26 19 14 15 24 29 3 22 13 10 6 18 31 33 23 17 28 16 9 36
c order 24 7 27 1 29 20 5 4 14 40 39 30 2 26 17 10 21 31 12 13 6 15 35 34 3 28 9 37 11 16 33 18 23 22 19 38 36 8 32 25
c order 13 37 29 21 33 11 17 8 14 10 34 4 1 31 16 5 32 36 19 24 3 20 9 35 25 12 40 18 26 27 38 30 22 39 23 7 15 6 2 28
c order 25 14 32 36 3 1 40 39 27 24 19 12 4 7 20 22 23 17 35 6 10 15 5 26 16 13 30 2 34 33 29 38 9 11 28 21 18 37 8 31
p cnf 40 168
12 38 34 0
19 -21 -17 0
-32 38 29 0
-13 24 -11 0
4 -20 -21 0
-26 38 8 0
35 8 -1 0
6 -3 5 0
3 31 35 0
-24 38 -16 0
-22 -34 23 0
39 30 -25 0
5 15 30 0
-32 16 15 0
37 -5 -35 0
21 -13 8 0
-36 -31 -37 0
-9 -23 34 0
32 -35 -5 0
-34 17 -8 0
-32 34 31 0
-12 26 24 0
28 11 -14 0
-27 7 -16 0
-17 35 -36 0
12 20 37 0
-14 -31 -21 0
-7 -35 -13 0
12 -11 -21 0
-33 -7 32 0
-26 9 24 0
32 33 -7 0
24 -37 -5 0
-34 14 39 0
-35 18 7 0
-8 -15 11 0
-29 23 27 0
-3 -4 -15 0
3 7 20 0
-38 8 30 0
-31 -5 -7 0
20 -18 36 0
-22 25 35 0
-39 21 -4 0
-10 14 -38 0
-27 9 -22 0
17 -33 -5 0
-40 39 -10 0
15 -5 34 0
1 5 25 0
21 -20 26 0
15 12 1 0
-31 35 -18 0
-22 28 -21 0
17 13 -34 0
24 -12 -34 0
-28 1 -14 0
1 21 -2 0
-24 -4 27 0
-33 -14 -21 0
-19 -12 -20 0
3 39 26 0
38 -11 -17 0
32 -16 9 0
27 13 20 0
15 2 1 0
12 30 -15 0
-34 16 9 0
-29 21 -14 0
28 -29 -39 0
-10 -18 22 0
-34 38 37 0
-14 -37 -40 0
6 20 18 0
-35 -20 24 0
-39 -29 34 0
-6 17 12 0
-30 -13 37 0
2 9 13 0
-14 -18 -40 0
-35 -12 34 0
22 19 -5 0
10 16 -32 0
-8 -19 27 0
-38 -29 12 0
35 14 37 0
30 17 -32 0
-29 -30 39 0
2 -37 13 0
-4 39 38 0
-40 -16 -35 0
16 -19 34 0
-27 30 -13 0
-28 -3 -10 0
12 14 32 0
4 -14 -36 0
22 23 -33 0
31 27 19 0
37 7 34 0
-32 -1 27 0
-23 18 -15 0
-37 12 34 0
-12 37 -19 0
-30 -24 -37 0
22 -13 17 0
-3 -23 -35 0
14 -9 -25 0
-1 20 -30 0
20 3 13 0
-18 37 -34 0
-20 -37 5 0
38 -36 7 0
-39 13 -33 0
35 9 -11 0
-32 -23 6 0
21 36 -33 0
-22 -39 25 0
-38 -24 37 0
30 33 23 0
-4 -2 28 0
-2 39 40 0
26 -37 17 0
-8 -36 29 0
3 -16 -14 0
-29 8 -6 0
-40 19 -2 0
-37 34 -36 0
28 7 -9 0
-9 -40 -26 0
-14 10 38 0
36 1 26 0
-2 -28 11 0
-16 39 -15 0
-3 -20 -24 0
1 -30 -6 0
-32 -38 -39 0
-17 26 -22 0
-16 7 -24 0
16 14 -23 0
18 4 -15 0
-1 -11 21 0
-3 -10 11 0
-1 10 -26 0
-39 12 40 0
19 -39 -16 0
-23 10 22 0
-30 -8 -33 0
-12 34 17 0
22 37 35 0
26 27 33 0
15 22 -37 0
26 -16 -32 0
24 -26 -1 0
-19 6 -21 0
-20 -27 -26 0
-17 20 21 0
-2 -19 -27 0
-27 -2 -35 0
24 -38 -33 0
36 14 -34 0
24 -25 29 0
-22 -23 -29 0
17 39 -29 0
-19 -17 -30 0
16 -28 -3 0
-2 -27 -31 0
-36 -13 23 0
21 26 -37 0
