c family=3-SAT n=40 instance=6 seed=2573548008 models=550
c order 7 25 29 6 30 1 4 12 15 3 9 27 16 32 36 22 18 38 33 28 13 11 23 35 5 31 34 17 40 2 39 26 10 19 21 24 8 37 20 14
c order 21 15 12 38 28 18 32 9 36 14 26 8 29 20 17 22 19 39 33 11 6 37 30 23 5 4 27 3 31 1 40 2 34 24 35 16 25 10 13 7
c order 21 36 4 29 35 27 39 16 11 28 3 9 26 22 33 32 37 13 19 18 8 14 5 38 30 7 2 24 25 23 20 10 1 17 31 15 12 40 6 34
c order 14 5 38 20 36 6 27 31 40 37 9 13 25 21 2 17 4 12 15 34 11 23 32 22 35 39 18 8 10 19 1 24 33 26 16 29 7 3 30 28
c order 24 29 9 14 1 22 8 33 31 25 21 34 2 40 11 16 38 7 28 6 36 10 39 19 35 17 3 18 20 13 5 12 32 23 4 37 26 30 15 27
c order 19 37 8 17 14 20 2 25 22 32 35 29 16 30 36 9 40 15 7 6 10 31 1 4 23 21 33 24 18 38 12 34 26 13 11 39 27 5 28 3
c order 15 40 11 8 39 36 26 27 28 12 23 1 10 21 34 13 9 2 30 4 29 3 35 16 17 20 32 38 24 7 22 6 33 31 18 14 5 25 19 37
c order 1 2 18 10 11 23 37 36 21 32 6 30 13 20 22 4 15 24 34 14 26 31 9 19 8 39 5 3 29 25 38 35 7 28 40 16 33 17 12 27
c order 5 8 25 38 40 22 21 33 36 31 39 11 26 34 19 27 23 10 24 7 35 28 1 15 6 4 32 16 20 37 2 29 12 17 14 18 30 13 3 9
c order 29 17 35 22 33 31 8 3 38 20 37 32 30 28 24 5 12 21 13 11 4 36 1 18 26 9 27 19 6 23 39 34 14 2 40 25 7 10 15 16
p cnf 40 168
35 -12 3 0
14 -30 32 0
6 31 5 0
-11 26 -17 0
-15 -16 22 0
34 9 -4 0
-32 31 19 0
-2 -12 24 0
6 17 -30 0
-25 -2 9 0
-25 30 16 0
-5 26 -3 0
-6 -35 25 0
-4 -33 -3 0
14 -31 6 0
-32 2 29 0
35 40 11 0
-13 34 -29 0
-24 -20 32 0
-37 14 -32 0
1 2 -15 0
-20 -30 -23 0
29 13 33 0
1 -35 -5 0
38 39 -21 0
-15 -2 37 0
-40 -27 -3 0
11 27 10 0
2 31 -38 0
-15 -39 -32 0
25 6 -23 0
-7 -33 -3 0
22 -26 -8 0
-36 19 -39 0
-9 31 -16 0
30 -7 -40 0
30 9 -21 0
-32 27 -30 0
26 -33 4 0
3 15 23 0
-13 5 -39 0
-16 15 -2 0
-39 4 6 0
5 12 -39 0
-36 -20 17 0
6 11 -39 0
-38 3 19 0
12 -38 -20 0
4 2 19 0
-20 -21 -19 0
22 5 -17 0
-15 -17 -14 0
15 -21 13 0
23 -40 2 0
-26 -29 -8 0
9 -32 20 0
38 -10 30 0
35 40 1 0
12 22 -26 0
18 -29 -40 0
-40 10 -32 0
-34 30 -33 0
-15 -36 22 0
24 5 26 0
28 -9 -26 0
-10 4 -30 0
-23 2 5 0
-14 21 -17 0
-25 21 35 0
-10 11 -24 0
-28 -5 -36 0
-2 -25 40 0
34 8 23 0
24 23 2 0
-17 -24 -36 0
-24 -33 -27 0
3 32 -35 0
-23 33 4 0
-1 -33 28 0
26 36 32 0
1 37 -6 0
-7 24 36 0
-8 21 3 0
40 5 10 0
35 -11 7 0
12 -40 33 0
3 -34 19 0
34 35 -38 0
-4 -39 -40 0
23 -36 40 0
1 24 -5 0
6 35 -26 0
-7 -5 -23 0
-33 -17 -4 0
-34 1 3 0
-35 -8 -28 0
-7 -17 21 0
-37 -4 -36 0
-40 -21 23 0
-2 -34 23 0
-4 -35 -5 0
-5 -15 7 0
-3 -12 7 0
-14 1 16 0
28 24 -13 0
12 -31 8 0
-8 -22 -32 0
-5 20 14 0
-6 -15 35 0
39 -36 -18 0
13 -6 29 0
-10 -36 -33 0
22 -34 -21 0
20 -25 2 0
40 -34 -39 0
26 -19 -13 0
21 -34 9 0
20 -10 32 0
39 -1 6 0
34 -20 38 0
36 8 -10 0
10 -12 -26 0
2 -34 10 0
-12 -15 -27 0
-26 -7 20 0
-2 -15 -12 0
37 27 13 0
19 29 31 0
-2 40 -35 0
-9 34 -26 0
-11 -20 -29 0
-13 -17 -40 0
3 21 -27 0
26 -38 28 0
-10 31 -38 0
8 1 27 0
1 33 13 0
-38 6 -1 0
-13 30 -21 0
15 -22 39 0
32 -10 -4 0
33 9 -15 0
24 3 -32 0
36 27 29 0
-9 -5 -16 0
18 29 25 0
-39 -26 29 0
30 -32 1 0
22 28 18 0
-9 37 -15 0
-19 -23 -37 0
-17 -12 22 0
12 7 10 0
30 21 34 0
9 4 5 0
-9 -16 -8 0
-23 -9 11 0
19 -36 -1 0
34 -26 32 0
-6 14 -13 0
-22 -32 -5 0
14 40 18 0
-22 -5 37 0
23 -26 -13 0
-35 11 26 0
1 36 -34 0
-24 -21 20 0
14 -18 29 0
