c family=3-SAT n=40 instance=2 seed=2573548008 models=12
c order 18 2 12 21 20 26 13 28 25 17 39 22 6 15 37 4 19 40 35 23 30 27 11 5 29 31 34 32 10 24 3 38 36 1 7 8 9 14 16 33
c order 7 18 28 15 38 40 6 16 33 3 31 8 27 4 10 1 22 24 14 39 23 13 11 34 12 19 29 26 17 36 9 37 30 5 21 2 32 35 20 25
c order 16 37 7 18 27 14 25 19 13 15 36 1 11 40 5 33 32 23 31 10 8 20 12 29 38 9 6 30 34 39 3 4 2 22 24 35 28 26 17 21
c order 35 19 11 36 37 2 8 14 1 39 15 7 23 32 21 26 38 31 33 22 4 16 34 28 10 18 6 5 30 12 13 27 9 24 20 29 40 3 25 17
c order 23 4 27 35 34 15 5 20 16 31 39 25 3 40 10 19 9 13 14 26 29 37 12 6 33 2 38 7 22 28 8 32 17 21 30 11 1 36 24 18
c order 33 4 14 7 38 17 20 8 37 10 18 2 30 40 24 36 15 13 32 25 1 21 39 19 27 3 28 9 34 22 11 12 5 31 23 26 16 29 6 35
c order 3 1 13 30 38 15 29 8 22 39 2 32 19 9 27 6 35 25 36 23 34 5 12 24 16 17 28 31 7 40 33 10 14 4 20 11 26 37 18 21
c order 8 6 37 21 35 24 16 19 22 7 5 4 36 32 29 26 12 25 1 27 28 33 11 31 38 9 30 13 2 14 15 40 34 39 17 3 18 10 20 23
c order 13 2 35 17 8 29 25 18 37 22 15 12 7 30 11 1 16 5 28 6 3 32 19 34 24 40 33 36 14 4 10 27 39 31 38 9 20 23 21 26
c order 26 3 38 25 27 23 32 7 14 29 22 21 12 39 13 20 10 30 19 18 1 40 9 34 33 24 2 4 35 37 31 36 28 17 5 6 11 15 16 8
p cnf 40 168
-5 40 -34 0
12 31 7 0
-33 -37 12 0
-24 -2 -37 0
38 -35 -13 0
-9 1 39 0
-33 31 17 0
8 -17 28 0
10 -30 39 0
25 -34 1 0
-7 -8 -5 0
20 27 -39 0
31 -9 29 0
7 3 2 0
-17 -37 -14 0
-10 -27 -30 0
14 -5 -30 0
34 -37 15 0
-26 19 -21 0
4 36 -38 0
-31 24 -27 0
-25 5 34 0
-19 26 -33 0
6 -33 -27 0
-34 -5 -16 0
2 22 30 0
-33 -25 -16 0
6 29 -39 0
-36 27 -7 0
14 1 15 0
-37 -14 8 0
-35 16 38 0
14 27 -28 0
-5 37 6 0
26 20 -31 0
-23 -10 22 0
9 -34 -31 0
-37 10 28 0
-34 -23 5 0
-21 -29 -13 0
-25 -40 32 0
-20 -17 13 0
9 -22 18 0
-21 -32 -39 0
18 4 -11 0
-23 6 -10 0
-3 2 26 0
-15 24 -35 0
6 30 4 0
17 -7 3 0
18 -29 -15 0
9 12 -1 0
3 -5 -29 0
21 29 34 0
-31 -24 35 0
-19 2 -17 0
20 26 -30 0
4 -22 36 0
-4 -22 -10 0
39 -5 -25 0
37 -40 -21 0
-30 -31 -25 0
-13 1 -19 0
-21 23 -30 0
32 28 4 0
20 25 -29 0
18 38 -23 0
-26 -15 -32 0
21 -1 -32 0
-25 17 -21 0
28 -23 -12 0
33 -9 -2 0
28 -21 34 0
-33 -26 1 0
-8 17 -40 0
38 -24 -15 0
39 -10 30 0
-38 3 19 0
-1 2 -25 0
5 13 -12 0
19 -39 18 0
-28 -19 -21 0
-25 32 -31 0
20 -14 40 0
30 3 25 0
-17 14 -3 0
35 -25 19 0
14 27 7 0
-22 -6 2 0
16 -2 -25 0
10 27 31 0
-8 -6 -1 0
-24 6 14 0
-35 23 -24 0
40 -21 -33 0
-21 -19 -40 0
15 -19 17 0
4 9 30 0
-21 -19 10 0
-30 24 7 0
-12 3 -13 0
13 11 20 0
-9 38 18 0
-4 6 -17 0
16 -15 -31 0
8 12 -20 0
2 10 9 0
11 33 8 0
-13 12 29 0
3 -11 -15 0
9 -30 15 0
-40 -3 32 0
15 -28 18 0
-39 -10 -3 0
33 36 26 0
-15 7 -4 0
-15 -12 30 0
-14 20 27 0
-7 -38 -8 0
-18 -2 14 0
37 8 2 0
30 -12 -9 0
-33 -11 -16 0
25 -29 -6 0
-3 -15 35 0
-39 8 22 0
4 -13 -6 0
-32 40 23 0
3 4 36 0
20 -32 -37 0
32 15 18 0
-24 -14 18 0
-17 -11 -29 0
-35 16 -30 0
21 -10 1 0
5 27 21 0
-28 -17 -15 0
3 29 -28 0
-1 3 14 0
-15 -13 -8 0
-14 32 -3 0
-31 36 32 0
4 -10 35 0
9 7 16 0
32 6 26 0
11 -36 35 0
-13 -38 12 0
5 -6 24 0
21 6 25 0
-40 -25 24 0
-29 23 -35 0
-34 -29 -11 0
-3 -15 -14 0
23 -3 26 0
-13 32 25 0
30 -13 21 0
-31 -14 -27 0
-32 -8 17 0
14 -26 13 0
-22 26 -21 0
32 5 -37 0
-12 -3 -39 0
22 25 33 0
-2 35 -19 0
-25 -8 -13 0
-32 -4 -13 0
31 -28 -33 0
-14 -32 24 0
