c family=3-SAT n=40 instance=4 seed=2573548008 models=155
c order 3 34 2 35 17 22 24 23 14 20 7 16 9 1 25 40 19 12 26 38 5 30 10 11 8 13 18 39 32 37 6 36 4 27 15 28 21 31 33 29
c order 20 4 5 35 36 27 21 32 6 19 16 25 34 22 7 3 33 1 14 39 8 11 26 10 40 17 31 12 28 15 23 18 29 13 2 37 30 9 38 24
c order 32 24 25 23 30 29 15 5 26 22 4 3 21 13 16 36 20 34 6 19 28 35 1 14 37 2 18 17 9 33 31 10 39 7 8 40 27 11 12 38
c order 35 18 23 7 37 27 14 10 25 1 39 29 13 34 36 38 31 9 30 22 8 2 15 40 17 5 3 4 26 6 16 21 28 32 19 20 11 12 24 33
c order 28 34 9 17 18 30 4 29 36 1 6 12 14 13 35 40 20 37 27 3 5 25 38 31 8 10 2 23 32 15 33 26 39 19 16 7 24 11 21 22
c order 33 40 22 23 19 12 3 38 16 34 13 32 8 5 4 31 6 24 10 20 29 14 27 37 1 9 15 35 21 7 30 39 28 2 17 25 36 26 11 18
c order 11 23 34 15 31 27 6 19 13 22 38 10 12 21 30 4 14 18 37 36 8 5 32 20 7 35 2 9 39 1 3 17 40 25 29 26 24 16 33 28
c order 8 39 12 25 29 30 16 31 10 4 13 11 35 24 7 6 3 36 9 17 32 15 5 34 38 19 40 14 28 27 37 1 18 26 22 33 23 2 20 21
c order 34 18 6 5 3 40 13 2 20 17 14 19 27 21 7 1 33 30 23 10 4 8 12 15 29 11 38 36 32 25 39 9 26 24 31 28 22 16 37 35
c order 7 27 9 3 2 31 8 17 22 1 18 33 24 37 35 32 26 11 19 12 25 23 38 5 15 30 6 29 36 34 39 13 28 16 20 10 21 40 14 4
p cnf 40 168
-16 -35 22 0
5 -14 31 0
-34 16 21 0
29 21 13 0
-1 -26 13 0
19 23 36 0
-35 17 8 0
-9 37 18 0
26 11 10 0
33 -18 24 0
-19 -32 20 0
14 -37 27 0
-13 16 -10 0
34 -32 24 0
32 -15 -7 0
32 -30 -26 0
-35 26 -18 0
33 -14 16 0
37 12 -22 0
17 9 12 0
-10 31 36 0
-7 -28 -3 0
19 11 -3 0
30 36 35 0
28 16 -36 0
2 -11 -9 0
10 3 28 0
2 -17 -18 0
25 34 40 0
10 14 9 0
-6 21 -32 0
-27 5 -38 0
-19 -33 31 0
-17 -30 5 0
3 7 23 0
-12 21 24 0
-29 1 8 0
-11 21 -9 0
26 31 -9 0
-10 -21 -35 0
-18 3 -4 0
10 -18 19 0
-25 -15 -12 0
-40 -19 -2 0
-24 40 38 0
-27 34 7 0
-16 10 4 0
-38 -5 3 0
-31 -30 -10 0
24 39 -40 0
11 40 31 0
-25 22 -35 0
27 -17 -39 0
6 11 -4 0
11 25 -38 0
-14 23 -38 0
-8 19 17 0
2 -12 -26 0
10 -33 -39 0
19 -23 -22 0
-11 -28 32 0
8 -1 -35 0
-9 32 -13 0
19 29 6 0
16 -29 -37 0
29 -1 -31 0
-1 -19 36 0
-4 8 -5 0
-4 -7 -17 0
-36 37 -5 0
36 11 -13 0
32 -37 40 0
36 21 22 0
16 -29 14 0
1 -21 -14 0
15 17 23 0
-16 5 -13 0
-31 -8 28 0
39 -29 16 0
-16 -21 -33 0
-9 1 -25 0
-12 -14 26 0
-19 -20 -17 0
-2 27 -15 0
16 -14 -22 0
-8 33 29 0
-29 5 6 0
3 -19 11 0
-4 10 -20 0
-11 9 -31 0
-9 -30 -21 0
-34 -22 -40 0
31 -5 -13 0
16 32 27 0
40 -37 -16 0
-8 26 -35 0
8 30 23 0
32 5 -10 0
32 30 -6 0
-29 -30 19 0
-28 38 -15 0
28 -1 2 0
-37 -6 -38 0
-2 11 -28 0
19 36 -2 0
39 29 -32 0
-28 26 -3 0
38 37 -15 0
-26 32 -29 0
4 24 31 0
25 -7 -23 0
32 21 -37 0
28 3 -10 0
6 26 5 0
37 -34 -20 0
18 24 -35 0
31 37 6 0
6 34 26 0
-35 -29 -26 0
-40 -38 10 0
-14 29 2 0
-25 -34 -32 0
-16 -19 14 0
-11 4 21 0
-7 15 -34 0
-26 21 -4 0
14 17 -27 0
14 -12 37 0
-40 13 -22 0
9 10 -26 0
34 26 22 0
17 20 -40 0
-1 4 -35 0
-20 24 38 0
-5 -35 -13 0
-1 -35 -20 0
-19 -3 40 0
-7 23 34 0
-26 37 -33 0
-15 -40 22 0
19 -6 -8 0
-31 -9 -6 0
37 2 -11 0
29 20 -38 0
-33 34 -9 0
-28 38 7 0
12 -29 -22 0
25 27 2 0
15 3 -27 0
29 -10 15 0
9 4 -10 0
-25 -32 -24 0
26 21 24 0
-19 -12 -40 0
21 -12 37 0
26 30 -31 0
-28 -13 24 0
-8 -2 -14 0
-5 -27 37 0
-40 35 -4 0
34 11 -13 0
21 15 -6 0
19 -8 33 0
-18 -16 38 0
19 -8 25 0
24 -34 -16 0
-13 14 7 0
18 -33 14 0
