c family=3-SAT n=40 instance=5 seed=2573548008 models=295
c order 11 25 32 37 39 27 2 13 18 15 22 8 35 5 12 26 17 3 30 16 7 6 1 33 4 36 21 40 28 14 29 10 9 19 38 20 24 23 31 34
c order 18 40 12 26 9 31 4 28 36 22 2 39 33 6 21 32 35 34 23 25 17 7 10 16 19 37 29 3 27 15 5 30 20 24 1 13 8 14 38 11
c order 23 32 26 18 27 14 9 38 24 21 20 34 28 29 6 17 2 36 16 7 5 40 19 30 33 35 1 37 4 22 11 15 31 13 25 3 8 39 10 12
c order 32 24 37 4 5 17 27 3 40 19 29 15 31 23 14 18 35 22 10 33 34 28 38 1 11 16 9 39 26 36 2 7 20 6 8 12 13 21 25 30
c order 31 13 4 3 25 24 17 7 10 11 19 37 2 38 6 21 15 20 30 26 18 32 28 35 14 33 1 9 12 22 23 16 8 40 34 29 36 39 5 27
c order 30 12 8 20 33 18 26 16 24 9 7 27 40 22 5 37 1 31 15 35 39 36 17 4 14 21 6 3 25 23 11 29 13 28 38 32 10 34 2 19
c order 30 7 39 28 17 13 5 23 10 25 8 22 40 38 12 29 37 27 20 4 11 24 31 33 26 9 16 21 19 2 15 6 34 1 3 35 36 18 32 14
c order 2 25 27 19 34 7 9 30 21 8 32 17 20 40 6 3 39 26 1 12 14 11 15 13 4 29 5 38 18 16 31 28 24 23 22 35 37 36 33 10
c order 27 36 23 13 3 5 10 32 28 1 20 38 37 33 15 21 22 6 19 24 11 8 26 40 31 17 14 35 16 12 2 9 39 4 7 18 25 34 30 29
c order 8 35 29 12 30 31 9 14 40 28 15 21 11 5 17 20 6 34 32 10 38 36 3 1 16 26 18 25 13 24 39 7 27 33 37 22 4 23 2 19
p cnf 40 168
-19 31 -21 0
-40 -13 15 0
4 5 -20 0
-8 -3 -28 0
-39 20 -32 0
33 -15 -40 0
-22 21 27 0
1 -16 -38 0
14 27 32 0
-6 1 -28 0
16 10 7 0
-28 4 -10 0
40 -37 23 0
26 5 28 0
-23 14 31 0
-15 -4 7 0
-34 25 -12 0
31 24 40 0
-25 27 -11 0
-24 -14 -9 0
-25 -28 -34 0
-40 21 15 0
-1 -31 5 0
40 37 -34 0
11 34 -1 0
-10 24 31 0
-16 31 -7 0
1 24 -21 0
-3 22 -18 0
-18 29 19 0
3 22 30 0
27 -26 -29 0
40 -39 26 0
25 -28 9 0
-38 -22 17 0
29 7 40 0
-29 23 -37 0
-22 20 15 0
18 29 2 0
-32 -27 22 0
23 -11 -10 0
33 -13 8 0
-3 18 9 0
22 24 26 0
29 32 38 0
-10 -4 30 0
-10 -6 -16 0
22 -7 -4 0
-32 22 -26 0
-16 -17 -39 0
21 -11 -36 0
-2 9 -39 0
8 19 -11 0
1 35 6 0
-29 6 32 0
-20 11 25 0
3 -8 11 0
-8 -40 2 0
-33 -27 29 0
-26 10 2 0
-17 -10 -6 0
-37 -23 -14 0
-36 -22 6 0
-32 -1 4 0
-37 40 5 0
30 -39 -20 0
-14 -12 -20 0
-36 5 -35 0
-15 -5 -33 0
-7 9 17 0
13 -32 -5 0
-29 -32 -38 0
-34 -3 -38 0
6 15 38 0
-34 -3 23 0
-32 -34 -30 0
-21 -29 -12 0
-24 9 -16 0
-15 -22 11 0
-7 17 16 0
24 -17 20 0
-28 -36 2 0
10 -4 15 0
26 -4 33 0
-31 22 -4 0
10 11 36 0
-2 34 31 0
19 -22 -40 0
24 2 -4 0
39 36 -27 0
6 18 -17 0
24 -28 10 0
9 34 -11 0
11 32 -13 0
-32 -23 21 0
-12 -24 32 0
-16 11 20 0
15 -24 -1 0
-36 -31 -4 0
-34 -26 -3 0
-29 13 31 0
26 8 37 0
-32 22 2 0
-36 -16 -3 0
1 29 -5 0
19 -39 14 0
1 -16 -36 0
-22 -9 32 0
-30 -29 -8 0
-21 15 -24 0
21 32 33 0
8 28 27 0
-33 18 15 0
-8 -27 22 0
9 -12 19 0
-36 10 -16 0
24 14 25 0
18 -40 -8 0
-11 -37 23 0
-1 -9 30 0
-4 -10 -12 0
3 7 5 0
-28 36 8 0
8 33 35 0
-11 19 12 0
-4 -6 -8 0
-9 11 5 0
-34 -18 26 0
40 28 4 0
-32 -39 20 0
-40 -28 -10 0
17 14 6 0
12 19 37 0
36 21 -24 0
6 4 -22 0
-12 -40 -31 0
-5 -8 27 0
39 6 -23 0
29 -12 -8 0
-23 -16 -38 0
25 4 2 0
-3 30 -4 0
38 -19 28 0
-16 -8 -9 0
38 12 33 0
-18 10 -36 0
23 -16 -27 0
-11 25 -39 0
40 -39 33 0
-12 31 -21 0
-12 28 -22 0
14 38 6 0
-36 9 32 0
18 2 -12 0
19 -22 -15 0
-13 19 31 0
-13 39 32 0
-21 -2 -36 0
29 26 -9 0
-37 23 -40 0
28 -37 14 0
-25 17 -39 0
29 15 -7 0
-40 -15 -29 0
-17 2 24 0
-27 5 34 0
1 -37 4 0
-37 -26 -36 0
