c family=3-SAT n=45 instance=7 seed=2573548008 models=8
c order 38 35 16 43 28 31 5 45 25 18 26 2 3 42 36 7 12 13 17 14 6 21 29 10 40 8 27 32 20 11 15 37 34 9 4 44 41 23 19 22 24 1 30 33 39
c order 10 20 37 32 30 34 22 3 43 33 14 44 36 45 6 41 31 26 19 13 23 38 8 9 18 2 5 7 35 12 24 25 4 42 27 28 16 39 29 11 1 17 15 21 40
c order 8 32 17 4 42 15 27 18 29 23 40 13 5 14 36 24 30 43 1 44 38 34 9 41 11 35 33 6 31 7 19 21 39 2 3 16 22 26 37 28 12 20 25 45 10
c order 13 26 20 27 45 6 10 12 40 16 41 30 29 3 14 28 22 38 5 39 19 37 4 11 42 2 44 18 33 23 24 21 34 15 1 43 32 17 31 7 9 8 36 35 25
c order 43 40 45 33 3 16 35 8 28 36 13 37 38 34 30 26 21 39 24 11 9 4 5 29 6 22 10 27 20 19 25 17 18 7 14 23 12 44 32 2 41 15 42 31 1
c order 29 32 18 23 4 11 26 39 43 3 22 10 36 1 21 19 8 25 34 42 16 17 38 30 24 44 5 15 9 20 41 12 45 7 40 35 33 27 2 28 31 14 13 37 6
c order 13 19 4 45 10 35 7 40 33 43 17 38 37 6 44 8 12 21 3 39 32 18 42 25 36 27 20 2 15 23 41 34 22 14 16 9 30 5 29 24 28 1 31 11 26
c order 3 29 9 11 2 27 42 25 38 37 31 8 10 18 6 7 23 24 5 35 1 43 44 40 36 21 41 4 26 13 39 12 33 14 22 16 30 20 45 15 19 34 28 17 32
c order 31 7 8 42 13 1 18 35 2 30 34 21 44 32 24 3 40 26 6 23 11 45 43 10 20 27 17 38 37 16 22 12 39 29 5 33 15 36 4 14 19 9 25 28 41
c order 35 5 24 29 18 1 41 34 4 42 11 30 6 38 20 21 15 40 16 10 22 7 33 25 32 3 26 31 43 14 28 45 9 39 2 12 27 8 36 17 37 13 44 19 23
p cnf 45 189
-23 -4 8 0
-24 -8 14 0
-3 -29 2 0
8 -31 34 0
-15 17 4 0
-23 36 -38 0
36 25 -44 0
22 10 -17 0
35 -23 -39 0
45 -37 26 0
1 -28 -40 0
30 41 -38 0
-8 -26 14 0
-21 16 6 0
-37 2 12 0
-16 3 -41 0
-23 -6 -13 0
18 -25 -35 0
36 3 -39 0
17 -10 19 0
-5 9 -11 0
-36 32 10 0
-2 -25 -38 0
-12 -8 -45 0
13 33 -16 0
-1 23 3 0
-42 36 31 0
40 -24 -38 0
6 -19 20 0
-42 -39 24 0
-1 17 -11 0
39 -42 -8 0
-36 35 -1 0
-19 25 26 0
-3 38 21 0
-9 7 36 0
16 -13 -8 0
17 10 -32 0
-13 21 -2 0
19 17 -16 0
-9 40 -18 0
-21 35 -27 0
19 41 30 0
-1 -38 -22 0
-41 13 -24 0
-33 -2 44 0
-27 25 6 0
-1 38 35 0
25 -26 -14 0
-45 44 15 0
-22 45 10 0
41 -15 25 0
44 -9 12 0
-2 30 19 0
-32 -19 44 0
-11 22 -24 0
-32 7 -25 0
-41 14 25 0
38 -6 -3 0
-14 39 15 0
42 40 38 0
-14 19 20 0
-28 13 40 0
42 18 -27 0
15 14 38 0
-39 -19 7 0
-9 -17 -13 0
-24 -43 -30 0
34 -36 29 0
36 -35 -22 0
-18 29 -32 0
-38 -45 30 0
-39 17 -37 0
-37 22 -43 0
35 30 -36 0
-28 -43 11 0
21 45 -9 0
-23 -17 43 0
43 41 29 0
-27 -31 -25 0
38 24 3 0
-38 -32 -37 0
-45 42 -23 0
-3 -11 43 0
-22 42 11 0
-45 6 29 0
-5 27 29 0
34 -37 -26 0
17 -14 36 0
38 -36 41 0
-38 20 25 0
-10 9 -32 0
-2 -34 -27 0
-31 -13 43 0
9 -41 12 0
-37 24 -23 0
17 43 -23 0
-23 24 -30 0
-7 -23 -21 0
11 4 -3 0
34 9 21 0
-43 -19 22 0
14 24 -6 0
-22 -27 11 0
39 -24 -45 0
27 -33 3 0
30 42 -16 0
25 32 -7 0
-2 -11 -1 0
22 -13 19 0
-26 -5 16 0
19 39 -8 0
18 21 -19 0
2 -19 37 0
40 9 45 0
25 -24 -23 0
-11 41 -35 0
21 25 35 0
26 -31 36 0
6 -43 -34 0
-40 14 -23 0
18 -9 -10 0
45 7 41 0
-14 -5 44 0
-27 -15 18 0
12 37 39 0
-17 -41 28 0
32 -36 -14 0
12 7 -32 0
-40 6 -19 0
-18 -23 -32 0
-17 20 -36 0
-7 -9 -26 0
-16 -33 -15 0
-28 -37 5 0
-31 -13 -9 0
38 -35 -27 0
-24 -35 11 0
-5 27 -14 0
44 43 29 0
18 28 8 0
-10 26 45 0
34 42 37 0
-39 37 17 0
-43 -44 -25 0
-34 -13 -36 0
31 -44 -20 0
-37 -36 35 0
-22 12 43 0
12 25 18 0
-29 -34 -36 0
17 -24 -27 0
-34 -21 -45 0
-33 2 8 0
-22 6 -38 0
-18 -3 -43 0
44 -36 25 0
27 -31 -42 0
28 5 -1 0
10 21 8 0
-23 -32 7 0
-34 29 5 0
-19 -10 -45 0
10 25 19 0
-14 -21 45 0
-20 -1 35 0
39 -30 -25 0
5 11 9 0
-30 1 -10 0
28 -42 -25 0
9 -10 -20 0
-13 -30 12 0
-11 32 45 0
-20 31 -13 0
-35 -4 -34 0
-24 27 -38 0
-21 -6 -12 0
35 -23 45 0
13 -16 29 0
-30 18 12 0
26 45 -3 0
9 39 24 0
4 -26 18 0
-4 -35 3 0
20 44 36 0
-19 -13 -16 0
-44 -8 -12 0
-15 14 28 0
-18 36 22 0
