c family=3-SAT n=45 instance=0 seed=2573548008 models=46
c order 16 1 31 5 29 26 13 4 41 7 32 38 21 42 10 45 11 24 19 30 20 44 22 34 39 40 17 25 28 27 8 14 37 6 43 18 36 15 33 23 3 9 12 35 2
c order 2 30 43 16 9 22 44 10 11 38 3 21 5 15 29 25 23 18 8 40 32 4 1 17 26 12 20 27 34 33 39 37 19 28 24 7 45 14 41 36 35 6 42 31 13
c order 39 37 25 17 38 27 34 22 2 36 6 29 44 23 13 8 1 41 19 10 7 11 15 14 4 28 33 35 18 16 43 26 5 9 21 12 20 45 3 31 42 24 30 32 40
c order 35 12 16 34 11 17 26 2 45 8 24 43 20 41 32 13 33 37 7 9 27 40 31 39 44 42 38 4 30 19 25 22 36 6 29 1 15 28 18 14 3 10 21 23 5
c order 41 31 2 5 18 33 6 27 35 11 43 1 4 17 37 26 15 21 44 24 23 9 12 16 22 28 40 25 38 34 13 3 7 14 42 30 36 29 45 39 32 20 10 19 8
c order 13 2 33 28 7 24 12 19 40 35 39 36 3 41 9 4 23 18 5 34 1 44 14 17 27 15 42 25 26 43 45 22 38 21 8 30 20 31 11 32 6 16 10 37 29
c order 20 33 27 7 15 32 28 24 41 12 9 22 42 39 3 43 30 1 44 13 11 38 18 6 36 31 23 8 5 16 45 14 37 34 4 21 10 26 29 35 25 17 19 2 40
c order 18 22 23 40 45 39 13 30 26 17 1 29 5 27 2 43 25 34 15 33 32 10 31 36 38 3 14 4 21 9 11 20 24 42 16 35 44 28 41 12 37 8 7 6 19
c order 27 20 37 18 45 6 34 22 13 12 8 33 19 31 3 16 36 23 11 40 28 30 25 44 29 5 21 15 4 24 9 2 42 39 7 43 35 41 1 26 17 14 32 38 10
c order 13 9 8 10 12 39 22 16 5 42 36 2 45 35 6 18 15 17 25 19 21 3 33 38 44 23 4 40 7 30 31 11 24 34 27 37 14 43 26 20 41 1 28 32 29
p cnf 45 189
-22 4 -44 0
13 32 -7 0
25 22 27 0
38 16 -19 0
43 13 -45 0
30 18 -12 0
38 14 12 0
5 6 19 0
-26 -4 19 0
-11 27 -9 0
-30 4 15 0
32 -7 44 0
12 9 32 0
-34 -24 29 0
-7 -27 8 0
-30 -21 -27 0
8 31 -1 0
-16 40 1 0
5 -9 24 0
-31 -9 -3 0
-31 14 35 0
-6 5 -2 0
29 -14 -30 0
41 14 21 0
-10 6 26 0
-28 -32 -41 0
21 -12 10 0
36 -38 -12 0
-36 -2 -29 0
-5 -41 -21 0
-21 16 30 0
1 -17 -18 0
4 -26 -35 0
-8 -26 -37 0
20 -36 -43 0
19 6 37 0
-8 -44 -1 0
-24 -3 39 0
35 45 6 0
-11 6 26 0
-28 8 -17 0
-23 1 -15 0
42 -29 28 0
5 -11 14 0
3 -43 39 0
-14 22 -30 0
-35 14 -34 0
-42 10 6 0
-21 -32 -27 0
4 -42 -2 0
-2 28 26 0
31 -10 42 0
25 45 4 0
25 -17 18 0
-3 13 -25 0
-9 -2 -21 0
7 -9 -27 0
27 -16 -6 0
-18 44 29 0
18 40 4 0
4 23 -26 0
1 14 40 0
3 -29 30 0
-33 -39 13 0
-17 15 31 0
24 23 -29 0
34 9 -6 0
-32 5 27 0
-35 -30 9 0
32 43 24 0
-43 20 -32 0
-38 -45 -14 0
4 2 -40 0
5 13 22 0
-16 31 44 0
-14 -37 -4 0
-23 39 -35 0
34 30 -6 0
13 -24 17 0
-32 -36 -21 0
20 24 -23 0
23 44 -10 0
-20 30 28 0
-13 25 -15 0
2 13 -44 0
36 -24 38 0
-39 15 -11 0
-31 -43 -2 0
31 -12 42 0
32 -43 -41 0
10 8 26 0
4 -26 29 0
30 -41 -4 0
-45 37 18 0
3 -9 38 0
18 6 -32 0
-8 -34 -18 0
42 -38 -14 0
36 10 40 0
-4 -21 -1 0
12 -43 32 0
19 -22 -44 0
-45 -43 1 0
36 -33 38 0
-8 18 -23 0
38 39 -3 0
32 36 -33 0
33 17 -30 0
-34 42 32 0
30 -13 44 0
9 -30 -21 0
2 19 11 0
-34 -45 29 0
28 -25 43 0
45 -11 -31 0
-3 26 -31 0
19 -12 37 0
1 45 -31 0
-27 -38 -44 0
33 9 -8 0
39 9 -26 0
12 39 -24 0
-34 -35 43 0
40 -9 32 0
12 -21 17 0
-36 -11 9 0
28 -34 -17 0
-17 34 36 0
1 -5 41 0
-19 -9 -3 0
5 -18 -28 0
-33 36 13 0
13 -6 7 0
34 23 11 0
-16 3 39 0
-15 34 -14 0
-2 -5 12 0
-2 38 12 0
35 26 -28 0
-26 -3 -27 0
-27 13 -45 0
-5 43 -32 0
-35 32 -43 0
-31 3 -37 0
24 26 -44 0
5 -24 7 0
-2 29 -21 0
-25 -8 11 0
9 -4 -38 0
-38 15 11 0
27 26 -18 0
-35 -33 -17 0
-45 -29 -19 0
-11 45 -39 0
-10 -15 -44 0
14 30 -21 0
21 -29 -22 0
-15 45 -28 0
-10 19 5 0
-18 -24 41 0
44 -28 -29 0
45 21 29 0
29 -28 -30 0
-9 -43 -13 0
-27 -39 -2 0
26 8 -42 0
-11 -37 32 0
-13 25 -26 0
16 3 26 0
44 -2 -28 0
4 -23 24 0
30 13 -44 0
-6 -30 -15 0
-12 -26 -16 0
13 33 -34 0
33 -43 -20 0
-10 -13 2 0
27 -9 28 0
-27 -8 35 0
35 -10 -25 0
-10 -28 -15 0
-22 20 25 0
-40 -9 -38 0
-21 31 -32 0
20 -29 -33 0
30 18 -23 0
14 21 -32 0
42 39 14 0
10 -34 24 0
