c family=3-SAT n=45 instance=5 seed=2573548008 models=40
c order 8 23 28 29 19 18 31 17 2 22 33 12 13 1 41 21 30 4 27 32 26 5 38 40 39 20 14 15 16 36 6 37 42 45 34 24 7 11 10 25 43 35 44 9 3
c order 33 9 27 35 19 11 26 14 12 34 5 1 42 8 32 18 41 6 40 25 4 13 15 29 20 39 30 22 37 23 24 28 7 31 36 45 21 38 2 10 16 17 3 44 43
c order 8 34 13 28 17 1 11 42 38 20 18 3 24 22 21 45 40 37 15 9 44 39 16 35 12 4 23 19 2 26 29 27 5 32 6 36 30 41 25 10 43 31 7 14 33
c order 25 18 35 30 12 44 36 17 3 26 28 20 14 10 11 23 43 41 29 6 27 21 40 13 2 37 8 38 24 22 31 34 42 32 4 7 5 9 15 33 45 39 16 19 1
c order 13 4 29 33 44 26 21 16 34 20 45 36 32 43 27 22 40 23 1 17 7 9 42 39 11 28 19 35 18 24 37 5 31 2 41 25 6 3 12 38 15 10 14 8 30
c order 23 8 42 44 41 36 43 17 19 27 34 5 12 2 22 32 6 15 37 3 13 9 30 1 45 24 33 38 39 4 31 14 16 18 29 35 26 20 25 40 7 11 28 21 10
c order 13 26 24 1 32 28 41 19 17 30 42 7 2 20 29 33 35 6 36 25 39 38 10 45 11 3 43 16 37 18 8 12 14 22 21 27 4 23 9 31 15 40 5 44 34
c order 13 27 7 25 12 42 19 43 28 32 39 40 34 11 38 14 1 21 4 20 23 9 3 37 18 44 33 26 2 6 24 5 31 22 29 16 30 10 41 8 45 35 15 36 17
c order 14 3 24 15 21 26 27 16 40 42 35 23 11 44 32 8 20 36 30 25 45 28 43 22 18 17 33 10 12 31 7 41 13 1 39 9 37 6 34 29 5 2 38 4 19
c order 22 33 5 16 10 7 42 29 23 38 15 34 32 9 41 36 44 27 37 14 35 8 43 45 30 2 21 28 25 13 12 4 17 1 24 31 11 18 39 19 6 20 40 3 26
p cnf 45 189
-10 27 12 0
6 39 -44 0
8 36 23 0
44 -39 -23 0
-31 35 23 0
23 -7 -8 0
6 23 21 0
8 43 19 0
-11 -28 18 0
16 -18 -17 0
-16 -45 -14 0
-32 -39 26 0
-41 -14 -15 0
-11 -8 -40 0
-43 40 -44 0
39 40 -29 0
-4 -31 -39 0
-34 -43 44 0
-35 -2 5 0
30 -45 -5 0
27 -28 41 0
18 -4 -22 0
-41 -44 -39 0
27 -20 -10 0
22 39 -27 0
-5 20 -25 0
16 -30 -20 0
9 -6 -27 0
15 -13 32 0
14 -35 1 0
-45 35 11 0
-4 26 37 0
18 40 -27 0
3 -10 45 0
44 -26 -24 0
-1 2 -27 0
30 15 -32 0
-8 32 -41 0
-18 40 -32 0
-20 42 27 0
-29 43 -26 0
-19 -14 -43 0
20 18 1 0
-41 4 -14 0
-41 -32 1 0
-8 -26 -14 0
-20 -40 -7 0
-22 -1 14 0
-42 34 -36 0
26 -15 -32 0
11 -1 -37 0
38 -21 43 0
43 -41 27 0
41 -42 -36 0
-29 44 -37 0
26 39 3 0
6 -40 -30 0
-5 42 8 0
18 -17 37 0
-15 8 -37 0
17 -37 -2 0
-7 3 -19 0
-3 -19 -17 0
-26 -6 14 0
-11 -40 -42 0
32 5 35 0
14 4 -26 0
34 36 -16 0
-9 -32 -19 0
39 9 -31 0
25 -31 -22 0
-32 -6 1 0
12 -42 -31 0
-18 4 -23 0
-16 -42 -8 0
10 1 24 0
25 2 6 0
12 -43 22 0
-1 -11 -39 0
-12 44 -22 0
-32 37 29 0
-24 -43 -1 0
-36 16 1 0
-16 24 25 0
-27 -9 15 0
-24 -44 36 0
10 -44 -45 0
-8 44 -27 0
-27 34 -23 0
-3 44 -5 0
-11 32 -12 0
28 40 9 0
43 -34 8 0
22 -14 -25 0
23 -11 -12 0
19 14 15 0
-18 -15 8 0
45 44 35 0
-4 -19 -9 0
-30 -36 13 0
42 -7 -39 0
30 28 15 0
6 -14 22 0
-21 20 -14 0
-7 23 25 0
-25 -34 -23 0
27 3 17 0
-17 28 45 0
11 -29 39 0
-12 34 -30 0
32 14 -35 0
-10 -12 27 0
45 19 12 0
6 -40 16 0
-32 -4 -1 0
20 -9 15 0
-18 40 35 0
-9 -23 -44 0
-23 17 -31 0
44 33 -45 0
-18 -24 -25 0
-36 16 -26 0
-40 -5 21 0
18 -29 17 0
45 -30 -1 0
-38 36 -12 0
1 35 -32 0
-1 37 -32 0
31 6 -18 0
-26 -10 -1 0
-8 36 7 0
34 23 -11 0
5 -22 15 0
-29 22 31 0
-18 23 -28 0
38 9 -21 0
-36 -25 27 0
-20 28 1 0
-34 -31 -44 0
-28 -26 -16 0
-24 26 32 0
-43 12 -35 0
-24 11 -1 0
-27 -33 32 0
-3 22 12 0
-13 6 -9 0
12 -37 -10 0
-36 -30 32 0
-8 21 26 0
-40 -35 26 0
-44 -7 5 0
4 -28 -30 0
18 15 -26 0
36 32 17 0
-11 42 -18 0
-35 -4 39 0
-11 19 32 0
-34 38 4 0
-2 -41 -30 0
2 36 -21 0
-27 -11 -40 0
44 -30 25 0
-43 18 -1 0
-40 -3 28 0
20 -7 22 0
-30 -11 2 0
-4 21 42 0
2 31 -13 0
-3 -5 -33 0
-16 8 10 0
-11 -39 33 0
30 -22 -26 0
17 30 -18 0
-41 -36 -9 0
-5 17 41 0
25 10 31 0
-25 -5 -38 0
-8 1 -32 0
-16 -15 12 0
-25 -2 -14 0
19 36 21 0
-26 -39 21 0
31 -17 -27 0
-29 -18 33 0
37 34 -17 0
-22 41 -32 0
30 27 -17 0
-33 -45 -26 0
37 -28 12 0
