c family=3-SAT n=45 instance=3 seed=2573548008 models=78
c order 39 23 32 27 36 22 28 31 13 42 7 4 20 24 11 40 16 34 10 25 15 17 5 35 38 1 30 14 6 12 8 19 41 29 2 18 43 3 44 37 33 9 45 21 26
c order 45 13 29 15 36 12 30 27 33 6 44 31 43 7 23 9 19 32 41 2 40 11 8 38 4 10 37 16 34 35 5 20 24 14 26 17 18 1 3 42 39 25 28 21 22
c order 27 24 30 9 8 37 11 4 43 45 28 36 23 34 12 39 19 40 25 17 14 22 31 7 20 18 15 2 13 1 3 35 29 26 33 10 41 5 16 44 42 32 38 21 6
c order 18 36 37 1 24 2 7 16 28 3 4 39 35 30 15 12 11 32 22 41 19 20 33 42 45 31 38 6 40 13 9 23 17 27 21 26 43 34 44 14 29 10 8 25 5
c order 27 44 11 24 20 30 33 45 32 12 9 16 43 6 34 1 23 18 25 26 10 14 41 31 2 7 13 42 37 3 35 40 36 15 5 21 19 22 17 8 29 39 28 38 4
c order 16 7 5 25 36 40 1 18 13 42 41 9 30 45 26 2 39 27 29 31 15 22 11 35 10 43 24 12 8 19 20 28 14 4 21 23 44 17 32 3 38 34 6 33 37
c order 2 3 12 7 37 35 43 6 26 24 23 33 31 21 32 14 17 11 42 29 34 5 22 16 13 8 28 44 41 39 25 9 19 20 45 1 30 36 18 27 40 15 4 10 38
c order 34 16 31 9 22 23 45 33 26 10 35 29 7 32 3 8 5 17 40 27 15 38 1 41 21 4 28 42 6 25 24 13 44 20 12 37 2 11 43 14 39 36 19 18 30
c order 28 1 27 6 21 2 23 26 32 16 11 3 42 44 40 29 8 14 35 12 7 33 45 5 37 20 18 38 30 17 13 31 22 41 15 34 25 24 43 19 9 10 36 39 4
c order 11 19 37 32 33 20 8 45 3 15 16 9 7 44 40 25 23 10 41 36 31 12 30 39 42 1 18 4 28 13 26 24 17 5 27 21 6 34 2 43 29 38 14 35 22
p cnf 45 189
42 -33 -14 0
2 -24 -4 0
14 -4 22 0
21 34 -11 0
-29 18 38 0
-40 7 36 0
37 22 41 0
-1 32 -25 0
-17 -42 -5 0
-41 -11 37 0
-25 6 -30 0
-30 40 -7 0
-23 -33 15 0
-16 3 -36 0
-22 -1 -45 0
40 -39 27 0
38 -25 -28 0
-35 -15 19 0
43 -36 22 0
5 4 25 0
-42 41 -19 0
-38 21 8 0
39 -36 30 0
42 -39 31 0
38 41 -30 0
-42 31 17 0
-10 -3 -44 0
-18 -26 23 0
5 13 39 0
26 -33 -18 0
26 -15 -23 0
-18 15 -26 0
44 -8 16 0
14 10 -19 0
-14 11 -28 0
6 29 19 0
6 38 -1 0
1 -13 28 0
10 16 8 0
24 35 17 0
-31 36 30 0
45 -44 -14 0
-10 -22 12 0
-35 9 13 0
-28 16 30 0
-3 -40 34 0
11 32 9 0
-21 12 2 0
9 -12 31 0
41 3 -13 0
17 -33 24 0
-9 20 -22 0
29 -2 -26 0
26 -15 -3 0
-24 -26 44 0
9 -12 20 0
-45 -15 -44 0
-31 3 38 0
34 17 7 0
18 -10 -45 0
-39 -35 17 0
-34 5 -11 0
-1 45 -15 0
-32 -44 22 0
31 -16 -38 0
-14 -36 -31 0
35 15 1 0
-17 -14 -42 0
-15 -20 31 0
21 18 23 0
6 -2 34 0
-15 -9 34 0
1 25 21 0
-34 29 -30 0
25 -30 -27 0
41 27 -45 0
-32 -39 -31 0
39 5 3 0
9 28 -35 0
-28 -25 -42 0
31 -34 -32 0
14 6 -27 0
-16 44 -45 0
-44 -25 -19 0
12 17 -18 0
31 17 45 0
-27 -21 14 0
4 -23 -28 0
-19 -28 -25 0
-16 14 24 0
-42 -26 -36 0
24 8 -42 0
-32 -40 36 0
33 36 -41 0
-3 -31 25 0
36 22 -10 0
-44 39 -36 0
-44 -6 -16 0
-24 -41 -39 0
-7 -17 -29 0
-24 3 -9 0
-13 19 27 0
-26 -10 17 0
8 -24 -18 0
36 -24 31 0
16 10 15 0
-2 41 42 0
-17 -42 -31 0
37 9 17 0
-21 -25 -19 0
-5 38 9 0
31 -18 -35 0
-18 14 -21 0
20 -3 -19 0
-41 -19 20 0
-43 -34 14 0
34 -3 -7 0
4 -11 -18 0
19 21 -4 0
-44 25 22 0
-19 -22 -6 0
-28 39 9 0
41 6 32 0
-14 -13 -44 0
-36 -44 33 0
20 -44 13 0
-20 -8 -12 0
-44 34 41 0
33 22 -17 0
-23 45 -11 0
-30 -14 -28 0
34 -4 14 0
-37 39 -18 0
-25 16 -33 0
-3 29 -30 0
-19 40 43 0
29 -9 1 0
-23 -43 12 0
-34 -44 -8 0
-5 -43 13 0
-3 -27 40 0
-5 -23 24 0
-8 -21 -20 0
17 1 -4 0
-40 43 19 0
1 40 -35 0
37 -43 -26 0
1 27 -41 0
-27 -7 35 0
7 -12 31 0
-36 -9 38 0
5 23 10 0
-35 24 -34 0
32 37 36 0
38 12 -26 0
14 -37 -16 0
-5 39 -34 0
-39 12 -29 0
-45 39 13 0
-30 16 -7 0
13 -41 16 0
-11 16 -28 0
11 29 8 0
-31 43 17 0
-27 -4 -34 0
7 -6 5 0
2 -16 -7 0
-11 19 -40 0
10 -31 30 0
16 -22 8 0
44 29 -33 0
35 32 -34 0
-5 -41 39 0
-36 7 20 0
-30 5 -33 0
-32 -38 34 0
-32 2 33 0
12 39 7 0
16 -23 -7 0
-42 27 -11 0
8 37 -28 0
5 40 -9 0
19 -12 -6 0
9 24 26 0
40 8 10 0
-8 -4 -1 0
-44 41 -9 0
28 44 43 0
17 -5 -35 0
