c family=3-SAT n=45 instance=6 seed=2573548008 models=168
c order 35 37 21 33 4 11 28 22 44 26 36 13 3 18 5 38 29 25 30 24 43 1 23 27 41 14 20 45 17 34 39 42 9 32 2 40 31 12 7 10 8 15 16 19 6
c order 23 42 21 38 35 11 24 37 33 19 34 27 7 16 6 45 9 20 31 1 39 14 10 12 43 36 8 18 28 32 26 17 15 13 44 4 41 5 22 29 25 2 3 40 30
c order 19 40 13 37 11 25 44 10 1 6 4 30 42 32 7 34 28 31 21 5 36 35 24 27 38 8 18 16 43 14 39 2 17 29 9 45 22 20 3 12 33 23 41 26 15
c order 44 23 40 42 20 32 18 14 36 8 24 35 33 28 9 2 12 43 39 21 17 22 19 6 26 29 13 37 7 34 41 1 5 4 16 10 25 45 11 27 3 31 30 15 38
c order 26 16 28 33 19 27 3 1 41 42 39 23 2 7 12 29 37 44 25 8 17 18 9 11 6 14 5 21 32 20 31 35 22 38 4 10 15 43 34 36 45 13 30 40 24
c order 37 9 24 43 6 44 23 35 5 10 28 26 2 27 32 36 20 45 14 40 17 25 11 21 38 29 4 33 12 22 13 3 8 39 31 41 1 15 19 16 34 30 42 7 18
c order 14 19 23 9 16 10 5 18 15 26 1 38 27 12 8 25 44 43 4 29 30 45 6 35 17 36 31 34 28 20 37 22 33 21 13 7 42 11 39 2 40 32 24 3 41
c order 33 20 25 2 1 31 22 23 40 29 39 9 16 34 13 7 41 26 6 4 30 11 3 43 44 37 21 42 38 36 15 5 45 17 14 12 28 32 35 8 18 24 27 10 19
c order 9 32 16 13 45 36 3 43 35 40 30 6 44 11 31 14 20 12 5 7 4 42 26 27 29 10 25 18 38 21 41 8 39 37 19 15 28 34 2 24 33 23 1 17 22
c order 27 30 34 33 4 37 25 40 43 39 2 23 5 35 11 8 12 9 10 41 21 42 28 6 31 13 7 44 18 15 36 20 16 19 45 3 32 38 26 1 17 24 22 14 29
p cnf 45 189
-11 -18 -38 0
32 45 23 0
-10 -5 -32 0
-29 2 -14 0
16 34 3 0
22 -28 -26 0
-39 6 -1 0
-6 25 -34 0
12 -34 -22 0
17 32 -33 0
18 14 -37 0
-15 5 39 0
-6 -45 16 0
-44 31 -32 0
-41 -28 20 0
-11 21 -33 0
12 28 1 0
-9 -27 21 0
-21 -18 41 0
5 8 -42 0
2 12 -31 0
8 43 35 0
37 16 -24 0
37 -31 41 0
23 6 -42 0
-15 -30 -11 0
25 33 15 0
15 20 21 0
-3 -42 -8 0
-28 7 6 0
1 -42 36 0
-26 1 -44 0
39 -30 41 0
-44 -21 -25 0
8 -33 32 0
19 -44 21 0
18 -22 15 0
-41 -7 -22 0
45 38 10 0
-15 1 25 0
-43 -19 41 0
1 28 6 0
3 33 -25 0
10 25 4 0
-19 4 -15 0
-14 12 -8 0
21 26 33 0
15 37 -16 0
-45 8 3 0
39 -40 -6 0
-14 -35 24 0
-43 -44 45 0
-5 26 -29 0
-12 -27 -2 0
-16 38 -4 0
39 -22 -31 0
40 -43 7 0
-29 36 -39 0
-40 12 -37 0
17 39 35 0
12 -29 32 0
-42 23 14 0
-9 -7 -32 0
25 -14 -40 0
-22 -11 -33 0
6 14 33 0
-29 24 30 0
29 27 -8 0
9 14 20 0
23 -2 9 0
-18 -37 -13 0
43 1 21 0
32 20 -19 0
23 -28 -41 0
34 12 -16 0
-8 39 -33 0
-16 -20 -33 0
35 -4 16 0
25 13 -16 0
-13 36 15 0
2 32 10 0
-7 9 42 0
-10 20 12 0
-6 39 -42 0
9 23 -19 0
6 -34 -9 0
-28 -17 -45 0
41 40 -30 0
-26 40 16 0
-38 -15 25 0
26 31 -4 0
33 25 -1 0
6 19 -24 0
42 15 1 0
-34 41 -23 0
13 22 15 0
34 30 -32 0
7 -22 41 0
-32 12 43 0
-8 -34 -28 0
29 31 22 0
-35 9 28 0
11 -5 -22 0
17 6 -45 0
-28 7 16 0
-14 43 27 0
27 34 33 0
-34 -11 -27 0
-10 42 22 0
34 28 41 0
-10 -8 -29 0
-24 33 -2 0
-19 -22 -37 0
8 34 -24 0
-7 -38 13 0
36 -38 -3 0
-31 -35 -19 0
17 5 -3 0
-34 21 15 0
-40 -42 -33 0
13 -43 -39 0
42 -37 27 0
36 40 -39 0
15 -38 43 0
-12 42 -17 0
-27 -2 -34 0
-7 22 -29 0
3 -33 41 0
28 36 5 0
-41 -42 25 0
6 38 -22 0
-23 28 18 0
8 -15 -38 0
-32 39 -43 0
16 -8 -31 0
35 -33 -40 0
42 24 -41 0
9 -30 16 0
-3 29 -42 0
13 18 36 0
5 -1 -31 0
-6 -12 -19 0
-44 -32 38 0
-3 32 11 0
12 27 -44 0
-24 -23 11 0
38 26 -10 0
19 -10 -33 0
-5 -38 -36 0
-35 37 -25 0
6 37 40 0
43 -44 -21 0
-40 -18 -23 0
10 30 -16 0
-14 -44 -24 0
34 -37 15 0
-40 12 33 0
-12 15 44 0
18 -43 22 0
-11 -13 -14 0
-42 -6 -11 0
30 40 -39 0
45 15 38 0
-15 16 -24 0
21 -42 -23 0
13 28 -12 0
-20 -32 -22 0
-17 -4 34 0
9 -8 -31 0
42 16 -45 0
42 -18 -15 0
21 6 -28 0
16 43 13 0
10 4 -24 0
-18 -2 12 0
14 -29 -30 0
-17 18 40 0
9 -39 -8 0
-11 -29 37 0
-24 -27 -4 0
-40 -4 -29 0
8 31 29 0
4 -33 -25 0
36 24 11 0
29 11 -23 0
-43 -39 -45 0
-34 14 -3 0
-12 -24 -8 0
13 29 -37 0
