c family=3-SAT n=45 instance=4 seed=2573548008 models=15
c order 14 1 45 40 6 20 43 26 31 24 36 34 41 37 3 33 19 35 32 29 44 10 30 28 2 15 42 16 11 21 23 8 5 22 39 27 12 18 4 9 7 17 13 38 25
c order 34 2 24 21 44 19 31 39 13 35 3 18 33 37 8 22 28 9 14 36 38 1 32 25 6 29 4 17 20 30 27 45 5 41 15 43 26 7 16 11 42 10 23 40 12
c order 25 11 1 8 17 41 45 32 20 26 30 42 22 5 15 44 19 16 27 39 31 7 9 36 43 35 40 28 13 23 34 2 4 33 3 14 18 38 24 29 10 6 37 12 21
c order 31 2 7 30 28 37 5 3 15 27 29 43 45 18 24 20 6 26 41 13 39 21 42 33 40 32 14 17 36 1 23 34 10 12 4 9 11 19 38 35 22 25 8 16 44
c order 40 22 13 30 37 2 21 14 39 23 24 25 8 20 7 35 31 43 6 16 32 34 10 42 4 12 29 17 3 19 26 15 27 41 5 28 45 44 38 36 33 18 9 1 11
c order 17 41 19 6 27 39 36 28 1 3 18 25 22 16 2 23 30 15 11 33 8 10 13 45 24 29 7 44 34 26 43 9 40 37 42 5 35 38 31 4 21 14 20 12 32
c order 4 15 45 10 32 27 12 30 16 44 6 21 39 3 5 26 8 1 14 35 13 29 2 34 28 41 40 38 23 24 36 17 31 7 25 9 18 20 42 37 19 11 22 33 43
c order 9 41 24 8 25 2 7 14 17 5 32 19 33 16 42 40 22 4 12 39 34 23 20 29 18 28 27 6 3 21 1 37 43 36 26 15 11 45 35 13 31 30 38 44 10
c order 39 25 6 7 34 1 36 8 44 23 22 40 45 9 17 29 41 26 32 42 37 4 13 31 2 21 5 11 24 19 15 12 20 27 30 43 28 10 18 14 3 16 38 33 35
c order 42 9 15 4 27 35 13 32 2 20 1 31 12 33 19 14 45 34 21 29 8 16 43 44 26 22 39 41 23 30 37 6 7 36 10 25 17 24 40 3 5 28 11 18 38
p cnf 45 189
41 26 -23 0
-5 -4 32 0
-7 9 31 0
-44 33 -16 0
10 28 17 0
-19 -35 37 0
33 -22 -20 0
19 -29 13 0
19 30 4 0
28 9 32 0
43 7 1 0
-16 -23 -15 0
-30 9 -26 0
-42 -4 -24 0
28 -10 17 0
36 -12 -21 0
-23 39 3 0
-34 -1 -29 0
-37 34 -3 0
8 10 -9 0
-12 13 26 0
20 -10 -12 0
21 30 12 0
13 9 -18 0
-35 25 22 0
35 19 -33 0
-25 34 -22 0
6 28 -31 0
-12 22 -23 0
34 32 27 0
6 -29 18 0
-35 -29 -25 0
12 28 -25 0
19 -38 -14 0
10 21 -25 0
-16 -4 -40 0
41 28 3 0
30 36 -16 0
19 -45 4 0
45 16 -17 0
-40 31 4 0
3 5 -37 0
34 -38 -13 0
-17 7 21 0
41 -17 -22 0
-3 41 -19 0
43 -10 27 0
12 39 -15 0
-2 -8 -11 0
42 7 25 0
33 -44 -34 0
-18 -4 -42 0
7 18 -24 0
-28 -45 20 0
-19 -29 36 0
44 -1 -21 0
-28 -26 7 0
-7 15 4 0
9 -28 43 0
-4 -38 28 0
-31 8 24 0
8 12 -4 0
27 -4 -38 0
31 45 13 0
-17 39 23 0
44 36 3 0
12 -26 -23 0
33 35 -30 0
-1 18 27 0
-31 -19 -42 0
43 -38 9 0
31 -45 -24 0
20 -7 -19 0
39 -25 45 0
43 29 15 0
-5 27 -37 0
-4 -23 -2 0
42 -45 -10 0
-7 41 -32 0
-9 13 -12 0
21 42 6 0
-3 -42 -16 0
7 -18 -9 0
-30 -42 -2 0
11 6 25 0
-23 -32 5 0
-33 -40 11 0
-17 -29 9 0
-17 42 10 0
-26 -18 -25 0
45 -31 23 0
-23 18 -39 0
19 -23 -10 0
22 5 -25 0
37 -35 -5 0
-37 30 20 0
-29 22 -2 0
7 21 -3 0
34 -13 -19 0
39 -27 22 0
-44 -22 14 0
-16 -32 20 0
-13 -18 31 0
-24 42 -36 0
-22 18 -25 0
39 27 37 0
-34 18 -15 0
-29 -23 14 0
4 -27 18 0
-44 34 -20 0
22 -3 -27 0
1 7 -25 0
-32 -34 14 0
21 5 -23 0
26 -3 -12 0
-25 31 -18 0
-15 -6 -29 0
18 -44 32 0
-6 -4 -45 0
-1 -30 -33 0
-28 44 -42 0
36 -7 -19 0
-30 37 -31 0
-30 -45 -5 0
25 11 24 0
22 -11 35 0
-11 25 32 0
44 -35 -6 0
13 33 10 0
-22 19 -21 0
2 -38 -5 0
-9 -4 36 0
-21 -39 40 0
-38 -41 -37 0
14 -5 -13 0
-19 -44 -41 0
-27 -30 -14 0
11 -24 -9 0
-32 -42 -26 0
39 33 21 0
-2 18 -5 0
32 1 24 0
19 -23 -35 0
11 25 -23 0
-34 2 5 0
-6 -28 -17 0
23 -30 8 0
-1 45 9 0
-36 -6 -11 0
11 -26 15 0
-8 -44 -41 0
26 -21 37 0
30 12 27 0
-33 13 -15 0
23 -34 2 0
-20 33 6 0
-29 4 -32 0
4 23 27 0
24 9 3 0
13 7 -9 0
45 -27 -11 0
-20 14 -39 0
-6 13 25 0
16 -39 -45 0
-9 -5 -6 0
-1 41 18 0
-25 -6 -8 0
-35 -41 -1 0
10 12 -24 0
39 -40 15 0
25 15 12 0
24 -16 -1 0
-17 22 -45 0
21 44 -41 0
36 -18 32 0
7 27 4 0
-17 -32 -6 0
-40 28 25 0
3 -19 -22 0
-45 -28 -23 0
-9 23 -22 0
34 -40 41 0
37 -1 34 0
-6 -45 -13 0
-1 38 28 0
-42 -10 43 0
-21 2 -41 0
35 40 -7 0
-37 32 12 0
