c family=3-SAT n=45 instance=2 seed=2573548008 models=64
c order 34 3 1 37 17 33 14 4 19 8 6 12 27 32 9 23 44 16 24 28 31 45 2 7 20 43 35 41 26 25 5 21 36 29 11 38 18 39 10 22 15 30 42 40 13
c order 37 33 26 35 27 25 18 36 6 15 39 9 38 19 40 4 34 20 10 43 1 28 30 7 13 14 8 23 31 32 45 12 2 17 24 22 41 44 5 3 11 16 29 21 42
c order 41 28 2 1 34 31 45 42 35 19 15 22 11 20 29 9 26 17 32 44 37 21 24 4 40 8 10 18 33 12 43 6 27 14 38 5 23 30 36 16 39 25 7 13 3
c order 29 26 6 41 16 42 25 36 37 28 40 21 15 39 35 22 2 32 9 11 19 45 33 38 44 4 31 43 5 27 8 1 14 34 12 7 24 3 10 23 30 20 18 17 13
c order 30 7 20 38 36 25 44 15 17 29 11 33 5 6 3 43 40 13 31 24 4 14 41 1 27 42 22 39 23 32 35 2 21 37 18 34 26 16 45 10 8 9 12 28 19
c order 42 29 3 11 25 9 21 31 43 14 26 33 19 10 16 45 6 41 18 39 13 4 24 2 5 7 37 20 8 22 1 27 34 40 38 17 28 44 15 23 12 35 30 32 36
c order 14 15 24 21 3 19 35 16 28 25 34 23 5 26 2 39 44 17 27 18 40 45 6 42 36 30 11 8 1 38 4 29 33 20 13 12 32 41 7 9 31 43 37 10 22
c order 43 17 6 36 41 31 34 13 25 2 22 21 7 42 12 19 29 27 45 37 28 24 8 38 18 16 15 3 40 11 4 9 39 33 10 5 44 1 20 14 30 35 26 23 32
c order 22 43 3 10 45 18 44 14 13 39 36 27 5 11 38 32 20 17 31 30 7 9 19 37 15 21 2 1 40 24 6 4 28 34 12 16 29 23 33 42 35 8 41 25 26
c order 2 34 22 16 33 39 27 4 17 26 18 9 44 41 21 1 29 45 6 7 20 30 12 23 32 15 40 31 19 10 14 25 36 3 8 5 13 35 28 37 38 11 24 42 43
p cnf 45 189
-6 28 26 0
25 -14 41 0
15 30 10 0
24 -23 45 0
-28 18 4 0
-35 -44 -9 0
-40 -10 -43 0
-12 5 -29 0
41 1 -28 0
7 23 -5 0
-17 36 29 0
-24 -33 -30 0
-1 -42 15 0
26 -14 -7 0
32 10 -39 0
22 -6 29 0
-45 -24 18 0
-15 -23 -18 0
-18 35 30 0
-42 6 -14 0
22 -23 -35 0
20 -4 -24 0
29 9 40 0
37 -43 -6 0
-1 -17 14 0
-17 -26 -29 0
-32 36 42 0
-18 -43 -35 0
30 34 -3 0
-32 23 10 0
-17 23 -12 0
18 -37 31 0
-30 -38 -44 0
32 26 30 0
-27 -20 28 0
18 -10 1 0
-37 -21 8 0
-2 -43 -23 0
-25 22 -5 0
-14 -17 -22 0
-25 -44 -3 0
-45 33 7 0
34 -32 17 0
-1 24 -28 0
-35 -43 -11 0
14 21 4 0
-26 -36 -43 0
-11 -38 -31 0
6 38 1 0
1 9 -7 0
5 -16 29 0
24 7 -32 0
24 9 29 0
-6 -28 -17 0
-39 38 -31 0
15 -5 -24 0
-45 -18 6 0
33 -27 36 0
-13 -18 37 0
-11 44 -2 0
-1 21 5 0
30 -27 4 0
-36 19 -44 0
-30 10 -2 0
45 44 -13 0
-35 14 26 0
19 12 -8 0
25 -41 -15 0
-19 -23 26 0
-44 14 -4 0
42 -27 24 0
44 -13 30 0
17 22 -23 0
-16 5 -7 0
-43 40 -26 0
34 -9 -32 0
-6 -31 -18 0
10 8 37 0
-23 28 18 0
1 -38 34 0
16 -13 32 0
29 18 38 0
3 -28 5 0
27 -16 2 0
-36 -14 -5 0
-1 -39 -19 0
-38 -12 36 0
34 -21 33 0
-27 13 -43 0
6 -22 24 0
-12 -31 38 0
5 -30 -16 0
-30 18 -45 0
37 24 -3 0
-5 36 34 0
33 -8 -15 0
-28 -16 -35 0
6 7 -45 0
25 32 33 0
-2 33 -26 0
-2 -21 14 0
-30 -23 -36 0
16 30 -12 0
13 2 36 0
-36 -15 -25 0
2 10 12 0
8 14 -32 0
-36 -14 -37 0
41 -37 21 0
-21 13 10 0
-3 14 26 0
20 45 30 0
-3 17 32 0
28 -5 -45 0
36 -43 -15 0
-28 8 -16 0
-41 30 -28 0
-3 -1 43 0
18 -38 -14 0
27 31 -42 0
-21 -33 -40 0
-42 11 -38 0
29 -42 15 0
-26 44 -13 0
-43 -26 -2 0
16 31 3 0
1 30 -31 0
-8 -33 34 0
-30 -17 12 0
37 4 13 0
-32 -12 -3 0
4 -30 -6 0
-38 18 -44 0
-35 -36 -17 0
37 14 -10 0
8 43 -7 0
1 36 -16 0
6 10 44 0
37 -18 -11 0
40 24 -32 0
26 -23 -27 0
-24 -22 -42 0
-28 1 -31 0
-4 -23 -24 0
14 15 13 0
-27 -1 36 0
-31 26 33 0
24 -41 20 0
-3 26 5 0
-7 -37 -1 0
-31 39 5 0
15 -30 -41 0
-20 3 42 0
37 -3 -26 0
25 -19 -12 0
-8 32 31 0
40 -39 45 0
-15 9 -19 0
-5 10 25 0
7 -16 -5 0
-36 -16 -41 0
-43 37 -9 0
-36 -43 14 0
9 -45 -35 0
29 -33 10 0
-28 31 -20 0
42 -13 8 0
-9 18 32 0
37 44 -40 0
-17 -45 -39 0
19 -12 14 0
29 -2 -11 0
26 -38 30 0
30 -34 40 0
-40 -23 44 0
9 -8 -13 0
19 -27 -36 0
-25 -42 8 0
36 -17 34 0
-30 38 -41 0
-36 -32 -14 0
39 -17 -1 0
2 -33 -6 0
-20 -6 31 0
18 24 36 0
-34 41 27 0
-1 30 -13 0
-38 5 23 0
-28 40 34 0
