c family=3-SAT n=45 instance=8 seed=2573548008 models=4558
c order 6 15 41 40 11 5 16 22 39 9 44 28 10 26 17 12 33 37 3 25 13 43 29 19 4 32 35 20 36 8 27 38 1 24 7 31 45 34 2 42 30 23 18 14 21
c order 13 40 21 45 43 33 24 27 20 19 31 1 42 36 7 37 2 16 4 6 44 17 3 28 12 30 25 22 32 39 18 34 26 41 38 14 8 35 11 10 29 23 15 5 9
c order 11 40 41 5 38 34 25 30 22 31 39 21 6 8 37 36 26 13 14 19 10 35 3 23 1 24 42 32 33 44 28 43 9 12 17 16 45 20 27 7 18 2 15 4 29
c order 1 43 17 37 27 34 10 41 5 31 11 2 4 20 25 26 30 45 13 40 42 19 35 24 12 16 36 18 39 9 21 32 14 7 3 38 29 22 15 6 8 44 33 23 28
c order 37 5 42 38 26 13 30 8 14 23 11 10 34 2 40 25 4 36 31 41 24 28 44 16 35 1 19 6 21 32 12 29 43 7 27 22 45 33 18 17 15 39 20 3 9
c order 8 5 45 40 17 32 20 15 33 37 18 11 43 26 7 22 44 6 23 13 31 35 14 30 39 1 10 12 4 9 29 38 27 3 21 42 25 19 16 24 34 2 41 36 28
c order 19 28 31 24 21 27 3 18 29 37 45 14 34 5 1 40 17 15 25 26 16 7 10 30 11 32 42 23 20 9 8 6 33 2 35 38 4 39 41 22 12 13 44 43 36
c order 1 20 27 42 18 7 5 34 4 9 28 40 26 14 12 39 36 31 11 23 3 19 41 8 35 44 21 15 17 29 45 37 2 33 6 30 22 25 32 24 13 43 16 38 10
c order 16 39 27 1 44 19 13 42 4 25 5 9 40 2 21 10 36 29 45 6 28 41 11 7 33 24 17 12 38 23 20 14 43 30 37 22 31 3 34 26 35 32 8 18 15
c order 27 43 35 32 39 10 15 17 31 41 13 45 26 11 19 16 3 33 34 12 14 9 8 21 30 18 44 25 5 40 37 24 20 23 38 28 29 1 6 36 4 42 2 22 7
p cnf 45 189
-25 10 -16 0
-4 -38 44 0
34 31 1 0
-31 36 8 0
39 18 -25 0
-39 -3 -22 0
22 32 39 0
15 -33 -32 0
-32 -2 -36 0
40 -42 11 0
38 44 12 0
41 -39 -15 0
28 26 31 0
-19 -3 -40 0
-24 27 -45 0
-26 42 22 0
43 -41 40 0
23 -4 1 0
-33 -41 10 0
34 -39 -43 0
-31 30 22 0
-23 18 -2 0
37 26 -39 0
27 -11 -18 0
20 28 -31 0
-2 -27 -28 0
-7 21 32 0
-45 -44 -1 0
-20 -4 28 0
-19 30 -43 0
-32 41 9 0
-6 32 16 0
40 -2 -39 0
-2 12 30 0
5 3 11 0
-41 16 -32 0
-3 -10 31 0
20 -45 40 0
9 24 37 0
30 20 -23 0
-23 41 38 0
23 6 -41 0
4 -13 -3 0
-44 -14 -43 0
10 -7 -22 0
-19 13 -16 0
18 -28 -30 0
8 -21 35 0
45 42 -12 0
20 43 -16 0
28 -5 27 0
-9 -42 40 0
-1 -8 -25 0
-8 17 -27 0
23 -12 -6 0
-19 -9 -15 0
26 8 -18 0
7 -45 31 0
31 40 -22 0
-42 14 -41 0
41 -2 -12 0
2 32 29 0
-30 19 9 0
28 9 -44 0
-36 -24 15 0
15 30 -34 0
27 43 -40 0
-4 -40 36 0
17 -32 44 0
13 42 38 0
41 27 13 0
12 -26 -44 0
14 31 7 0
-26 14 -22 0
-31 -37 -15 0
42 27 30 0
8 -11 27 0
41 -27 -19 0
-40 -2 -32 0
-36 11 26 0
19 9 -10 0
-15 23 20 0
36 15 -35 0
40 18 -17 0
-36 34 -30 0
-9 5 20 0
36 -38 42 0
16 2 22 0
-35 1 -17 0
-7 22 42 0
-10 32 44 0
17 -30 -7 0
-34 1 -10 0
41 7 32 0
-42 9 45 0
-21 -30 -26 0
7 21 40 0
-17 -11 13 0
3 43 -37 0
-29 36 16 0
-38 13 -39 0
-42 18 43 0
26 -14 -16 0
44 32 29 0
-13 -19 -5 0
-31 35 34 0
-26 -43 -23 0
29 -1 -44 0
38 -42 -16 0
-8 14 -15 0
-14 -7 -34 0
37 -43 -28 0
-34 -37 -5 0
-12 41 -28 0
-36 -22 16 0
1 -29 -10 0
42 29 -44 0
-2 33 35 0
7 -20 -3 0
-34 15 -36 0
1 -12 -17 0
23 -20 -32 0
41 -28 -37 0
14 29 -10 0
20 -7 -16 0
11 -23 -12 0
-24 -31 22 0
-35 -42 -25 0
8 -30 -15 0
27 -10 -11 0
9 -24 14 0
-16 20 36 0
12 7 -3 0
-42 37 -2 0
-30 11 -10 0
-34 28 -42 0
30 -41 -17 0
-4 8 23 0
-34 -17 -7 0
22 -12 37 0
-38 -39 -1 0
27 3 -33 0
18 39 23 0
28 3 -24 0
-32 -10 -26 0
18 14 -40 0
-15 2 -39 0
32 -23 -24 0
14 35 30 0
39 -29 -19 0
-29 -22 40 0
-17 -4 9 0
-20 11 -7 0
36 -38 -15 0
36 45 -30 0
24 5 -25 0
4 27 42 0
15 33 -16 0
-10 18 21 0
-37 -43 -32 0
-32 -23 -12 0
-10 -45 -4 0
-34 11 23 0
-15 32 -39 0
18 32 -5 0
3 -38 11 0
-7 -31 -40 0
-39 1 22 0
-33 45 -36 0
-42 -23 1 0
34 21 -31 0
23 -43 -28 0
38 -21 40 0
14 17 -2 0
-27 28 -41 0
20 26 12 0
-37 7 44 0
34 37 -29 0
36 25 22 0
8 -43 29 0
4 -37 -5 0
36 -37 -19 0
3 19 32 0
26 -23 41 0
30 2 13 0
-6 28 -7 0
7 -37 -14 0
-35 -41 -19 0
26 -8 -11 0
