c family=3-SAT n=45 instance=9 seed=2573548008 models=349
c order 24 28 31 22 21 44 10 17 33 40 45 12 19 38 18 6 9 25 2 14 27 1 35 43 8 23 41 4 20 13 3 16 37 5 30 42 29 15 36 7 34 11 26 39 32
c order 4 42 7 17 15 28 36 24 38 6 22 18 30 32 5 29 19 2 21 14 41 12 10 35 8 11 26 13 3 39 45 34 43 31 44 20 25 33 37 16 23 1 40 27 9
c order 44 31 42 39 23 3 34 17 28 20 6 41 10 16 30 13 25 24 19 1 9 5 29 12 26 27 36 43 11 35 37 2 7 4 32 14 22 18 8 15 33 40 38 21 45
c order 15 42 9 44 32 39 34 27 31 8 11 13 1 21 45 26 12 28 17 6 3 25 24 37 40 22 29 43 41 23 33 35 19 14 7 30 10 38 5 2 18 20 4 16 36
c order 13 35 1 27 3 22 12 36 33 41 21 23 15 32 28 2 42 20 44 19 10 18 43 7 26 17 34 37 11 16 39 8 4 5 14 29 24 25 45 40 38 31 9 30 6
c order 24 25 18 40 5 9 31 7 23 8 22 13 11 21 2 6 36 27 39 32 17 1 43 14 41 30 4 15 28 38 35 16 33 12 45 3 42 19 20 10 44 34 26 37 29
c order 44 36 8 12 39 14 26 1 15 42 32 7 10 2 28 21 35 18 43 23 38 31 9 45 16 4 3 22 19 27 6 11 29 41 25 33 30 37 13 34 20 5 24 17 40
c order 45 6 42 10 21 22 41 20 19 12 36 5 37 25 27 23 24 14 39 8 29 44 15 38 16 34 17 18 35 26 43 33 40 31 32 2 7 9 3 28 11 1 13 4 30
c order 23 32 25 43 24 22 15 6 14 9 16 41 35 7 42 34 29 27 30 44 28 26 39 33 12 21 45 5 3 2 19 13 11 17 40 4 31 37 36 10 8 18 1 20 38
c order 22 4 21 28 40 10 43 11 13 17 29 18 8 38 32 16 19 39 42 41 45 24 1 20 9 15 31 5 26 7 12 2 30 36 25 27 23 35 33 44 3 6 14 34 37
p cnf 45 189
35 -1 -21 0
17 45 13 0
-15 20 -5 0
-15 13 -20 0
-20 21 13 0
15 36 16 0
34 -26 -7 0
9 -10 -27 0
13 -38 24 0
-23 -21 -18 0
1 -16 5 0
-26 -23 15 0
33 -21 26 0
-11 -42 10 0
-45 -29 32 0
-34 27 -18 0
-32 -25 28 0
15 -17 45 0
-24 17 3 0
39 -16 -13 0
-38 -12 2 0
-18 30 33 0
1 -25 -41 0
43 -39 -13 0
3 -33 -26 0
-37 15 2 0
33 25 -15 0
-28 23 -4 0
23 22 27 0
-8 15 -3 0
26 24 21 0
44 -3 11 0
35 -29 -27 0
11 26 -3 0
-35 -41 21 0
44 6 -39 0
42 -31 19 0
-6 -19 22 0
21 37 -26 0
-32 7 -16 0
-38 -1 -43 0
-10 43 15 0
41 -25 -15 0
44 -26 -41 0
-41 -40 -37 0
14 3 6 0
16 -2 26 0
-32 9 7 0
7 14 33 0
-9 26 -17 0
-8 6 14 0
45 -35 3 0
28 19 33 0
30 13 19 0
42 -31 -18 0
14 -16 -30 0
-43 -32 -13 0
10 44 -45 0
21 18 -29 0
-25 5 -6 0
-5 -15 -10 0
-45 -33 -17 0
1 43 16 0
3 21 2 0
3 -36 19 0
40 11 19 0
-23 -30 32 0
-25 28 43 0
-2 42 -9 0
34 -7 -41 0
-12 20 26 0
-23 -6 11 0
-34 -32 -38 0
-30 -39 17 0
-26 -8 -23 0
44 23 15 0
26 1 4 0
-35 -26 19 0
-14 -39 -42 0
12 -10 35 0
14 -31 43 0
43 -40 -10 0
-21 -35 13 0
-9 -44 -37 0
29 -31 -2 0
33 26 -31 0
10 -33 12 0
21 30 -16 0
22 -31 11 0
3 26 4 0
18 41 34 0
27 20 -8 0
-45 28 -11 0
-26 -15 -6 0
28 -34 38 0
30 -34 25 0
-45 15 25 0
-21 -30 39 0
36 11 -17 0
-11 -20 -32 0
10 -28 12 0
-1 -15 40 0
-45 -24 -3 0
-16 -29 -3 0
26 -14 2 0
-26 -45 39 0
31 -11 45 0
1 25 24 0
-27 22 1 0
-19 35 25 0
-11 29 -15 0
-36 41 -44 0
41 4 -6 0
-23 18 28 0
-27 -13 -21 0
-41 36 38 0
14 6 5 0
-3 22 36 0
41 -19 -1 0
41 -4 15 0
20 -24 19 0
-4 -45 -29 0
-2 -38 8 0
36 5 14 0
-11 4 -2 0
25 -43 -28 0
27 45 3 0
-32 -25 -29 0
42 -10 -32 0
-20 -7 -5 0
-13 1 42 0
13 39 -35 0
-42 20 2 0
-25 -23 45 0
-14 22 3 0
-32 29 -22 0
-3 -28 4 0
10 29 -35 0
25 -37 -32 0
21 16 12 0
34 -43 32 0
-40 28 -36 0
45 26 -39 0
-2 -11 8 0
-14 17 30 0
-20 -42 8 0
24 13 35 0
-44 -23 28 0
11 24 -1 0
-33 -31 12 0
9 37 34 0
35 -1 5 0
-24 -38 -21 0
7 36 -16 0
13 22 18 0
3 -25 36 0
7 -34 -18 0
2 -18 34 0
4 2 24 0
-7 -24 -21 0
45 25 34 0
8 -42 4 0
-42 36 -29 0
28 -5 -9 0
31 -42 -2 0
-41 12 -10 0
22 7 6 0
25 8 30 0
33 -10 -1 0
7 -36 20 0
-16 6 43 0
-17 -15 6 0
22 -5 -20 0
37 36 31 0
-38 -19 -31 0
-42 -31 -4 0
-41 -29 12 0
33 18 5 0
44 9 -7 0
20 6 14 0
28 45 5 0
5 23 3 0
1 36 -39 0
44 4 12 0
11 6 -42 0
-1 -21 28 0
-4 22 3 0
-32 36 42 0
38 21 -16 0
