c family=3-SAT n=45 instance=1 seed=2573548008 models=651
c order 38 39 37 12 21 35 34 36 5 44 18 25 45 29 14 6 28 33 31 1 40 4 27 3 10 8 20 16 9 17 41 32 15 2 23 22 30 43 13 42 11 7 19 24 26
c order 20 19 36 41 28 16 5 30 38 10 24 45 34 42 7 18 9 40 13 4 35 29 2 23 39 8 32 14 22 31 17 26 1 33 15 11 25 44 27 43 37 3 21 6 12
c order 6 2 34 21 41 39 19 26 38 22 8 45 1 4 13 28 27 37 3 30 20 5 12 32 44 11 35 36 17 15 9 24 23 16 10 40 42 33 18 25 14 29 7 43 31
c order 16 32 44 7 2 4 35 27 45 13 41 8 43 17 18 22 12 40 19 15 30 36 9 24 31 10 26 11 23 29 42 3 21 38 37 14 39 6 1 28 20 5 34 25 33
c order 4 41 24 37 20 2 1 40 28 10 5 6 13 14 23 30 25 12 26 32 8 42 3 43 45 31 9 22 19 17 44 33 34 15 38 39 27 16 7 36 11 29 35 21 18
c order 40 41 29 25 26 30 37 5 13 43 31 17 18 38 33 39 19 2 10 34 14 7 24 35 11 8 45 1 4 12 36 32 44 27 28 6 9 42 20 22 16 3 23 15 21
c order 37 20 31 2 13 19 14 4 18 35 5 32 12 22 25 17 9 15 40 24 34 3 38 42 6 36 30 29 33 11 43 27 41 16 28 10 45 7 44 39 23 21 1 26 8
c order 33 34 22 9 36 32 8 18 31 2 13 41 20 29 37 1 17 10 42 23 28 39 30 27 11 26 5 25 45 24 15 12 4 6 19 44 7 3 43 38 35 16 40 14 21
c order 45 3 36 32 38 43 37 14 10 5 28 22 2 1 40 35 44 18 30 20 21 11 41 7 34 39 6 4 27 9 8 23 19 17 13 31 15 25 29 24 16 12 26 42 33
c order 2 28 38 33 31 10 12 24 30 5 43 1 26 27 44 17 11 23 19 25 36 32 13 29 35 6 20 8 18 34 15 16 40 22 4 9 39 14 41 3 7 37 45 42 21
p cnf 45 189
-45 13 -3 0
22 38 -15 0
-18 -12 41 0
-36 25 -17 0
-13 19 27 0
-40 7 33 0
-33 9 39 0
11 -15 23 0
30 -2 -18 0
-13 -31 -14 0
9 15 -20 0
26 -23 12 0
-3 -44 14 0
-5 -44 42 0
9 -21 25 0
-21 -38 -43 0
7 38 20 0
15 36 -43 0
-17 -2 26 0
-33 42 -6 0
-9 44 4 0
-39 24 -14 0
-21 -3 37 0
-32 -41 -24 0
-32 -21 40 0
-7 -11 -32 0
22 -19 32 0
-28 -25 -36 0
32 -36 37 0
-9 -31 3 0
45 42 -26 0
-7 -38 -37 0
-6 34 -35 0
-38 -37 35 0
18 -7 -26 0
-7 1 8 0
38 34 -3 0
42 -23 -13 0
-23 -44 -29 0
-34 -12 -2 0
-10 -17 15 0
20 42 34 0
-10 -36 37 0
25 12 9 0
10 31 -45 0
45 25 26 0
19 37 12 0
-39 20 -36 0
24 -39 -30 0
32 -25 7 0
-45 22 1 0
-10 -39 19 0
-14 -41 -17 0
-38 5 10 0
14 38 18 0
37 16 39 0
25 27 2 0
-34 20 -12 0
-17 -1 37 0
1 -22 4 0
2 10 11 0
30 3 -34 0
23 -1 -6 0
-15 -45 -35 0
-1 -11 -33 0
37 -44 12 0
29 -6 -45 0
43 24 -26 0
-36 -31 -38 0
-19 38 40 0
15 -5 33 0
-13 -20 39 0
-28 4 -24 0
-3 -1 23 0
35 7 13 0
21 -43 23 0
-43 24 -4 0
44 -30 22 0
-29 -10 7 0
8 38 -30 0
-11 31 -44 0
-25 1 -13 0
13 14 -26 0
-36 19 29 0
40 24 -6 0
4 18 31 0
-5 -15 -39 0
-32 -44 -9 0
-32 30 18 0
-8 -30 -18 0
-28 -22 -42 0
24 -36 -43 0
-9 -41 -28 0
41 -13 5 0
9 -3 -5 0
-22 31 -6 0
-17 -45 -40 0
43 32 38 0
24 -37 39 0
7 25 9 0
29 -37 35 0
25 -39 3 0
-33 27 8 0
-18 -25 39 0
-45 3 35 0
41 -42 20 0
-43 34 38 0
36 -42 -18 0
-40 2 32 0
-8 -2 -23 0
6 -43 -44 0
33 3 -34 0
-31 -21 29 0
2 43 45 0
6 -3 24 0
16 -20 40 0
24 5 23 0
5 24 13 0
-5 29 -35 0
18 -42 38 0
-16 44 31 0
19 24 1 0
10 -32 34 0
-20 -11 37 0
-41 -42 -33 0
-40 31 3 0
40 34 -17 0
39 -28 -10 0
-16 -44 9 0
37 40 -31 0
-34 -4 7 0
-44 -27 26 0
-7 32 36 0
-19 32 -40 0
30 28 26 0
-39 -17 45 0
-22 -39 -12 0
-11 -42 13 0
-41 29 -43 0
-35 -3 -15 0
-3 -33 18 0
-12 41 -28 0
-18 -20 42 0
-43 -15 45 0
-6 -27 26 0
-41 28 8 0
-35 44 -19 0
37 1 23 0
-13 -45 34 0
-25 16 -15 0
-18 22 23 0
37 36 -9 0
-2 27 14 0
-21 34 8 0
-38 -8 -11 0
-20 -40 -13 0
7 -2 8 0
-34 -10 28 0
-21 -32 23 0
32 38 16 0
30 6 36 0
3 19 35 0
43 38 -21 0
-4 16 -10 0
16 -25 -30 0
5 -17 -16 0
-32 6 -29 0
19 14 -27 0
-44 27 -31 0
37 12 31 0
-42 -29 -35 0
45 37 2 0
-18 33 40 0
33 23 -32 0
24 17 15 0
35 -41 -20 0
30 41 29 0
33 -30 -15 0
-30 6 14 0
-21 -16 -24 0
-11 38 -15 0
-24 22 -40 0
-36 -38 39 0
-36 3 31 0
32 -20 30 0
-29 -23 40 0
-24 20 19 0
44 -36 -19 0
-21 18 -14 0
