c family=3-SAT n=50 instance=5 seed=2573548008 models=13
c order 10 26 22 24 37 38 43 19 17 34 4 30 5 48 1 27 12 31 9 20 47 2 14 11 40 16 21 46 3 25 50 7 39 49 41 13 33 28 18 45 44 8 29 42 35 36 15 23 32 6
c order 2 4 3 37 17 21 48 31 41 46 43 1 10 49 23 24 15 20 27 38 42 7 22 12 44 11 25 8 19 35 50 28 45 9 34 16 30 26 13 5 32 29 18 36 6 14 39 40 33 47
c order 46 28 37 24 30 47 10 45 27 3 32 34 43 6 7 29 8 35 11 49 13 26 42 23 12 20 25 16 14 17 21 2 50 22 48 31 38 1 18 9 39 44 41 19 4 36 15 40 33 5
c order 32 25 13 11 38 24 26 39 28 29 42 3 43 45 46 27 22 23 2 14 36 20 6 33 7 16 50 44 48 9 47 5 4 49 15 8 1 35 30 17 34 21 18 31 40 37 41 19 10 12
c order 14 35 47 31 44 49 16 20 28 22 34 18 25 36 6 43 3 29 24 39 30 42 13 4 5 45 15 8 50 9 21 17 33 2 32 27 48 23 38 11 40 26 10 7 12 1 46 19 37 41
c order 7 26 37 43 28 10 49 11 25 5 36 31 20 9 40 14 32 4 48 1 34 16 13 39 29 2 3 30 42 27 6 18 23 44 47 35 22 33 21 15 41 17 46 8 50 38 12 45 19 24
c order 10 3 15 9 11 2 31 4 27 44 30 22 42 24 12 16 8 13 23 41 45 46 47 17 1 43 32 25 7 21 26 38 6 29 20 40 28 35 39 18 33 36 50 34 14 5 48 37 49 19
c order 40 19 24 32 47 11 29 37 1 13 3 10 27 5 48 21 44 25 22 39 50 20 31 17 4 28 49 8 43 46 18 16 35 23 7 38 41 14 12 30 33 34 9 6 36 42 45 26 2 15
c order 30 46 34 17 14 7 41 33 42 15 5 35 44 8 24 36 13 49 20 29 39 21 25 26 40 48 10 38 1 11 50 12 28 45 37 4 3 22 43 23 18 2 47 9 32 19 16 27 6 31
c order 46 31 25 22 34 12 44 38 41 11 14 30 17 39 9 35 32 21 49 50 2 20 33 29 3 37 43 16 10 4 48 5 28 27 47 1 24 13 42 8 19 18 36 6 15 45 7 40 26 23
p cnf 50 210
-9 -32 37 0
-11 39 -45 0
-44 -47 -46 0
41 -50 21 0
-48 -7 9 0
14 -7 -11 0
-39 -47 -18 0
44 16 19 0
-30 -22 -35 0
-48 -35 42 0
-23 16 47 0
43 40 18 0
-41 27 40 0
48 -4 22 0
-17 1 28 0
26 -34 -43 0
24 -33 43 0
-22 40 -32 0
-38 -49 4 0
-4 36 -24 0
-4 39 -47 0
39 -3 28 0
4 -9 -6 0
-37 41 34 0
39 10 50 0
-39 33 -18 0
-23 3 -29 0
-20 -13 48 0
8 1 50 0
28 11 -10 0
-41 -2 48 0
47 -12 -7 0
41 25 36 0
-28 30 -6 0
38 7 48 0
20 -22 -33 0
-44 21 32 0
-32 45 -36 0
-35 29 -4 0
39 36 29 0
27 -17 40 0
12 -25 -40 0
-6 -16 42 0
-2 -41 -9 0
-46 22 -17 0
-49 17 -42 0
-6 -31 -49 0
-16 -46 -10 0
46 50 -49 0
-41 -4 46 0
36 -46 31 0
-43 -44 -49 0
46 16 -5 0
-11 -43 46 0
13 -46 20 0
-34 -15 46 0
-2 5 10 0
-6 -13 46 0
-31 38 33 0
20 29 36 0
11 -9 34 0
46 43 -15 0
-45 -10 35 0
24 -22 31 0
9 -14 -28 0
44 46 -7 0
23 14 45 0
-40 -11 -8 0
-15 20 -5 0
3 -29 -31 0
31 27 7 0
-8 7 -45 0
-31 -32 18 0
4 27 -18 0
10 49 -1 0
-35 -11 -44 0
-23 -48 -1 0
-40 25 -38 0
-1 -48 -19 0
-46 27 -31 0
13 -24 12 0
-39 30 -16 0
-17 -5 1 0
-39 26 31 0
-24 36 14 0
38 -23 -44 0
-12 17 -23 0
-17 50 45 0
-22 -8 4 0
11 -31 -29 0
-27 33 38 0
35 -21 -45 0
-48 -32 25 0
28 -32 1 0
-15 -47 26 0
33 -9 -18 0
11 -48 -10 0
-10 37 -2 0
8 -27 -31 0
7 -30 -48 0
26 34 -44 0
19 7 14 0
-27 44 -22 0
-44 3 29 0
28 31 3 0
-28 20 17 0
-5 -35 41 0
-48 37 17 0
37 9 -40 0
38 -3 26 0
4 23 -48 0
-46 28 -16 0
-14 49 16 0
17 -9 -29 0
26 36 -17 0
-8 -10 2 0
27 2 21 0
-23 -26 15 0
32 3 -17 0
-44 15 -33 0
-2 -42 25 0
26 -49 -38 0
-30 23 15 0
36 -14 -9 0
30 -11 28 0
-25 34 -48 0
44 -50 -20 0
38 -30 -24 0
44 13 16 0
30 -37 -6 0
-24 47 -26 0
26 -12 47 0
-41 29 -25 0
8 47 -19 0
24 48 -13 0
-8 -38 3 0
14 -3 -27 0
-29 18 24 0
26 -18 4 0
7 -33 39 0
45 -31 37 0
-43 -15 9 0
-40 20 -4 0
-48 -37 -13 0
47 -8 19 0
-23 9 48 0
19 -2 -28 0
-24 -37 43 0
41 -5 -32 0
-26 33 -2 0
-24 -26 15 0
-48 -45 36 0
9 -44 -6 0
33 -35 -17 0
-30 11 -14 0
-41 -18 13 0
-18 -32 -26 0
-4 -36 -20 0
25 49 -32 0
-17 28 -45 0
49 2 20 0
-43 -22 47 0
30 -35 29 0
3 -31 -10 0
-2 -22 45 0
-31 -26 7 0
43 40 -45 0
9 1 -2 0
-45 -1 2 0
33 -43 -7 0
27 22 20 0
-8 -10 45 0
-9 22 -39 0
-29 21 20 0
-42 -28 -49 0
-22 -43 -6 0
-14 -10 38 0
-36 -22 -16 0
44 1 -9 0
-38 -29 -35 0
-22 23 -40 0
12 -23 31 0
-25 32 23 0
-12 -46 -32 0
-40 3 -8 0
49 -37 21 0
-9 24 -3 0
-29 -41 -37 0
-16 -8 -20 0
12 -33 -1 0
-41 34 -42 0
-29 20 5 0
-31 -9 42 0
-44 -19 21 0
-1 10 11 0
2 -36 15 0
17 50 -6 0
38 22 -2 0
4 16 1 0
-28 -22 -38 0
-11 -22 20 0
-28 -26 -48 0
33 -11 17 0
30 -33 -28 0
21 -49 -19 0
39 6 -1 0
-8 -40 -45 0
22 37 -11 0
-20 32 48 0
-49 34 15 0
