c family=3-SAT n=50 instance=2 seed=2573548008 models=10
c order 3 40 10 37 4 44 30 25 7 41 39 20 17 12 6 34 48 18 47 43 31 19 50 24 26 21 13 23 16 33 42 2 46 32 9 29 15 45 28 22 36 38 11 8 49 27 1 14 5 35
c order 49 12 21 30 15 16 38 2 25 19 39 41 8 27 36 13 3 29 40 35 10 31 24 37 4 28 11 20 44 7 14 1 50 26 43 17 9 23 46 47 22 6 45 5 48 18 42 33 32 34
c order 5 48 50 32 27 1 14 36 39 47 4 28 3 9 44 8 35 21 31 2 49 33 10 40 30 29 13 17 26 6 16 24 46 22 12 34 43 37 20 7 18 38 25 15 23 45 41 11 19 42
c order 45 50 15 40 14 41 34 46 19 5 43 38 24 16 49 42 3 6 25 22 28 33 27 47 48 23 10 2 12 44 39 21 7 36 17 18 4 31 29 37 20 8 13 26 35 1 30 11 9 32
c order 38 48 11 44 32 13 20 9 34 14 24 26 3 8 4 39 16 30 15 28 12 5 21 19 29 46 31 35 23 6 49 41 1 37 40 42 27 22 47 50 36 10 25 7 18 2 17 45 33 43
c order 19 16 21 47 29 44 3 17 38 8 22 33 13 15 43 10 41 18 45 34 23 30 24 20 42 40 35 27 39 48 25 26 1 46 9 50 49 31 37 12 36 11 7 4 2 28 14 32 5 6
c order 50 47 5 43 35 23 9 33 34 22 48 11 37 44 15 46 19 1 20 21 29 30 42 27 10 49 36 12 41 2 14 39 4 16 6 32 13 24 26 45 28 38 17 8 25 7 40 31 3 18
c order 25 16 14 17 23 20 7 30 3 33 10 31 38 24 15 40 5 42 13 45 29 2 44 41 6 9 34 27 28 36 35 8 37 18 39 47 50 46 4 11 21 22 19 43 26 32 48 12 1 49
c order 27 17 37 41 2 14 15 11 13 46 35 3 50 44 20 21 31 5 49 48 43 10 23 38 22 1 12 26 40 30 19 25 9 24 6 29 42 7 16 18 33 4 45 47 36 28 34 8 32 39
c order 38 23 37 6 15 19 30 3 17 41 8 34 45 16 4 2 10 47 39 25 29 35 43 14 13 42 24 48 49 44 7 11 9 22 33 28 1 32 27 31 50 12 40 36 20 21 46 26 18 5
p cnf 50 210
20 37 -8 0
-17 32 21 0
-12 6 -31 0
43 -16 -1 0
16 -33 -11 0
-19 -28 37 0
-8 -2 -21 0
-23 -7 9 0
35 -37 40 0
17 -16 11 0
-21 -41 -49 0
30 29 14 0
-49 44 -26 0
-45 17 -43 0
50 -43 15 0
-26 -28 24 0
27 33 -8 0
17 -12 16 0
-19 44 27 0
8 -27 -22 0
-47 16 -20 0
15 -46 13 0
-45 -5 -23 0
30 -27 -29 0
3 -28 31 0
1 -14 19 0
48 13 -49 0
-15 48 47 0
30 26 -50 0
14 18 6 0
-29 5 -2 0
34 -30 -39 0
45 -39 18 0
40 37 -50 0
30 -42 -32 0
31 44 48 0
46 43 30 0
1 29 8 0
-20 5 -35 0
50 8 -1 0
-2 -24 36 0
-46 -21 11 0
12 -5 -42 0
35 -20 -8 0
5 12 33 0
11 -50 23 0
16 19 -4 0
-32 43 38 0
39 -14 1 0
-10 46 4 0
-32 37 -8 0
16 37 -17 0
31 -2 48 0
32 2 -16 0
25 31 -20 0
-3 -38 -11 0
-49 35 -45 0
-17 -32 -10 0
12 -46 20 0
-6 41 -7 0
30 -8 -45 0
-18 37 10 0
-30 15 5 0
-48 7 34 0
-3 -47 46 0
-48 19 3 0
-23 -42 -28 0
9 -20 33 0
5 -7 -32 0
15 47 20 0
-27 35 -21 0
-4 44 35 0
-5 4 -44 0
28 -25 -48 0
13 -31 18 0
10 18 -42 0
-14 9 -44 0
-13 -18 -42 0
3 30 47 0
-47 -48 40 0
34 -14 26 0
14 -27 -15 0
-40 37 18 0
-26 12 29 0
7 -39 -14 0
9 -12 -33 0
-1 50 17 0
3 -20 -11 0
5 -26 32 0
-29 -34 -48 0
38 47 -42 0
-21 -25 17 0
-33 -25 -3 0
1 34 -41 0
33 44 47 0
-6 -31 21 0
31 -12 47 0
-17 -47 21 0
-45 14 -28 0
-14 -30 45 0
3 -40 12 0
-30 -41 -35 0
27 7 -46 0
-46 -19 -50 0
-30 1 -11 0
6 -10 3 0
12 22 31 0
1 -10 4 0
40 38 4 0
48 -32 -36 0
6 -19 15 0
-23 -13 20 0
-9 21 4 0
-39 -11 15 0
-10 -23 -22 0
37 -20 -14 0
-50 20 24 0
-22 20 -48 0
44 32 -16 0
-16 33 14 0
43 -4 34 0
23 -15 -8 0
-31 -47 50 0
-48 26 29 0
22 -10 38 0
34 -37 -20 0
-32 -38 19 0
7 30 28 0
-50 46 -36 0
38 -16 -35 0
-50 -6 -36 0
24 36 39 0
-11 -50 -21 0
-25 -29 -9 0
-26 9 -3 0
9 38 -17 0
39 7 21 0
46 -33 24 0
39 -1 -46 0
32 -24 13 0
-29 40 -17 0
-4 14 43 0
-21 15 -11 0
22 8 47 0
-3 43 6 0
-2 -5 -31 0
37 29 38 0
26 -21 22 0
6 -19 10 0
16 -42 45 0
-2 -37 -5 0
-14 33 19 0
47 -41 22 0
-35 -30 40 0
-49 -19 18 0
13 18 28 0
3 40 18 0
-33 9 19 0
20 10 33 0
24 50 -2 0
-24 38 -20 0
15 -50 -40 0
38 -43 -33 0
-31 28 -20 0
-50 44 -25 0
33 30 -18 0
-17 -25 -49 0
50 13 -32 0
-42 -31 12 0
-20 14 -22 0
6 -19 -40 0
33 24 27 0
19 34 16 0
-37 48 -47 0
-39 28 -15 0
-4 -27 -46 0
-31 43 -20 0
-35 26 32 0
-45 38 39 0
10 -26 35 0
26 39 46 0
38 14 13 0
31 -39 -9 0
-36 -17 -25 0
47 12 -13 0
27 -33 25 0
22 -27 -49 0
5 10 -30 0
48 2 -7 0
27 15 19 0
37 -26 10 0
-3 -16 31 0
34 37 -42 0
-6 14 38 0
-46 22 -6 0
-27 21 -41 0
-36 34 33 0
-26 34 -16 0
-31 -39 34 0
32 17 -4 0
36 20 17 0
-48 -37 32 0
-16 14 -11 0
10 36 -41 0
11 28 20 0
27 47 -24 0
-19 -17 10 0
-15 -14 -39 0
39 -7 -43 0
27 -46 32 0
