c family=3-SAT n=50 instance=7 seed=2573548008 models=40
c order 37 15 50 35 11 5 4 25 10 42 26 27 8 45 18 13 12 49 24 38 9 23 6 43 16 19 14 44 34 41 33 30 32 28 39 22 47 7 3 20 46 21 40 2 36 29 1 31 17 48
c order 9 34 14 6 7 5 8 42 35 32 21 39 44 2 38 24 30 46 29 22 11 15 13 1 10 41 25 27 40 3 47 48 19 26 23 49 20 50 28 37 17 18 12 31 33 4 45 16 36 43
c order 13 5 33 27 41 39 47 20 30 4 28 17 29 23 45 7 8 1 15 50 42 46 11 24 3 12 10 31 40 44 9 16 21 49 6 2 34 38 37 36 19 18 14 22 35 32 48 26 25 43
c order 32 16 7 27 25 18 3 40 24 11 29 44 22 20 49 12 50 2 42 31 15 26 36 23 47 1 28 13 10 33 35 43 46 19 9 21 34 4 5 37 30 41 38 48 17 14 8 39 6 45
c order 7 16 21 26 12 48 39 32 1 11 27 49 14 2 23 45 4 42 37 31 25 3 20 44 33 36 50 34 29 22 19 10 9 41 13 47 30 28 17 15 18 35 6 46 43 24 40 5 38 8
c order 18 10 1 20 16 28 5 40 47 24 48 15 29 4 14 41 8 22 50 33 26 44 37 21 2 3 19 9 27 12 35 43 23 32 42 30 49 31 17 7 13 45 39 6 46 38 11 25 34 36
c order 43 3 36 38 45 31 13 4 44 48 22 42 27 19 10 40 24 5 49 32 35 26 2 15 50 23 20 9 34 25 6 39 46 28 14 16 37 47 33 1 30 18 29 41 7 11 21 12 17 8
c order 27 8 18 33 39 6 29 17 12 1 9 14 10 47 25 40 50 42 7 38 5 21 49 41 45 20 43 46 23 31 2 24 35 34 15 22 32 16 30 37 19 44 26 3 11 36 48 4 28 13
c order 26 21 7 29 3 46 50 23 20 4 30 17 32 15 34 9 19 16 24 35 42 49 41 5 25 13 28 10 43 33 18 38 27 40 8 31 6 14 2 22 45 39 48 47 37 11 44 12 36 1
c order 20 29 31 47 34 48 46 10 50 7 21 26 40 23 12 18 38 43 9 49 5 30 8 6 28 32 37 44 36 3 22 39 24 42 41 45 25 13 27 19 4 15 33 17 14 2 11 1 35 16
p cnf 50 210
-33 -8 -2 0
28 45 35 0
18 29 26 0
9 -15 -35 0
-17 23 -50 0
-48 33 -37 0
-28 -20 -15 0
-41 -34 5 0
-3 44 -45 0
11 -32 -4 0
31 28 36 0
-1 -43 -31 0
-10 14 6 0
-17 -31 -36 0
-9 -28 -31 0
-35 12 -31 0
4 -9 37 0
3 -8 17 0
-2 -46 -27 0
-16 29 9 0
43 9 48 0
-10 44 -32 0
-10 27 -19 0
-25 -4 20 0
-27 32 -30 0
9 -34 -28 0
-15 -20 49 0
-14 48 1 0
-37 -28 16 0
-48 -10 3 0
4 -12 -32 0
30 -7 -28 0
-47 -21 22 0
35 -22 18 0
43 -36 -15 0
-7 43 38 0
42 2 -5 0
6 -14 19 0
30 41 -22 0
30 10 2 0
45 8 -32 0
18 -3 34 0
36 50 -40 0
44 40 1 0
36 13 -18 0
-48 -35 -40 0
50 21 36 0
8 2 21 0
-24 -38 -23 0
-36 39 50 0
-18 -34 5 0
17 -22 24 0
12 8 -38 0
36 34 8 0
-18 -31 -46 0
-18 -50 48 0
34 -23 -10 0
-37 16 22 0
26 -27 19 0
50 -27 31 0
-3 9 7 0
-31 22 -19 0
17 47 42 0
20 15 -23 0
-22 -32 -2 0
4 -31 -46 0
12 8 39 0
17 30 2 0
-12 -3 -41 0
26 29 -38 0
10 37 -13 0
-20 3 -25 0
28 -13 30 0
46 43 -16 0
-6 14 11 0
16 2 6 0
-12 -37 15 0
-17 24 48 0
47 15 12 0
25 -17 12 0
3 -41 -40 0
45 -39 12 0
-14 17 46 0
30 29 -36 0
12 43 -3 0
-6 -3 19 0
-15 23 -45 0
-33 7 -2 0
32 -1 14 0
-49 47 -32 0
12 50 23 0
-24 49 -36 0
-40 -44 -46 0
-15 -25 -4 0
-5 4 -43 0
43 7 3 0
9 -8 -44 0
-5 47 15 0
-50 38 -34 0
-10 16 -13 0
-41 18 -47 0
14 1 -49 0
14 -4 24 0
-43 -30 25 0
-8 17 -12 0
-33 -9 42 0
12 -29 5 0
14 -25 40 0
21 -29 -38 0
-48 -18 39 0
7 -16 29 0
42 -19 -36 0
-38 40 -35 0
-32 44 6 0
-21 -6 -5 0
-11 16 -30 0
-38 -41 26 0
-21 -3 -42 0
-12 -13 -42 0
14 -9 -35 0
6 40 -45 0
39 -29 -34 0
28 -25 -18 0
19 31 -49 0
45 -41 -33 0
27 -17 -49 0
50 47 42 0
22 49 7 0
-32 50 -21 0
-37 -15 -27 0
-34 -41 38 0
15 -17 -44 0
18 1 47 0
21 -40 -44 0
4 29 -3 0
-49 -17 -46 0
-15 -24 -12 0
-41 -37 -11 0
48 50 -20 0
43 -6 11 0
7 -12 -14 0
-44 -9 -28 0
-39 40 -30 0
10 -5 -23 0
25 44 4 0
-10 -31 -41 0
24 33 -23 0
1 15 -47 0
-12 -16 20 0
-45 -35 23 0
13 -14 41 0
24 -44 -9 0
-44 2 -29 0
2 22 -35 0
18 26 -19 0
-11 -49 28 0
-33 -15 -32 0
32 -2 -37 0
-40 -22 14 0
-36 -34 46 0
-39 -4 13 0
17 2 -27 0
15 22 14 0
30 26 22 0
27 -20 -18 0
25 -31 11 0
26 46 -48 0
27 -47 46 0
31 28 33 0
11 -43 -19 0
-28 30 19 0
-38 -16 40 0
21 15 17 0
15 -9 33 0
-28 44 5 0
44 35 -39 0
-10 -37 5 0
41 10 29 0
-42 11 -37 0
11 -15 -21 0
20 -32 45 0
-45 -2 -40 0
29 37 3 0
23 -2 -3 0
-28 10 37 0
-31 30 -38 0
15 -32 27 0
24 15 -9 0
14 43 41 0
34 -18 4 0
13 -16 -48 0
6 -11 44 0
-11 29 33 0
19 -36 37 0
-45 47 25 0
15 -37 6 0
-10 18 -2 0
28 -24 7 0
-32 2 -30 0
33 -10 -43 0
-35 49 -31 0
-9 21 -49 0
-9 -28 36 0
24 6 37 0
-47 -3 15 0
-14 -43 1 0
14 11 -42 0
41 23 -28 0
37 35 -21 0
33 -35 28 0
