c family=3-SAT n=50 instance=0 seed=2573548008 models=28
c order 5 10 32 39 16 18 45 41 22 28 20 19 26 9 34 1 36 27 43 47 31 30 14 40 25 38 23 50 3 12 21 17 8 6 24 49 7 11 13 4 42 2 29 37 46 33 35 15 44 48
c order 50 6 31 9 14 48 3 7 13 22 49 36 16 33 8 35 30 29 37 24 18 34 17 20 43 42 45 40 32 44 11 25 28 4 21 19 27 5 10 2 47 23 41 38 12 1 26 46 15 39
c order 28 47 17 38 19 7 9 24 44 10 14 8 43 37 40 16 41 25 29 18 36 46 39 33 26 3 22 1 50 48 31 32 13 42 4 45 21 6 34 2 27 15 12 23 30 35 49 20 5 11
c order 8 4 41 47 11 40 35 1 37 50 28 39 7 44 2 9 29 3 31 12 36 22 49 21 23 38 26 45 25 42 32 16 48 34 20 30 6 24 46 33 13 18 10 19 43 17 14 15 27 5
c order 35 40 16 27 31 41 33 12 44 2 4 47 13 36 11 48 50 22 14 6 18 23 43 5 19 46 10 28 1 21 8 7 9 30 29 34 17 42 24 49 32 38 15 37 25 20 45 3 39 26
c order 10 20 3 31 34 14 13 12 46 39 18 33 30 36 17 49 24 29 28 4 26 11 37 19 9 27 42 43 6 22 41 44 25 47 8 16 15 2 45 21 35 23 7 48 5 1 40 38 32 50
c order 43 42 31 9 15 30 24 20 45 37 7 33 29 22 47 48 46 36 3 40 28 4 44 10 6 32 23 19 12 16 26 21 49 11 1 17 18 5 8 34 13 41 25 2 35 39 27 14 50 38
c order 19 15 46 8 2 7 49 24 9 33 18 29 10 3 20 31 21 11 47 42 37 12 6 25 45 16 40 34 30 4 39 43 5 36 13 28 27 44 1 38 22 35 26 41 23 32 14 48 50 17
c order 20 19 2 1 45 10 22 8 25 34 50 21 17 18 11 26 47 40 13 36 42 7 9 12 48 16 44 24 37 33 3 14 41 39 29 43 28 15 27 49 6 31 5 4 23 35 38 46 30 32
c order 37 39 10 31 48 3 29 36 4 18 6 35 30 22 2 40 46 34 45 24 26 49 47 38 27 11 19 32 1 23 28 16 9 17 20 5 44 42 21 13 25 41 33 7 14 8 15 50 12 43
p cnf 50 210
-6 -14 -27 0
-22 23 6 0
24 6 49 0
33 -13 27 0
-47 8 -22 0
40 -31 20 0
17 -33 6 0
36 12 50 0
-32 -39 -5 0
16 -39 -23 0
-42 24 -39 0
-5 -41 48 0
13 32 -1 0
-6 -49 -15 0
1 16 10 0
-3 4 25 0
-36 38 -27 0
7 -41 18 0
-22 -24 16 0
26 -17 -32 0
18 4 15 0
24 -3 5 0
37 17 26 0
40 -31 -26 0
-11 -2 25 0
25 33 -24 0
19 -31 49 0
-1 22 46 0
-36 6 32 0
48 16 9 0
-48 -7 25 0
-11 41 37 0
-30 9 -19 0
1 33 7 0
43 -12 -5 0
40 -33 17 0
-43 -2 23 0
-3 -15 25 0
-47 -7 21 0
-28 -8 41 0
23 -3 -35 0
8 33 -44 0
-19 50 -33 0
-43 -38 -50 0
15 -21 -48 0
-47 19 32 0
15 -36 -6 0
45 -8 14 0
14 -30 -18 0
-3 46 -47 0
-38 -29 -5 0
-22 8 -36 0
-15 -16 -25 0
31 -4 -39 0
46 40 -26 0
4 -16 -5 0
48 38 -12 0
-9 21 -42 0
45 3 -34 0
-40 -39 47 0
-49 1 -21 0
-50 -4 -7 0
-32 -1 -20 0
19 24 14 0
1 -18 22 0
-8 -22 18 0
-34 -27 32 0
-19 32 -7 0
-35 37 -5 0
-22 -23 1 0
2 42 18 0
5 18 -12 0
-37 31 2 0
-30 -45 -35 0
-28 -12 -36 0
-24 46 33 0
-4 -42 -3 0
-9 4 5 0
-47 -28 -14 0
24 -25 26 0
-34 44 45 0
-44 42 10 0
-45 7 -39 0
3 6 -47 0
-28 10 -42 0
24 -37 -27 0
47 22 34 0
-4 15 20 0
-38 -19 -6 0
15 -14 46 0
-5 -8 -13 0
-13 48 20 0
-49 -9 29 0
-7 -14 -29 0
33 -49 -28 0
-50 -16 -42 0
46 2 -24 0
6 -34 38 0
26 -46 -12 0
-37 -30 24 0
25 7 -29 0
18 -26 16 0
37 -38 42 0
48 37 -34 0
-9 -33 -39 0
39 28 -43 0
-5 -2 -45 0
16 -47 -27 0
-36 -20 -9 0
15 31 1 0
-41 -49 3 0
-44 28 -4 0
-26 17 7 0
46 -7 23 0
18 -36 30 0
20 -15 -22 0
-33 10 35 0
30 8 -10 0
-41 38 6 0
38 37 -11 0
-30 20 43 0
11 44 -9 0
-16 18 6 0
33 -12 14 0
-20 -8 25 0
-36 5 43 0
27 -48 -29 0
39 -30 -11 0
-44 5 32 0
-14 -2 4 0
6 2 -36 0
-5 10 1 0
-17 50 -2 0
3 -46 7 0
13 21 36 0
-39 -42 -50 0
33 21 26 0
29 -14 3 0
34 12 38 0
41 -29 -46 0
-30 -20 41 0
11 -33 17 0
-38 -33 47 0
-25 3 43 0
-39 -47 18 0
-1 45 -42 0
25 34 38 0
5 -49 14 0
-35 -42 -50 0
-50 29 -41 0
38 7 20 0
-37 -21 14 0
18 -42 -32 0
2 -21 14 0
31 39 24 0
10 -1 -19 0
-39 12 -1 0
5 50 -1 0
5 -35 -41 0
27 31 -29 0
36 -12 35 0
43 15 -47 0
26 -33 17 0
-9 37 33 0
21 40 -10 0
-44 5 23 0
-3 40 13 0
-4 -24 -50 0
9 -41 47 0
48 31 -26 0
-38 37 24 0
-39 45 -26 0
-44 -10 35 0
-32 -29 14 0
-42 -14 49 0
-34 -46 -47 0
-50 -48 -43 0
-50 31 5 0
44 -16 -18 0
46 -20 4 0
-41 4 -32 0
-8 49 36 0
-45 32 3 0
-36 -9 -35 0
-35 36 -31 0
-44 -37 -14 0
-28 -30 29 0
-8 -9 45 0
15 47 2 0
43 -36 -46 0
28 -18 2 0
-9 -35 -46 0
46 32 34 0
-44 -29 5 0
41 -31 11 0
13 7 27 0
-23 -21 45 0
-37 26 -34 0
14 -40 12 0
-40 -48 11 0
-26 -20 6 0
13 -35 11 0
-17 48 -12 0
5 16 -39 0
27 -23 43 0
-6 33 18 0
-11 18 -24 0
13 -17 -2 0
-21 6 -46 0
-42 -37 -6 0
