c family=3-SAT n=50 instance=6 seed=2573548008 models=28
c order 2 22 3 35 21 16 24 39 36 33 27 31 37 41 40 49 50 12 29 15 30 32 25 43 4 7 10 17 9 18 44 5 34 20 42 11 19 6 1 46 47 14 45 38 28 23 8 48 13 26
c order 27 26 35 7 40 31 11 23 16 43 3 32 29 36 48 20 44 33 37 14 38 19 8 42 6 45 12 2 39 1 18 34 28 15 21 50 49 10 22 13 17 5 24 47 25 46 4 30 9 41
c order 39 4 40 17 10 22 24 50 47 1 36 28 15 8 25 31 42 29 37 26 23 44 27 33 14 3 11 18 20 32 35 21 49 48 9 41 46 6 43 12 34 45 5 13 19 7 30 2 16 38
c order 4 33 28 15 48 25 27 6 38 35 46 22 32 43 3 42 9 18 1 29 34 31 17 49 19 30 7 40 45 16 36 21 44 11 10 20 14 2 26 24 12 37 39 13 47 8 41 50 23 5
c order 19 18 46 38 2 6 32 50 47 39 40 27 23 11 21 4 34 31 48 43 33 8 12 10 36 28 5 7 29 16 9 35 22 26 42 37 20 45 17 41 44 25 14 49 30 3 24 13 1 15
c order 13 35 18 6 4 40 49 24 29 20 30 23 36 31 42 38 47 28 33 1 19 41 44 2 39 5 43 45 11 3 8 26 10 48 16 21 46 14 12 50 22 15 7 37 34 9 32 27 17 25
c order 45 18 5 32 6 14 10 50 9 29 27 21 41 42 46 44 39 47 17 13 22 35 12 25 30 34 31 37 43 20 3 24 38 19 8 4 48 26 15 40 23 1 28 36 16 7 11 49 33 2
c order 50 19 20 8 32 42 49 26 48 41 18 34 29 31 35 7 15 6 38 1 28 3 24 5 21 37 39 12 16 2 47 33 4 13 10 46 45 43 14 27 40 11 44 9 30 25 17 22 23 36
c order 4 26 11 23 15 34 1 25 31 20 37 3 24 33 16 40 44 14 36 5 32 6 39 22 12 10 41 28 35 8 18 19 21 17 9 2 38 13 48 46 43 49 50 7 47 27 29 45 42 30
c order 49 43 47 13 32 40 35 15 29 6 27 5 44 20 42 46 16 2 12 9 50 38 25 7 11 10 37 22 33 30 48 31 21 24 19 4 45 14 34 39 28 18 26 3 41 23 1 36 17 8
p cnf 50 210
33 31 6 0
-30 8 -12 0
-28 -11 43 0
43 8 42 0
28 21 3 0
-46 -43 -28 0
12 3 -21 0
22 -38 30 0
-37 -45 -9 0
-30 -48 24 0
1 -19 -46 0
37 10 47 0
-40 42 -45 0
2 -17 38 0
-36 1 32 0
8 28 22 0
-26 -27 -13 0
-24 36 11 0
26 -43 7 0
27 4 -38 0
-38 13 40 0
-8 -20 -48 0
-14 46 8 0
-15 4 28 0
-38 -45 19 0
42 -49 -48 0
5 -29 -48 0
-13 -34 -21 0
-30 -27 18 0
-25 -29 27 0
33 -19 -32 0
-32 21 2 0
49 -31 -19 0
20 1 16 0
-28 34 -11 0
-7 44 -29 0
45 -41 -1 0
-42 33 -35 0
-27 32 -47 0
-38 25 18 0
-33 -14 -30 0
-16 4 2 0
23 -26 37 0
-35 16 -6 0
-47 13 29 0
-13 30 4 0
32 -10 24 0
33 -36 39 0
18 50 -13 0
-19 44 -26 0
45 -11 42 0
39 11 -49 0
39 25 8 0
-37 26 12 0
14 29 39 0
13 -42 -25 0
22 46 -11 0
-43 30 4 0
44 3 33 0
-29 -38 -41 0
-2 -19 50 0
-48 46 -23 0
-50 -49 -32 0
-15 9 -2 0
41 -27 -35 0
-33 -38 24 0
38 -48 33 0
34 32 -48 0
-46 -37 47 0
-16 12 45 0
48 -22 -25 0
33 -16 -7 0
23 45 -26 0
1 -26 -24 0
14 -4 41 0
33 -44 -36 0
32 9 -23 0
-25 -27 -47 0
15 43 -25 0
-46 -19 26 0
-46 5 22 0
-38 46 9 0
34 19 22 0
-36 -48 43 0
25 7 15 0
-21 -2 -22 0
-31 4 18 0
-7 -13 19 0
22 -34 2 0
-2 -13 -44 0
-7 -9 -12 0
-10 32 14 0
-2 31 47 0
-29 16 27 0
-50 45 15 0
-15 -1 31 0
-9 -47 22 0
-45 -36 -11 0
-12 -21 -33 0
2 36 -29 0
27 2 -32 0
-9 -3 42 0
-28 -18 46 0
-16 -18 -30 0
11 43 -7 0
-40 43 -44 0
-35 42 -36 0
9 -11 48 0
-4 -49 -14 0
23 -9 30 0
-47 -3 12 0
28 -9 -48 0
18 -13 10 0
26 -7 30 0
14 12 38 0
7 33 43 0
-45 23 -21 0
22 -41 -42 0
36 -42 -15 0
49 44 -8 0
22 36 7 0
-31 -24 9 0
-40 -43 -49 0
-26 37 48 0
-38 -13 28 0
44 24 -10 0
39 25 40 0
34 39 40 0
-5 -38 -25 0
-32 11 -48 0
26 -34 29 0
6 45 -23 0
14 -18 40 0
-6 37 -8 0
-27 37 -12 0
-37 -46 -20 0
-37 36 47 0
-12 13 10 0
-7 8 20 0
-30 -42 19 0
27 -47 -12 0
-4 29 -12 0
-31 -47 24 0
-9 -23 35 0
45 36 -8 0
-34 33 -30 0
27 4 -33 0
-9 5 -48 0
-11 18 -19 0
-35 -2 34 0
-21 4 36 0
-36 19 -12 0
-35 4 45 0
-8 36 -13 0
14 -11 48 0
24 -41 28 0
6 47 -4 0
-17 24 -45 0
50 29 -18 0
-37 -22 19 0
-18 -7 -24 0
1 45 14 0
-9 30 25 0
-11 22 -47 0
20 -23 29 0
48 -31 -25 0
-50 -25 1 0
46 -32 -14 0
31 38 47 0
-15 -37 -9 0
37 -41 -45 0
34 7 22 0
42 -30 27 0
49 11 -1 0
46 23 -8 0
-19 34 -50 0
-33 -10 18 0
-34 20 13 0
-15 -36 41 0
23 32 29 0
13 -42 44 0
48 33 -4 0
-15 -24 40 0
41 31 -32 0
-36 26 15 0
39 -22 -47 0
3 -27 -15 0
-8 -38 48 0
-4 -17 -45 0
-4 -30 -28 0
17 -31 -23 0
5 -28 18 0
-12 -32 -9 0
-48 29 8 0
-31 18 27 0
-23 -6 10 0
12 -22 40 0
-19 14 -36 0
-10 -45 14 0
-44 -7 31 0
40 33 23 0
-6 -1 29 0
26 5 22 0
-38 -42 -20 0
6 -26 15 0
7 -49 17 0
-36 14 30 0
8 27 28 0
-50 -30 -17 0
-3 7 20 0
