c family=3-SAT n=50 instance=8 seed=2573548008 models=123
c order 37 14 33 8 29 21 45 49 5 43 15 27 42 4 38 11 24 46 12 10 19 31 6 1 39 41 17 26 13 50 28 44 20 22 9 3 7 35 40 16 23 25 48 18 36 2 34 47 32 30
c order 23 20 43 9 31 34 18 12 21 13 5 27 8 7 42 24 26 3 35 29 11 6 37 40 49 14 47 19 17 41 33 38 39 10 16 36 15 32 50 45 2 1 48 22 30 46 4 28 25 44
c order 12 6 9 27 13 2 8 17 34 43 48 42 46 22 41 44 5 3 38 26 14 33 29 20 39 7 36 40 47 11 4 10 18 1 28 16 49 45 37 19 24 31 50 32 35 25 15 23 30 21
c order 25 40 47 6 8 50 35 31 33 32 26 13 49 5 3 42 21 16 46 12 45 43 37 2 15 48 24 22 14 18 29 7 36 19 11 38 34 1 30 41 27 44 39 17 10 9 20 28 23 4
c order 27 19 12 6 46 26 20 11 9 15 42 3 40 48 5 38 14 31 1 39 36 2 35 49 32 25 37 8 22 47 45 24 34 30 23 28 10 33 50 43 7 29 4 21 41 17 18 13 44 16
c order 29 43 28 33 24 19 34 45 44 5 12 4 40 6 35 25 16 41 9 32 17 21 11 31 46 37 8 22 14 2 18 39 7 49 26 30 47 27 20 1 10 50 42 48 38 3 13 15 23 36
c order 36 50 5 11 43 42 12 1 29 41 33 3 21 35 13 49 24 19 9 38 46 7 8 44 26 37 15 14 28 47 39 2 4 48 34 27 10 18 20 32 25 6 23 17 22 30 45 16 40 31
c order 22 23 37 41 17 34 16 18 15 9 5 32 3 30 39 46 49 24 48 33 27 38 19 43 11 6 44 8 21 35 50 42 13 28 2 36 10 12 20 26 1 29 25 4 14 40 31 45 47 7
c order 2 43 38 39 10 11 4 5 44 23 21 22 3 15 47 16 19 31 48 35 45 8 42 50 26 7 17 1 29 9 25 33 14 32 46 24 36 40 49 13 12 18 6 27 34 30 20 41 37 28
c order 38 39 36 28 17 15 27 44 37 47 26 2 6 13 31 30 7 9 12 24 49 1 32 45 25 5 40 16 42 19 11 10 43 8 46 50 22 21 14 48 20 23 18 4 3 29 35 41 33 34
p cnf 50 210
15 -11 -24 0
-5 -29 -10 0
-32 -23 1 0
-2 45 49 0
-10 -9 17 0
43 -26 -50 0
-1 -42 50 0
33 -20 37 0
-2 50 -37 0
17 35 7 0
12 20 -30 0
8 22 18 0
-26 -20 31 0
-46 47 -2 0
31 39 21 0
34 -18 -30 0
-10 -45 11 0
50 37 29 0
39 34 -3 0
15 -32 -5 0
10 21 -44 0
-40 15 22 0
-46 49 4 0
26 -25 40 0
38 7 5 0
49 -47 31 0
-48 -37 -25 0
-33 35 -28 0
32 33 46 0
49 8 6 0
8 -4 -45 0
-8 25 -37 0
-35 43 -40 0
-19 -14 -46 0
5 -21 -33 0
17 -44 -16 0
17 -48 -24 0
3 -25 -26 0
6 12 29 0
-3 12 -19 0
6 -23 17 0
-16 -21 -44 0
44 8 -9 0
2 -3 43 0
50 19 -41 0
33 1 -9 0
9 -18 47 0
6 35 -8 0
21 3 -34 0
-7 34 2 0
1 8 14 0
-16 -47 4 0
12 22 39 0
45 -13 -49 0
19 -20 38 0
37 -36 -11 0
-4 -29 30 0
-36 38 17 0
44 -39 -18 0
-30 9 46 0
43 17 -21 0
50 -14 -1 0
-43 -4 3 0
-7 22 -41 0
-40 20 29 0
16 -47 -14 0
25 2 -33 0
-17 28 31 0
25 37 -28 0
-46 -12 9 0
-29 -19 -31 0
3 -45 30 0
-13 14 -1 0
8 5 -31 0
20 34 41 0
7 -36 17 0
-50 5 -14 0
-25 -21 -7 0
20 -5 1 0
47 -21 -14 0
22 -50 3 0
-42 17 43 0
-20 35 -41 0
43 28 42 0
15 -30 -42 0
-8 -41 -42 0
7 34 22 0
-13 12 -47 0
-11 -24 -1 0
-50 23 -38 0
41 44 5 0
-39 30 -1 0
-11 28 45 0
-35 -44 32 0
3 4 -42 0
29 -33 -3 0
9 47 -16 0
46 43 24 0
-6 27 -31 0
15 -20 -48 0
28 6 -3 0
-30 -43 22 0
19 -45 46 0
-31 -35 27 0
-25 -50 1 0
37 14 17 0
-14 18 -5 0
-26 -22 -41 0
30 -23 20 0
-39 5 32 0
-27 -22 44 0
-37 5 38 0
31 -5 26 0
12 -32 4 0
-48 29 50 0
-48 -42 18 0
32 50 18 0
4 42 18 0
-42 -23 -14 0
-40 30 28 0
-23 32 -6 0
42 33 50 0
-35 -43 21 0
38 -15 23 0
13 25 22 0
-4 -40 -6 0
-41 -3 -19 0
8 -24 -49 0
-33 -49 -1 0
31 18 27 0
12 -23 -30 0
22 -5 14 0
-41 26 -31 0
-16 39 -10 0
-27 47 31 0
-32 22 9 0
-1 -48 39 0
45 47 -30 0
-48 14 -37 0
-17 42 -32 0
-21 24 44 0
26 37 -43 0
-24 32 -4 0
43 -48 -46 0
25 -38 40 0
-18 21 9 0
-10 21 -43 0
29 28 20 0
-46 -50 40 0
-22 -9 23 0
-1 39 13 0
41 -18 14 0
-9 42 34 0
-36 13 19 0
-47 -38 37 0
-41 15 -3 0
-6 5 13 0
21 20 -23 0
33 39 16 0
14 -17 -24 0
-8 -28 20 0
-47 34 38 0
-12 -4 7 0
29 -18 22 0
-24 47 -44 0
3 45 -25 0
42 26 -8 0
5 18 15 0
31 -13 -50 0
1 22 28 0
-21 49 45 0
-8 -5 9 0
36 -47 -45 0
46 -39 -22 0
31 39 -36 0
-4 36 -45 0
47 -34 9 0
40 16 -21 0
-30 16 34 0
-17 9 47 0
-19 -39 3 0
-40 19 34 0
21 -27 19 0
47 32 -1 0
40 -8 11 0
14 7 15 0
13 44 -15 0
-3 42 -22 0
18 -40 49 0
-46 -35 -28 0
5 46 -6 0
-36 29 33 0
35 17 -2 0
4 -39 23 0
-28 21 -20 0
-19 -31 -30 0
13 7 -3 0
-21 11 19 0
10 -11 -8 0
-9 -6 36 0
17 -30 34 0
31 36 -32 0
6 49 29 0
8 -19 -28 0
30 16 -10 0
-7 1 41 0
6 -43 -21 0
30 18 19 0
16 -35 -15 0
32 7 -8 0
