c family=3-SAT n=50 instance=9 seed=2573548008 models=627
c order 5 34 6 14 37 33 45 21 35 27 26 10 28 44 48 4 39 19 29 24 25 1 38 16 41 22 40 49 8 20 43 36 23 7 18 42 15 47 2 31 30 12 13 32 46 9 11 17 50 3
c order 39 40 12 27 2 10 23 11 49 1 34 43 15 48 36 8 35 42 44 13 50 37 4 38 30 22 25 21 24 28 9 26 3 31 5 45 17 41 47 19 46 6 20 33 18 7 29 16 32 14
c order 31 33 37 26 45 15 46 8 1 3 50 40 47 49 22 20 28 29 4 32 19 44 30 41 9 35 23 5 39 34 27 16 24 17 10 48 43 36 21 6 13 14 18 42 11 2 7 12 38 25
c order 9 35 5 37 50 47 11 18 16 36 2 49 1 33 23 14 34 12 24 3 27 40 29 6 22 26 44 42 28 4 43 45 19 30 25 39 7 15 21 13 41 48 31 38 20 8 17 10 32 46
c order 11 50 31 45 17 3 30 38 5 16 33 43 15 41 27 25 32 35 28 39 2 37 12 44 48 20 10 46 8 42 34 49 6 29 26 1 18 22 13 40 14 36 4 19 47 23 9 7 24 21
c order 41 40 26 23 12 39 6 27 19 21 9 16 18 34 33 35 14 48 37 38 36 43 1 44 25 24 46 47 4 50 32 20 17 15 30 2 13 45 3 31 5 42 49 29 10 28 7 11 8 22
c order 5 17 16 49 7 4 26 27 39 40 50 18 1 48 15 43 20 6 24 47 14 23 31 12 11 45 33 35 38 13 25 2 19 9 30 46 37 21 28 36 42 10 22 3 32 44 8 41 34 29
c order 5 19 48 43 32 6 40 44 4 42 20 36 14 38 26 46 28 47 37 39 50 23 21 13 27 3 17 1 45 8 24 34 41 25 30 15 11 22 29 49 10 2 33 35 16 12 31 9 7 18
c order 23 50 3 44 45 13 6 33 26 35 14 42 11 9 22 4 49 47 5 46 38 32 43 25 24 7 12 48 34 8 30 41 36 20 15 27 37 17 28 1 19 2 31 39 16 10 18 29 40 21
c order 45 25 11 16 31 50 9 49 13 37 32 22 19 14 33 1 26 42 7 23 17 34 20 39 29 2 47 36 24 40 43 4 21 27 10 6 48 15 44 12 35 46 5 41 38 30 8 18 3 28
p cnf 50 210
12 39 -13 0
-6 20 -42 0
-43 -40 -49 0
-47 -34 6 0
-20 43 -16 0
-21 -28 -27 0
17 -1 -48 0
-35 -31 25 0
30 13 34 0
11 -22 -38 0
-38 20 46 0
47 -20 40 0
47 10 19 0
-8 7 1 0
-5 34 -25 0
-24 -13 28 0
-26 -20 -16 0
-27 -15 -16 0
35 42 -48 0
-5 -30 13 0
25 -47 -12 0
-40 15 -21 0
-22 -17 30 0
-4 40 18 0
35 7 -21 0
2 -35 -50 0
14 -2 -17 0
-34 -19 -38 0
-39 -50 32 0
20 10 36 0
46 -10 -40 0
-29 -30 -28 0
48 19 -47 0
-38 -48 24 0
48 -25 43 0
34 26 7 0
-7 -20 -32 0
38 6 35 0
27 42 -38 0
-45 8 -44 0
21 17 -18 0
-26 41 43 0
41 -26 -5 0
17 -5 -39 0
11 -33 40 0
39 20 -15 0
-31 -47 -4 0
15 -50 3 0
-24 -6 45 0
45 27 -20 0
-22 3 -35 0
40 -19 32 0
-15 14 7 0
-2 28 -30 0
-32 15 -27 0
27 6 -30 0
35 -12 15 0
33 -21 -16 0
-8 -16 42 0
36 -40 43 0
25 36 -32 0
-17 8 -32 0
42 -7 -4 0
45 -26 -44 0
44 5 45 0
31 -22 3 0
27 3 40 0
-46 -16 -37 0
12 -4 3 0
33 8 43 0
27 33 41 0
-13 10 -25 0
-31 17 10 0
-1 9 20 0
1 -48 -12 0
-21 -24 19 0
45 4 -36 0
-39 -41 21 0
-20 16 14 0
-22 -48 9 0
-1 15 -39 0
3 42 -34 0
28 -19 -20 0
-42 37 -20 0
-38 -24 16 0
45 -36 -38 0
44 30 -19 0
-39 14 15 0
23 -38 28 0
-18 -31 34 0
17 39 50 0
-40 -31 -21 0
3 -20 13 0
-43 -5 -13 0
-36 37 -41 0
-3 14 46 0
-48 -1 37 0
-23 -24 -2 0
15 -48 3 0
45 -25 7 0
43 -13 28 0
-24 14 -5 0
45 -48 49 0
-46 -26 36 0
-24 -35 -16 0
30 29 -24 0
18 15 -12 0
42 14 6 0
10 -29 13 0
-18 22 -46 0
-39 -42 44 0
41 34 42 0
4 7 -5 0
-39 19 -40 0
32 -4 -47 0
-42 12 -29 0
30 26 43 0
48 41 -22 0
46 39 24 0
-27 -23 42 0
40 -45 42 0
-3 -2 -17 0
-6 -10 -9 0
-46 -5 -20 0
-42 10 -44 0
-50 -13 -41 0
8 17 41 0
-42 -40 -1 0
34 46 37 0
-36 -13 -41 0
27 -34 -10 0
-1 25 -2 0
-20 -16 -24 0
-24 -8 -1 0
-24 -6 35 0
24 9 16 0
25 -24 37 0
45 42 -38 0
-30 9 45 0
-15 20 29 0
46 24 25 0
21 30 -15 0
13 1 -35 0
-15 30 -13 0
-18 -43 13 0
42 -39 -3 0
-1 2 -47 0
48 -5 -8 0
45 44 -12 0
31 22 -36 0
2 -34 -45 0
-29 -7 -50 0
10 -34 37 0
-32 35 -26 0
8 21 -49 0
-42 -35 22 0
-32 -45 -8 0
45 -25 26 0
35 -41 23 0
-21 16 -36 0
-19 -41 -40 0
41 35 15 0
-32 -45 -48 0
31 20 -15 0
14 5 -45 0
-40 3 -20 0
24 -34 -30 0
-1 -19 -39 0
-10 18 46 0
20 -32 -16 0
46 20 32 0
41 -26 -30 0
-18 20 -44 0
-11 42 36 0
-50 -43 -4 0
37 -23 -15 0
35 50 -1 0
-33 -42 -45 0
-16 18 -49 0
-40 -22 11 0
27 34 -5 0
47 2 8 0
-37 16 26 0
43 -42 5 0
24 14 -38 0
9 11 -14 0
21 28 9 0
-37 -27 15 0
33 22 18 0
-24 -27 -30 0
-5 2 39 0
-8 -1 28 0
41 40 43 0
-39 43 -21 0
-43 -20 -33 0
-11 18 -17 0
-48 27 14 0
-5 -42 -8 0
-48 -26 -17 0
-13 -17 -7 0
13 -35 -39 0
-22 30 -34 0
-14 -42 35 0
22 34 27 0
1 11 34 0
-48 -39 -43 0
-34 5 41 0
8 39 -14 0
-47 7 -19 0
39 -26 17 0
