c family=3-SAT n=50 instance=3 seed=2573548008 models=8
c order 7 22 19 12 13 9 41 4 24 25 3 2 6 26 28 50 43 45 35 42 46 5 40 31 34 11 14 37 21 38 17 44 36 32 18 23 20 10 39 29 48 33 27 49 30 15 8 47 16 1
c order 9 50 2 11 48 20 49 42 46 17 24 4 43 35 22 41 3 34 39 14 40 16 45 36 23 25 32 18 27 13 6 7 21 5 8 19 29 15 1 37 26 33 47 44 10 38 30 12 28 31
c order 50 1 37 28 24 10 47 30 22 44 5 31 32 14 2 13 43 41 35 46 18 8 17 11 38 29 36 27 23 39 15 20 21 25 26 9 6 12 33 48 4 34 49 3 40 7 45 42 16 19
c order 34 49 28 6 2 4 3 30 44 11 18 13 1 43 21 42 17 35 12 14 29 32 19 45 39 7 24 5 8 27 23 41 10 22 36 33 40 25 15 16 26 9 47 31 50 48 20 46 37 38
c order 13 18 34 33 40 28 7 6 36 19 31 29 11 50 16 24 42 32 49 9 46 48 26 39 12 35 8 5 25 38 37 15 20 1 2 17 4 14 45 3 27 30 10 23 44 41 43 21 47 22
c order 25 20 43 19 41 26 39 35 13 16 22 47 9 23 28 36 18 38 30 42 45 32 17 21 5 6 1 49 15 8 24 48 14 4 50 33 44 3 46 27 10 2 29 12 31 7 11 34 37 40
c order 27 37 19 14 44 2 6 30 11 49 4 3 36 39 28 48 13 38 43 5 31 45 23 40 29 8 46 20 26 35 47 15 50 16 1 34 24 33 32 10 12 18 7 22 25 21 17 9 42 41
c order 39 27 16 50 32 2 48 7 41 40 14 38 3 5 36 24 28 13 17 23 37 30 11 44 34 25 45 19 49 4 12 21 31 1 18 35 43 29 47 26 15 10 22 42 6 8 33 46 9 20
c order 10 48 29 28 31 17 11 40 38 39 15 7 24 26 45 37 13 42 4 3 34 47 35 43 16 30 5 36 2 50 25 32 44 9 49 6 41 21 27 14 33 8 23 20 18 1 22 12 19 46
c order 1 16 2 41 11 20 13 33 43 34 10 44 4 27 45 30 14 46 29 18 8 9 28 32 3 7 23 42 47 21 38 24 19 25 50 6 12 22 49 17 39 31 5 36 15 37 26 35 48 40
p cnf 50 210
-18 41 40 0
47 28 -45 0
-25 -10 47 0
-42 5 17 0
-1 17 28 0
-25 29 -41 0
-44 -8 -17 0
-35 10 33 0
-35 12 10 0
15 34 44 0
-1 -30 41 0
-34 20 8 0
-5 -14 33 0
-38 -1 31 0
29 -8 27 0
-46 -28 50 0
22 29 -18 0
-50 8 29 0
29 6 18 0
46 -39 48 0
18 -31 -28 0
20 10 -4 0
6 -41 5 0
35 -44 -17 0
25 40 10 0
35 -49 29 0
15 -41 13 0
16 -34 -28 0
-37 48 -10 0
-7 -2 26 0
47 -40 -43 0
3 -18 -20 0
19 -49 45 0
30 15 -5 0
22 -6 23 0
-22 -2 -4 0
20 12 25 0
11 10 -3 0
-25 -35 -18 0
30 -37 -2 0
-35 -49 -50 0
46 41 -3 0
-4 -9 50 0
29 -42 -16 0
-29 10 -40 0
-15 2 -7 0
31 48 -19 0
-29 49 -13 0
48 -25 24 0
34 5 -13 0
-18 16 -44 0
50 -9 -45 0
30 -11 37 0
19 -44 26 0
-4 1 -2 0
-28 -44 -16 0
11 9 6 0
10 13 -47 0
-42 44 -32 0
-36 -31 50 0
41 -50 16 0
14 34 40 0
5 44 46 0
-41 -24 -35 0
-7 10 24 0
5 -16 -25 0
48 -9 44 0
-24 23 47 0
-9 -20 28 0
-32 -45 -16 0
-23 -44 4 0
-32 -15 40 0
47 -24 -17 0
8 -49 21 0
-43 -38 20 0
45 44 38 0
14 -10 -15 0
-12 1 16 0
-18 -6 49 0
49 24 -20 0
-14 -11 26 0
11 26 -47 0
37 12 29 0
9 -11 21 0
41 -2 46 0
48 11 28 0
-13 23 24 0
23 28 41 0
46 -33 41 0
-25 -4 40 0
6 -38 21 0
-1 11 -9 0
-28 -22 -46 0
2 -11 41 0
-49 -47 6 0
-50 -40 39 0
-30 8 18 0
21 38 9 0
-48 -16 -37 0
-34 -36 -1 0
43 -21 39 0
14 -48 -33 0
34 4 -43 0
3 10 13 0
40 7 37 0
-49 47 -2 0
-15 -29 -27 0
-27 -34 -31 0
23 -38 -46 0
12 -24 48 0
-31 44 36 0
-26 -10 -27 0
41 -3 30 0
34 -15 -23 0
12 -42 23 0
9 20 -36 0
-46 -3 41 0
-22 -2 -29 0
-27 -37 -8 0
34 29 19 0
43 -21 34 0
49 -6 33 0
4 -23 -10 0
-25 19 7 0
17 -42 -19 0
-24 -48 -10 0
-40 42 -31 0
-43 -10 1 0
7 41 1 0
-46 -48 36 0
-5 -35 -42 0
-32 -10 -50 0
-20 1 41 0
50 46 -20 0
-21 8 -36 0
2 -43 -40 0
-7 11 -18 0
-11 31 10 0
-2 -15 -12 0
-11 49 -25 0
14 -19 -27 0
-1 -43 -18 0
28 11 -21 0
11 35 -21 0
-36 39 -44 0
-36 38 34 0
-2 28 -16 0
36 -40 21 0
33 45 -37 0
5 11 4 0
16 10 49 0
-20 49 27 0
50 5 49 0
-23 -28 22 0
9 -47 -36 0
-10 3 41 0
-27 -7 -24 0
-30 13 15 0
-10 -1 -2 0
-43 -16 33 0
45 -19 7 0
-49 -14 12 0
31 -49 48 0
-31 8 -2 0
-25 -6 21 0
-16 39 -13 0
8 20 -34 0
22 19 27 0
-42 -16 34 0
-37 -10 -9 0
47 28 -18 0
-43 -15 -47 0
37 39 26 0
19 37 -2 0
27 11 -29 0
3 -49 27 0
-26 -36 4 0
25 -24 41 0
-1 -45 44 0
44 -23 -17 0
-47 -12 21 0
-46 4 13 0
-3 -46 29 0
23 22 -15 0
-24 -11 -12 0
21 -4 41 0
41 -32 27 0
17 13 10 0
-45 11 -26 0
-1 -49 28 0
34 -4 -39 0
-16 47 12 0
13 5 20 0
-44 19 11 0
-27 29 -32 0
34 -17 -28 0
22 -43 25 0
-29 -44 24 0
35 14 -8 0
15 36 -11 0
5 8 49 0
-45 -17 7 0
25 8 7 0
-33 -22 -39 0
-41 -39 44 0
28 29 -35 0
-11 47 -18 0
-15 -49 -12 0
-14 26 -23 0
-37 11 41 0
