c family=3-SAT n=50 instance=4 seed=2573548008 models=362
c order 43 13 45 26 49 27 17 31 8 23 28 42 50 7 3 14 32 36 4 30 9 46 6 20 29 40 33 38 1 47 19 35 21 25 24 37 48 5 39 11 22 44 18 34 2 15 12 16 10 41
c order 3 43 1 25 31 50 11 42 32 7 17 12 4 47 36 14 16 37 27 44 41 29 21 22 6 39 23 9 26 45 8 2 15 38 18 35 46 20 24 33 34 49 10 5 13 19 40 30 48 28
c order 12 47 43 6 50 18 28 33 35 27 10 46 29 34 38 15 2 49 26 48 24 3 44 25 31 14 42 20 45 4 19 22 39 36 23 37 9 32 8 41 1 40 11 21 30 17 13 5 7 16
c order 47 49 27 22 40 50 8 2 42 25 20 46 39 23 38 16 17 15 29 4 12 32 11 45 21 13 36 34 5 19 10 33 18 35 6 26 30 7 14 48 3 24 41 9 37 1 44 31 28 43
c order 10 30 6 47 23 44 26 41 14 37 36 13 43 50 33 15 29 16 34 48 5 28 20 4 9 24 46 3 22 1 39 25 12 45 21 27 38 19 17 42 18 35 7 49 32 8 2 40 31 11
c order 33 2 47 4 26 46 21 30 16 38 15 28 43 36 31 1 11 44 9 7 50 35 13 6 17 49 48 23 19 22 12 3 40 45 14 20 34 37 25 39 42 10 18 24 29 41 32 27 5 8
c order 46 45 19 38 28 11 49 47 15 24 30 7 32 9 29 22 6 31 12 34 40 42 27 25 2 35 21 8 33 18 48 17 4 23 41 1 36 3 37 43 26 39 50 14 20 13 10 44 16 5
c order 4 47 27 38 29 24 40 32 50 19 14 10 21 3 7 12 17 30 20 34 36 13 33 49 11 39 18 46 25 31 28 22 42 35 6 45 26 44 48 2 8 5 9 16 1 37 41 15 43 23
c order 46 13 2 43 5 44 8 29 40 37 45 17 4 30 28 9 14 48 10 1 22 50 16 47 23 34 15 3 33 39 41 18 20 21 11 7 42 49 27 26 31 25 32 36 12 35 19 6 38 24
c order 5 45 24 38 42 16 12 29 27 13 1 4 46 19 30 43 26 44 33 7 49 25 23 36 21 48 6 18 2 35 17 14 31 8 40 10 47 37 41 39 20 9 3 32 15 34 28 22 11 50
p cnf 50 210
-42 -47 -18 0
38 16 24 0
-32 8 -18 0
-33 34 -43 0
-43 29 -13 0
-12 -27 -41 0
-50 -38 -26 0
-41 6 4 0
-49 16 -43 0
-16 -33 -21 0
-48 -20 -10 0
2 -28 3 0
38 1 8 0
-48 -3 -44 0
27 8 19 0
-49 -8 19 0
21 -49 26 0
32 -39 19 0
-28 30 -46 0
12 -25 8 0
3 -40 2 0
-37 26 -8 0
-8 -35 -44 0
-18 10 40 0
-9 36 -33 0
-13 29 38 0
-1 -11 -42 0
23 9 -41 0
-43 -16 44 0
-6 16 -5 0
-38 11 -36 0
23 -15 32 0
17 2 -29 0
40 1 49 0
1 -33 -50 0
17 -13 -21 0
19 -36 -7 0
-9 28 -12 0
-15 -8 10 0
-31 29 -36 0
18 20 4 0
14 -15 -12 0
47 11 -32 0
-47 -29 26 0
-27 18 45 0
-3 38 21 0
-7 44 20 0
-28 -9 -34 0
18 44 -42 0
27 -16 -12 0
-24 -21 1 0
15 -35 20 0
-30 -20 38 0
-17 -36 -43 0
-4 48 15 0
-35 28 40 0
-31 -2 -21 0
39 48 -41 0
37 -14 7 0
-16 -25 21 0
-2 41 5 0
49 -33 34 0
17 3 33 0
40 24 -20 0
7 -15 48 0
-38 41 25 0
18 4 37 0
28 14 27 0
25 41 46 0
-23 -12 -26 0
38 -10 -2 0
50 44 -23 0
-17 33 -22 0
10 -35 38 0
-2 39 8 0
-27 35 -42 0
24 38 42 0
-1 -10 -3 0
-15 20 11 0
-12 34 37 0
-35 -24 26 0
9 25 -7 0
-30 -26 -9 0
14 -33 -35 0
48 -45 7 0
-7 -12 -21 0
-23 11 -17 0
35 -16 -19 0
-28 -1 48 0
-24 3 7 0
-25 -9 33 0
11 8 -43 0
-11 -46 34 0
49 26 -20 0
-11 -27 -9 0
-44 35 41 0
-15 -38 -29 0
-47 14 -46 0
-39 13 19 0
-12 21 -18 0
31 49 22 0
49 9 50 0
-41 3 -27 0
40 29 -32 0
-7 37 -45 0
-13 28 -35 0
24 47 -14 0
-44 2 20 0
-47 17 -49 0
-48 12 28 0
-47 -45 -34 0
-21 35 36 0
-23 -48 -25 0
46 23 43 0
38 2 13 0
4 7 11 0
-40 -7 -44 0
-7 -45 -19 0
5 -36 28 0
38 -16 25 0
-6 -45 26 0
12 22 -32 0
17 -29 -15 0
-40 23 22 0
-39 -43 47 0
11 -48 -20 0
48 -35 43 0
4 25 -39 0
4 30 2 0
3 -46 6 0
-10 -41 -31 0
-9 -3 -31 0
-16 30 -14 0
-12 23 43 0
6 -20 17 0
-45 -20 -33 0
7 11 -14 0
-32 -14 46 0
-29 -49 -26 0
17 8 36 0
-8 -17 -32 0
27 -2 3 0
6 -49 -39 0
-21 -27 -38 0
11 -3 -2 0
14 5 38 0
4 44 -46 0
-42 37 -43 0
34 -16 -35 0
-25 21 50 0
-10 14 -2 0
-26 -44 -8 0
-28 18 12 0
25 -46 36 0
-12 -2 -25 0
19 43 48 0
34 21 2 0
-39 37 41 0
18 -14 -22 0
-15 -9 -4 0
-19 47 36 0
5 -41 -35 0
6 -11 37 0
47 14 -22 0
42 -23 -1 0
-15 -38 -49 0
-42 40 20 0
-42 29 10 0
2 46 -44 0
-39 -13 47 0
48 1 -4 0
25 -18 8 0
2 -6 -29 0
2 -41 36 0
-30 -16 29 0
-19 -29 -7 0
-39 -25 47 0
9 40 17 0
-14 -39 -44 0
-44 30 32 0
1 35 -19 0
13 -18 39 0
5 -7 -38 0
17 -49 -5 0
-49 34 48 0
43 -25 -37 0
-18 -47 13 0
25 -12 35 0
12 27 -49 0
-33 2 -44 0
12 4 41 0
-31 18 4 0
1 3 -19 0
-26 -40 -50 0
-42 -8 -18 0
30 31 -40 0
-38 -43 -31 0
-1 -38 -8 0
-48 17 -11 0
12 -45 50 0
27 -9 13 0
-20 43 -11 0
-41 31 44 0
18 16 -1 0
22 -20 -17 0
-10 -23 46 0
-39 -4 14 0
-41 38 -19 0
13 -15 27 0
-17 23 26 0
