c family=3-SAT n=50 instance=1 seed=2573548008 models=96
c order 17 44 5 24 10 40 18 20 14 7 11 21 26 32 19 13 45 16 42 30 6 41 23 35 27 2 15 25 36 50 28 47 12 1 46 4 43 39 22 31 37 48 33 49 3 38 9 34 8 29
c order 23 19 2 7 48 45 4 10 12 39 17 37 38 18 34 3 36 25 6 14 27 1 33 30 15 22 8 50 47 43 26 11 28 44 42 20 9 24 32 49 29 21 16 40 13 35 5 31 41 46
c order 9 47 32 31 10 6 11 28 41 18 19 12 29 24 25 4 22 1 21 40 36 27 15 8 34 30 48 23 37 2 43 13 17 14 42 35 26 16 39 45 50 20 46 49 33 44 38 7 3 5
c order 17 24 20 23 31 50 9 48 49 7 28 25 19 43 32 34 26 29 13 47 15 42 38 40 22 39 4 16 6 2 14 41 10 27 1 12 37 45 30 3 36 5 18 8 11 33 44 46 21 35
c order 6 19 38 43 45 30 22 27 46 15 31 34 11 10 5 50 49 37 36 23 17 25 7 9 2 13 32 4 8 47 18 39 20 16 24 35 28 21 42 12 40 26 41 48 29 44 14 3 1 33
c order 50 23 42 30 49 17 7 24 21 1 19 44 13 33 20 12 48 43 40 29 27 10 46 31 45 18 28 3 8 36 41 11 37 35 9 5 38 34 4 26 14 32 47 16 2 6 22 39 25 15
c order 19 50 21 12 13 49 7 6 41 34 37 47 2 27 14 42 48 11 1 15 33 35 17 20 23 36 18 45 26 38 16 24 46 40 3 32 5 43 22 25 10 44 8 39 9 31 30 4 29 28
c order 20 37 4 2 41 38 11 32 15 39 35 30 13 23 47 21 5 14 28 45 48 27 33 36 10 7 26 25 17 46 9 22 3 44 43 49 29 34 12 6 50 18 42 31 8 24 16 1 40 19
c order 16 27 35 41 2 9 23 3 21 22 42 38 28 47 17 45 19 40 30 18 50 1 6 33 31 25 44 10 34 49 13 14 7 39 4 43 29 20 24 11 32 12 15 26 48 8 5 46 37 36
c order 37 9 27 45 31 48 18 43 46 23 26 20 8 40 30 44 16 24 11 22 6 29 33 4 38 1 41 36 39 12 7 19 49 14 21 2 5 47 10 3 15 50 35 32 28 25 34 13 42 17
p cnf 50 210
21 -11 24 0
-37 -29 13 0
48 -5 41 0
34 7 32 0
-34 -44 -39 0
31 14 6 0
28 8 27 0
-34 35 21 0
35 1 5 0
38 -12 7 0
-10 -33 18 0
-18 31 -37 0
-4 -47 7 0
6 46 44 0
48 28 -8 0
33 1 -49 0
-38 34 -40 0
32 24 29 0
19 7 -18 0
49 -6 -5 0
-26 45 -19 0
39 -47 -46 0
-9 -5 -12 0
25 -6 11 0
-5 -27 -41 0
-38 -50 -7 0
33 -43 -4 0
20 -50 -38 0
-24 -25 -32 0
25 -18 2 0
10 15 3 0
20 -30 -1 0
33 32 29 0
-46 3 2 0
48 41 44 0
-48 5 22 0
-18 -29 7 0
-34 -19 21 0
-7 -34 37 0
48 -12 -19 0
16 -34 -1 0
-24 42 -27 0
28 29 -3 0
-20 42 -50 0
24 29 34 0
26 33 27 0
2 39 -43 0
-46 -21 -17 0
12 35 -30 0
-7 -44 -39 0
23 -4 -11 0
-23 -31 49 0
-10 48 50 0
50 32 11 0
-25 24 -15 0
-46 45 -25 0
33 -19 26 0
26 -49 -14 0
-30 -17 20 0
31 -17 28 0
-35 -44 8 0
-21 26 -34 0
38 -37 43 0
-45 -34 -48 0
-4 41 -24 0
1 -37 18 0
-46 18 -44 0
3 7 27 0
36 31 -9 0
-13 -31 -11 0
45 -34 46 0
-45 17 -33 0
50 34 46 0
-9 18 13 0
43 -10 49 0
-25 -9 38 0
-36 -25 -6 0
26 -19 -25 0
25 -16 -8 0
-6 2 46 0
9 40 -19 0
1 -45 -10 0
-42 26 21 0
-19 15 -5 0
12 31 39 0
-12 -42 32 0
-25 1 -4 0
-30 -36 -20 0
-16 -28 -23 0
46 39 34 0
-24 -29 17 0
-5 46 7 0
35 12 -45 0
-50 43 22 0
-31 -34 -25 0
4 -31 -33 0
-30 -29 22 0
44 -6 33 0
-3 12 36 0
-39 -18 41 0
-19 -42 6 0
-7 -16 21 0
16 -34 -8 0
-37 -32 43 0
-29 -42 21 0
36 25 -37 0
47 34 -43 0
5 31 -42 0
-47 22 2 0
-34 -30 -24 0
9 44 5 0
-24 -31 8 0
-18 13 -41 0
-7 31 -49 0
-49 -7 25 0
45 -23 -15 0
48 -46 -28 0
-5 -15 35 0
18 -39 42 0
35 19 4 0
-14 -22 25 0
-15 6 48 0
35 -4 -25 0
-2 46 -34 0
-25 -8 -36 0
26 -21 -18 0
44 38 -12 0
41 33 46 0
-49 -47 46 0
-40 -8 1 0
-47 -10 -32 0
-33 -49 47 0
21 8 37 0
-22 -38 8 0
-30 -17 -45 0
-9 -23 -27 0
-46 37 -13 0
-30 -33 -35 0
-38 9 -24 0
15 45 30 0
-23 -38 3 0
-45 -14 10 0
17 22 -43 0
-44 -3 -30 0
2 11 -29 0
-5 -9 2 0
21 -10 43 0
-6 -18 49 0
9 -46 8 0
-5 1 -33 0
-8 -22 12 0
22 21 34 0
33 35 9 0
21 -2 33 0
4 9 -37 0
-44 29 -28 0
-14 24 -22 0
-31 35 11 0
29 -3 44 0
33 -36 7 0
-27 -47 -31 0
-4 49 -34 0
-11 35 44 0
22 -19 25 0
28 -48 -19 0
45 43 -6 0
21 40 -35 0
-18 12 44 0
20 -44 -16 0
21 -34 -24 0
31 -3 50 0
14 45 15 0
-36 -33 -27 0
-2 40 -44 0
22 -35 11 0
-12 49 -6 0
-31 -47 27 0
-10 23 45 0
3 24 23 0
-8 -1 -5 0
-28 -19 26 0
-15 47 -43 0
-40 46 17 0
39 7 17 0
13 22 14 0
-18 12 -48 0
-19 6 37 0
-18 47 40 0
3 44 -16 0
-26 13 7 0
18 21 22 0
-9 1 -7 0
-49 -1 -48 0
-6 40 -45 0
34 -24 30 0
23 -37 -26 0
-18 -1 -23 0
-44 22 -31 0
-33 -49 29 0
-21 43 -35 0
-24 32 1 0
16 27 -24 0
34 9 -28 0
-43 -12 31 0
-42 45 -18 0
-10 -17 7 0
7 -40 -17 0
28 16 38 0
23 18 -42 0
-13 31 48 0
