c family=3-SAT n=55 instance=8 seed=2573548008 models=143
c order 26 55 29 6 52 34 31 20 38 46 1 23 13 53 21 37 24 8 28 36 12 49 3 48 47 25 40 33 17 2 18 27 43 11 22 50 32 39 15 41 30 4 9 54 45 7 35 42 51 10 19 16 14 5 44
c order 21 24 53 20 25 46 30 48 43 12 4 51 37 9 32 42 13 23 34 54 15 1 50 38 10 28 55 33 44 5 45 41 19 16 49 22 36 7 52 26 27 39 2 8 3 35 18 47 17 6 14 29 40 31 11
c order 49 3 50 6 42 47 23 19 5 9 21 16 33 38 11 2 1 51 35 39 32 54 7 13 26 18 27 12 14 17 30 8 29 40 43 36 31 22 41 37 25 46 20 34 24 28 45 48 15 44 10 55 53 52 4
c order 15 4 45 10 41 50 19 39 20 13 18 28 7 40 29 27 48 2 47 49 43 1 11 14 52 51 17 35 16 22 6 38 34 21 32 25 26 30 8 33 42 23 44 5 3 37 54 46 55 12 31 9 36 24 53
c order 32 53 22 49 52 21 31 25 46 41 3 40 48 38 10 54 7 2 35 45 50 9 18 29 28 30 37 24 5 51 15 8 33 55 34 42 16 19 6 4 47 27 12 11 23 36 39 20 17 26 14 13 44 1 43
c order 3 46 31 16 34 47 43 11 21 15 40 51 9 6 22 39 36 28 5 14 42 37 18 24 55 53 52 41 50 13 23 2 35 33 7 30 17 38 8 10 26 25 54 29 27 12 48 19 32 45 4 49 20 1 44
c order 16 51 3 31 37 18 35 14 30 45 21 47 2 7 8 44 15 40 38 43 5 32 49 19 11 12 24 34 41 55 27 33 17 13 28 39 42 26 6 46 9 1 50 23 48 36 29 22 52 54 4 25 53 10 20
c order 2 51 27 13 55 26 37 35 49 45 32 5 41 44 18 54 20 42 50 4 16 11 30 15 3 24 17 12 1 7 25 48 36 53 28 46 22 43 39 33 23 29 8 40 52 47 6 19 31 9 14 34 10 21 38
c order 15 24 47 25 8 12 18 21 2 52 9 11 29 32 43 14 50 53 44 39 41 23 17 36 4 19 7 40 30 48 33 46 13 27 37 26 5 28 35 6 51 34 3 42 54 45 38 16 31 22 20 49 10 1 55
c order 39 33 29 27 1 24 32 52 26 28 51 11 16 53 55 25 30 14 21 36 12 48 31 7 10 35 6 49 4 40 41 37 9 22 54 50 13 38 5 47 23 18 44 2 3 20 43 17 42 8 15 46 19 34 45
p cnf 55 231
33 17 -28 0
-52 -50 -53 0
-18 12 25 0
41 -51 -3 0
-48 16 -41 0
-6 37 10 0
31 -29 33 0
9 -13 -4 0
46 -1 -32 0
-47 -5 -35 0
-3 -29 17 0
-51 -41 -11 0
44 48 -4 0
28 52 -19 0
16 -31 55 0
40 -17 -51 0
16 31 13 0
34 -8 -40 0
-10 50 23 0
27 14 42 0
-11 4 35 0
-55 -20 44 0
-43 2 29 0
-48 45 55 0
14 45 -40 0
12 31 26 0
-52 46 22 0
-10 24 -16 0
33 50 -23 0
-51 39 24 0
22 35 -36 0
-6 -7 25 0
45 52 2 0
-5 12 -36 0
-33 24 36 0
-17 12 55 0
-52 -8 -6 0
11 49 -23 0
-35 -44 -1 0
27 13 -36 0
-23 6 -29 0
3 -53 -30 0
-1 -40 22 0
1 -13 -46 0
-24 -27 -41 0
-3 -26 12 0
9 52 -14 0
-45 50 -39 0
-10 49 29 0
-51 -1 -11 0
-9 -6 52 0
-18 -1 27 0
-15 44 53 0
41 14 -54 0
-24 52 45 0
-4 -2 48 0
21 36 -33 0
3 -7 -21 0
-28 10 17 0
3 27 22 0
11 41 -51 0
24 3 -11 0
50 -28 -40 0
-44 -11 -32 0
22 19 51 0
28 21 26 0
14 51 -23 0
-39 -19 -55 0
-8 31 -21 0
-36 11 -34 0
33 12 13 0
-52 24 47 0
-33 -54 28 0
25 -45 42 0
-43 24 -11 0
-16 41 -51 0
-25 -29 -24 0
-32 24 -1 0
-19 15 46 0
32 5 -27 0
-50 -46 -28 0
12 17 36 0
-23 14 36 0
29 -48 -34 0
8 -54 44 0
-15 -7 -55 0
-26 -23 1 0
51 -11 15 0
-40 20 -52 0
52 -38 -54 0
-51 -38 23 0
21 46 -40 0
-8 5 -54 0
4 12 51 0
-33 22 47 0
35 17 10 0
-40 -15 13 0
-22 -33 -17 0
25 -15 -12 0
-55 39 -27 0
34 -52 -48 0
-5 -34 16 0
-51 41 4 0
19 -22 28 0
10 20 -50 0
53 11 -24 0
-24 -41 -26 0
13 2 -34 0
-2 -28 -29 0
-24 11 23 0
-35 -22 -25 0
2 10 -38 0
-37 2 -27 0
18 -47 11 0
23 42 18 0
37 15 -18 0
-42 34 22 0
37 -34 1 0
-33 29 -31 0
-10 50 -54 0
2 8 52 0
39 40 -18 0
4 31 25 0
-30 39 -52 0
-19 -9 44 0
-24 4 50 0
-47 51 19 0
3 -47 -28 0
-43 -23 33 0
6 -26 -27 0
29 15 51 0
-12 11 -52 0
-37 5 32 0
-22 -17 8 0
32 4 15 0
-45 33 4 0
-17 13 -12 0
-36 -53 10 0
27 -38 -12 0
39 -30 -48 0
-52 37 8 0
11 -33 -17 0
-5 6 -37 0
55 -23 43 0
14 10 52 0
16 -54 -37 0
44 21 -32 0
-34 -17 -20 0
-23 -27 35 0
-22 -13 47 0
40 -48 1 0
9 -24 29 0
-55 -19 -2 0
-52 27 11 0
-37 -7 -34 0
-40 25 17 0
-9 -31 24 0
-24 -37 -8 0
-14 -28 22 0
-23 -28 34 0
-26 -25 -32 0
49 -37 -14 0
-6 27 38 0
-30 -40 -49 0
-23 14 18 0
2 -1 8 0
-15 29 -20 0
53 28 2 0
47 -19 42 0
-18 -51 -46 0
-41 26 -15 0
-48 14 9 0
-49 -46 27 0
-15 17 -8 0
47 49 44 0
23 6 -4 0
-1 -29 -6 0
-50 -23 -13 0
55 39 36 0
36 3 -45 0
-55 7 16 0
-25 42 43 0
-2 -18 23 0
27 -17 -28 0
45 -13 36 0
-14 15 -45 0
-32 -15 21 0
39 30 8 0
7 -31 -17 0
19 50 -12 0
41 -9 -44 0
32 21 46 0
-47 -41 36 0
30 -1 -44 0
44 -51 -43 0
-24 19 28 0
-29 -18 -3 0
-38 6 26 0
-10 -4 13 0
-50 -43 -55 0
4 37 -11 0
-10 51 -20 0
29 20 28 0
-30 -6 -32 0
25 -37 35 0
37 5 2 0
-38 -30 -21 0
-23 -51 19 0
43 51 -55 0
33 31 44 0
17 -10 -48 0
-8 -36 6 0
-54 48 2 0
33 -52 30 0
-32 -10 -4 0
54 -13 1 0
-22 -17 28 0
12 -39 9 0
-42 -23 8 0
-16 44 50 0
-14 42 44 0
53 -47 44 0
-42 -3 44 0
-46 18 54 0
42 9 16 0
5 -14 -7 0
21 -17 19 0
6 36 14 0
-13 -30 -43 0
-48 -2 44 0
25 -3 -16 0
