c family=3-SAT n=55 instance=1 seed=2573548008 models=2306
c order 28 3 6 8 33 35 18 47 17 20 29 12 1 43 41 27 40 39 10 54 14 51 24 13 44 15 26 37 48 42 55 25 23 53 4 38 22 19 30 34 49 31 5 16 11 45 7 52 9 32 50 46 2 36 21
c order 4 43 20 1 55 22 53 19 41 46 34 8 32 36 15 14 30 17 47 42 12 52 13 29 38 3 45 54 10 44 39 11 28 21 2 37 7 33 18 26 35 48 24 27 5 50 51 16 6 25 40 49 9 31 23
c order 15 11 30 32 29 46 42 17 19 43 48 51 31 52 8 27 55 14 37 34 21 38 26 45 24 4 36 2 40 3 12 25 5 41 53 16 6 18 47 49 28 50 13 39 9 23 1 33 54 35 20 7 22 10 44
c order 12 35 13 34 24 48 55 36 31 23 20 9 38 7 33 50 1 10 54 16 4 53 29 6 5 21 30 18 19 41 15 47 28 46 43 14 39 44 22 11 25 45 37 26 27 49 32 2 8 17 40 51 42 52 3
c order 21 25 36 42 12 4 19 39 31 35 18 23 30 11 24 40 7 49 22 2 51 34 29 13 9 37 1 3 6 38 33 27 17 47 14 15 53 48 43 16 41 46 26 45 54 8 10 32 50 5 55 28 20 44 52
c order 23 1 17 47 44 36 50 10 52 33 49 28 25 37 14 18 38 8 43 6 22 3 7 39 54 29 55 21 34 32 16 41 40 51 15 42 20 53 12 4 24 27 13 46 2 5 45 31 11 26 35 30 48 19 9
c order 9 26 3 28 41 40 55 15 31 6 27 50 16 47 43 34 49 54 35 44 24 25 1 22 19 5 48 51 20 53 21 7 52 11 36 18 17 10 30 4 32 38 13 14 8 12 39 29 2 23 45 42 46 37 33
c order 43 51 19 35 15 29 7 9 27 31 13 26 44 10 28 22 34 49 25 6 1 38 5 4 50 32 16 53 52 45 8 46 18 48 14 12 2 23 11 3 37 47 33 54 36 42 17 30 21 55 39 20 41 24 40
c order 44 31 15 14 24 34 9 27 32 28 54 19 12 25 18 4 20 37 33 48 26 46 7 43 10 11 53 8 52 29 16 3 17 50 51 42 13 40 2 39 38 55 41 49 36 35 47 22 23 21 6 1 30 45 5
c order 1 28 15 44 45 25 4 30 35 55 20 18 36 48 19 29 2 13 42 8 38 47 12 51 23 46 39 10 41 9 32 3 5 37 16 7 40 33 26 21 50 31 22 49 34 24 52 6 43 54 14 27 11 53 17
p cnf 55 231
-31 15 -18 0
2 20 14 0
-39 -51 -15 0
-49 25 -30 0
-4 -41 46 0
-6 24 -29 0
-37 -35 26 0
40 48 26 0
-15 -28 48 0
-16 5 50 0
15 -6 20 0
-46 -4 -37 0
-24 -6 18 0
14 -54 -33 0
-44 -54 7 0
-33 9 12 0
51 -32 42 0
-18 14 15 0
-24 -38 16 0
5 39 24 0
-52 15 37 0
-45 21 50 0
31 -3 -1 0
-51 1 -33 0
17 -42 -13 0
55 -30 15 0
-41 -3 -39 0
-39 13 -43 0
-10 -49 -40 0
25 -10 38 0
-36 -30 34 0
-36 -24 16 0
-10 44 -9 0
42 26 -9 0
31 -53 23 0
-25 -2 49 0
34 -18 -36 0
-22 -53 -43 0
9 35 -34 0
-31 -8 37 0
-27 -29 13 0
18 20 -23 0
-18 -3 27 0
-17 -8 -54 0
16 50 47 0
-5 19 -36 0
18 -32 -25 0
-27 25 14 0
30 2 17 0
-9 -2 -42 0
-40 7 32 0
18 44 24 0
35 -36 38 0
-21 12 22 0
31 -46 -24 0
14 -8 -24 0
51 12 31 0
-30 12 -20 0
39 6 29 0
-13 -18 6 0
51 -18 37 0
-53 15 21 0
15 -35 20 0
-20 54 50 0
-26 54 16 0
55 -49 32 0
5 -1 -26 0
-26 -8 39 0
40 -45 -18 0
31 -22 27 0
5 12 -1 0
-44 45 49 0
47 -53 31 0
-53 -37 7 0
30 -55 -8 0
25 22 -5 0
16 55 -49 0
15 1 18 0
6 50 16 0
7 24 28 0
3 -46 35 0
-12 34 22 0
-6 16 -3 0
45 33 -7 0
-17 -53 18 0
-40 19 34 0
52 -41 51 0
15 36 53 0
-30 31 1 0
-13 -21 -42 0
46 33 -28 0
7 28 -15 0
52 -23 3 0
-9 34 -44 0
-9 -21 4 0
-32 -52 41 0
12 -9 -5 0
19 5 -47 0
-53 -16 -3 0
-35 -36 17 0
-49 44 -11 0
25 -9 -14 0
-8 -32 37 0
-10 4 32 0
50 -51 -26 0
-29 53 33 0
13 18 -25 0
32 30 -21 0
-28 -5 23 0
8 50 21 0
-7 -52 -16 0
-38 13 -4 0
-29 -36 41 0
21 31 17 0
15 50 9 0
44 37 53 0
17 46 -15 0
-5 -44 -26 0
54 -15 43 0
-25 44 -24 0
-31 28 20 0
7 -22 -45 0
-41 -26 38 0
-9 -24 29 0
34 -27 -51 0
55 -10 -39 0
31 7 -40 0
50 21 -32 0
55 -31 32 0
-9 -45 -13 0
-52 55 8 0
16 -31 12 0
49 39 -9 0
20 11 37 0
-14 -37 -25 0
-34 31 37 0
48 -8 -25 0
-53 -21 54 0
10 23 50 0
-26 -24 -13 0
-14 8 -17 0
-41 46 23 0
21 44 -54 0
30 -35 -47 0
31 53 -42 0
-19 16 -9 0
-39 -33 35 0
-39 -13 -43 0
11 -21 5 0
20 40 48 0
49 -17 -32 0
-21 -16 -42 0
27 -24 50 0
39 9 -36 0
-2 13 -31 0
-33 18 -10 0
11 -21 -12 0
49 -45 7 0
20 16 41 0
-6 -10 29 0
-12 15 20 0
24 16 -3 0
38 -8 17 0
-50 -33 44 0
2 -41 53 0
45 -21 16 0
-40 34 -37 0
4 -30 -24 0
-20 -17 -34 0
24 -43 -22 0
-14 -47 22 0
2 50 -40 0
-16 -12 -34 0
37 26 47 0
5 -3 -44 0
-40 -50 -22 0
-26 -34 -53 0
-55 -38 -4 0
-47 -12 -33 0
-33 -39 -53 0
-5 29 10 0
37 39 10 0
5 27 -42 0
-49 25 29 0
2 -6 -47 0
51 -35 9 0
-45 -52 5 0
-23 -16 -28 0
-25 -22 -18 0
-49 -19 -42 0
-11 -51 -10 0
-48 20 55 0
16 -52 -17 0
-14 -55 31 0
-8 -17 -55 0
7 -43 10 0
-4 -55 -31 0
-2 -26 -42 0
-33 -51 36 0
36 2 -25 0
9 -35 -12 0
-4 -13 -19 0
-51 -1 -6 0
-46 -16 -6 0
-28 -5 19 0
-36 -16 17 0
36 24 -12 0
11 55 33 0
-48 -22 -8 0
-6 8 -30 0
-51 6 -33 0
48 -24 -41 0
-31 -20 26 0
41 -43 -15 0
-50 -8 11 0
22 -2 -44 0
-14 6 -7 0
-49 30 -11 0
21 -31 -43 0
43 -2 -53 0
28 -36 -52 0
-34 8 33 0
-15 -12 -30 0
31 39 -54 0
43 36 24 0
54 -21 -4 0
-42 40 -53 0
-43 49 17 0
45 43 -54 0
-33 9 11 0
31 -53 -9 0
