c family=3-SAT n=55 instance=0 seed=2573548008 models=48
c order 54 17 31 37 1 51 30 24 52 13 4 25 27 23 32 50 6 39 12 45 21 22 55 3 49 35 33 8 29 46 14 42 11 44 5 15 36 18 20 9 16 53 7 2 41 38 47 43 28 26 10 40 48 34 19
c order 32 13 42 31 27 11 26 8 54 20 40 48 51 9 19 50 43 7 53 33 3 34 12 45 29 47 28 55 14 35 39 21 44 22 18 30 1 10 17 6 15 24 2 4 52 46 25 49 37 16 23 41 5 36 38
c order 35 41 28 26 43 54 37 22 27 34 12 30 16 19 8 32 9 17 29 1 53 25 39 15 18 5 24 42 14 23 48 20 2 38 51 10 36 6 50 45 4 40 55 21 52 44 13 7 46 49 47 3 31 33 11
c order 49 51 52 50 6 19 14 12 38 15 39 36 21 10 53 33 32 55 18 24 1 42 26 29 28 25 40 27 45 17 44 4 47 9 46 7 8 22 37 31 30 23 5 13 35 34 43 48 2 3 54 20 41 11 16
c order 38 16 3 4 26 23 28 37 8 17 10 48 24 54 14 45 30 50 31 40 47 20 29 43 42 19 33 21 41 15 36 12 34 18 22 5 27 53 46 35 11 44 55 9 7 25 32 6 2 49 39 52 1 13 51
c order 30 52 10 28 26 3 15 34 7 22 8 51 9 1 14 19 41 42 45 40 53 23 50 29 33 49 20 46 24 39 5 47 43 44 36 11 31 55 37 4 21 27 16 32 18 54 12 48 6 2 38 13 25 17 35
c order 28 41 21 22 35 12 43 51 23 50 5 14 30 42 44 33 2 1 24 38 27 45 26 25 34 48 6 31 9 29 15 55 53 49 16 20 39 40 19 46 37 17 36 8 47 52 7 13 3 10 4 54 32 11 18
c order 11 38 53 34 54 51 2 21 55 12 16 36 29 52 15 50 43 32 6 44 9 8 49 25 19 39 17 42 24 7 3 18 46 47 26 35 40 37 45 48 33 30 1 22 20 13 28 27 5 23 41 4 31 10 14
c order 48 6 1 32 54 37 11 46 15 33 26 5 10 42 23 36 2 45 8 30 47 51 14 28 13 31 41 49 21 3 43 34 4 44 40 53 18 55 7 20 52 19 35 39 12 29 9 24 38 50 27 17 22 16 25
c order 53 42 15 41 7 18 39 20 14 4 23 46 49 12 43 36 47 38 55 33 29 8 13 45 21 30 34 32 1 35 6 28 54 25 17 27 40 11 52 22 16 24 3 51 31 19 44 9 5 50 37 10 48 2 26
p cnf 55 231
21 -5 11 0
15 -16 -22 0
22 -51 46 0
-32 21 -41 0
-23 52 41 0
-17 -26 -5 0
-32 -22 -29 0
-30 -39 46 0
-2 -55 28 0
19 7 38 0
40 -45 -44 0
-2 6 -17 0
9 42 -20 0
-35 20 -4 0
46 -12 -36 0
36 -18 -40 0
-39 -11 34 0
42 -28 29 0
-36 -24 -9 0
-46 15 36 0
34 24 -15 0
48 54 4 0
-3 42 -45 0
50 55 -2 0
-36 -23 -8 0
46 -10 21 0
-43 -7 -39 0
12 -54 49 0
32 40 14 0
-18 -3 -37 0
41 4 -54 0
-40 -6 28 0
-47 15 -38 0
-46 28 -50 0
22 16 -4 0
-25 50 10 0
42 -46 11 0
-31 -6 -15 0
-43 -22 -20 0
27 -18 -49 0
-11 42 20 0
-23 8 54 0
-26 17 33 0
-31 12 10 0
53 11 18 0
-18 -6 11 0
-28 27 46 0
14 -42 10 0
23 26 -5 0
30 -29 -46 0
43 -19 11 0
-27 -51 -10 0
23 -43 -50 0
19 -7 -21 0
-9 -17 10 0
37 -24 -4 0
-33 -17 13 0
-22 49 45 0
11 45 -54 0
53 -49 14 0
-8 36 12 0
-8 36 -47 0
28 19 34 0
-55 -20 -41 0
9 -16 -18 0
17 -10 38 0
31 32 -53 0
-48 36 -13 0
17 11 -51 0
39 -31 8 0
31 -13 -30 0
15 36 -9 0
5 35 37 0
31 -2 -9 0
-54 -39 -26 0
49 50 -33 0
-17 50 -23 0
34 32 -37 0
47 -41 -10 0
-27 -46 23 0
-54 -14 34 0
15 -24 -2 0
-26 -19 -6 0
-11 -24 -25 0
-49 45 31 0
-12 3 -14 0
44 -38 24 0
-18 -52 -10 0
-21 49 -33 0
2 30 -6 0
33 -26 27 0
-34 -20 -9 0
17 16 8 0
44 -18 2 0
25 39 36 0
37 43 -32 0
-4 -32 25 0
1 45 12 0
-55 30 -40 0
28 -4 53 0
-31 -5 -1 0
20 -46 -44 0
-19 10 -18 0
12 -41 -21 0
43 7 52 0
1 -11 40 0
19 -44 41 0
51 -48 -19 0
3 -8 -50 0
1 11 24 0
-41 19 -52 0
32 -48 23 0
6 23 24 0
-17 16 12 0
-47 45 13 0
16 -51 -32 0
31 43 6 0
10 -55 -46 0
9 -48 14 0
21 34 52 0
-22 6 34 0
21 -20 30 0
-12 46 -41 0
29 52 -50 0
19 -50 -45 0
43 38 -2 0
37 -55 29 0
-5 -33 -27 0
10 -50 -4 0
41 -16 30 0
-15 -32 -31 0
30 -37 -7 0
-52 26 -45 0
-15 16 5 0
-48 -3 41 0
7 -41 -14 0
-5 -48 -9 0
-15 25 11 0
-15 -39 44 0
-26 34 -33 0
-44 39 -22 0
47 -50 -14 0
32 50 2 0
24 46 16 0
18 -17 52 0
-15 -17 53 0
-39 -49 -22 0
26 37 -17 0
22 36 48 0
-30 -41 1 0
45 -23 20 0
39 22 -17 0
-39 -17 -48 0
50 41 42 0
-7 15 50 0
17 22 51 0
-7 23 -38 0
-50 20 -30 0
-49 26 -22 0
-54 -36 -19 0
6 52 35 0
40 -52 -38 0
-14 -48 31 0
47 -54 55 0
51 -55 38 0
18 -43 -34 0
-44 1 -35 0
30 -6 -38 0
51 -49 47 0
17 34 33 0
15 50 -19 0
-15 5 -27 0
-13 3 27 0
-53 -43 -15 0
-9 47 38 0
-8 21 -17 0
17 -32 42 0
-27 -53 35 0
37 -13 14 0
6 -4 11 0
51 -22 4 0
-35 3 -34 0
-40 9 12 0
-51 1 33 0
-21 8 26 0
-6 40 -11 0
41 31 -6 0
9 40 -14 0
-14 40 -47 0
-1 -19 -41 0
21 18 8 0
7 -55 31 0
-4 2 5 0
14 -53 -30 0
50 -11 -25 0
-5 19 -53 0
52 -37 39 0
55 -8 -54 0
9 -18 -12 0
-23 -52 36 0
-48 -50 -1 0
-51 8 -32 0
38 19 26 0
-53 24 46 0
-6 -5 -31 0
-3 27 -48 0
1 -42 33 0
22 12 16 0
-24 7 -30 0
40 46 -47 0
6 -28 -15 0
3 18 27 0
40 52 38 0
21 32 38 0
38 -22 -11 0
-39 -1 4 0
-2 -54 -51 0
34 45 31 0
45 4 -13 0
21 48 44 0
16 27 52 0
55 16 24 0
-46 -14 -45 0
-19 -39 -51 0
2 22 27 0
36 46 31 0
-7 -27 24 0
30 51 -27 0
-30 24 -51 0
-45 -22 39 0
-37 -53 54 0
