c family=3-SAT n=55 instance=9 seed=2573548008 models=1496
c order 28 29 33 52 9 13 45 12 40 22 7 10 39 11 46 55 31 36 38 5 42 51 49 41 50 27 19 1 8 47 14 37 43 26 15 32 25 48 30 16 35 6 54 23 53 4 3 24 2 21 20 17 44 34 18
c order 15 48 19 51 2 10 26 24 13 22 28 55 5 45 52 25 44 9 18 32 46 30 29 11 39 7 21 42 40 43 23 8 33 35 14 17 37 41 50 54 20 49 34 12 53 4 47 38 1 31 16 27 3 6 36
c order 18 21 13 3 36 52 9 17 7 40 20 19 8 43 49 4 6 54 35 37 31 5 51 55 47 50 12 42 28 26 23 16 32 10 48 41 14 34 11 27 45 24 15 33 53 44 29 38 30 25 2 1 22 46 39
c order 24 44 37 46 33 19 16 54 9 25 23 10 20 30 3 13 15 40 28 12 35 21 31 53 11 29 47 39 26 5 36 52 27 32 17 7 42 22 34 4 48 41 51 50 8 18 43 6 1 14 55 2 49 38 45
c order 3 35 47 52 22 29 55 49 13 21 45 42 32 1 24 16 8 2 23 44 54 10 4 34 31 27 19 33 46 6 15 39 17 20 25 41 43 40 18 28 11 51 36 26 9 50 48 14 30 37 12 38 53 5 7
c order 42 29 24 25 46 40 43 31 51 44 1 18 19 45 54 33 7 32 53 34 8 37 52 6 15 27 47 23 17 50 38 36 21 55 26 20 11 28 14 3 12 16 5 4 10 48 13 41 49 22 30 35 2 9 39
c order 26 33 21 16 38 5 46 47 45 18 37 24 12 4 35 6 53 36 28 23 29 32 14 43 8 51 1 44 20 3 41 17 54 11 50 31 42 55 39 25 13 15 19 40 52 9 34 2 22 27 49 48 7 30 10
c order 53 28 27 13 8 46 11 19 20 34 42 21 47 39 50 29 32 51 55 9 24 49 41 7 14 45 33 43 48 35 1 26 40 17 15 6 4 12 5 22 37 54 25 38 31 18 44 3 16 36 10 30 23 52 2
c order 2 32 29 51 37 3 36 44 27 24 20 25 15 47 50 13 30 43 52 18 8 54 49 19 14 23 17 34 42 10 7 6 16 22 38 45 48 41 5 46 33 21 26 9 35 1 4 55 53 28 40 11 31 12 39
c order 9 36 5 45 27 50 46 3 25 34 15 10 12 49 13 4 29 14 33 55 20 1 26 6 23 44 41 47 40 8 30 48 16 28 11 43 51 54 22 24 17 32 37 38 39 52 7 35 19 18 42 31 53 21 2
p cnf 55 231
10 45 42 0
34 3 -50 0
-52 -15 -27 0
44 -47 -49 0
37 28 -35 0
-45 -37 -29 0
-43 -33 -48 0
-42 29 -53 0
51 -4 -37 0
-41 50 52 0
28 -9 -19 0
-46 32 20 0
-4 37 22 0
40 12 36 0
37 -32 18 0
43 -48 55 0
-16 12 40 0
-26 8 -52 0
32 25 -18 0
24 44 8 0
-51 9 -2 0
-25 43 23 0
44 50 9 0
31 -49 3 0
42 -9 30 0
-33 18 -31 0
-12 -38 13 0
-9 25 -29 0
51 8 54 0
45 18 8 0
37 -24 -13 0
54 -44 -48 0
30 16 37 0
14 26 33 0
9 -42 -53 0
-33 -10 29 0
-19 33 -13 0
-31 19 -12 0
29 -42 -19 0
34 -13 32 0
28 21 7 0
-30 -5 -10 0
10 -29 45 0
-7 51 41 0
-38 -26 28 0
36 -5 -33 0
-25 -45 -5 0
-39 -24 -21 0
54 -45 -16 0
-34 -43 25 0
39 -43 -32 0
20 6 8 0
18 -35 -14 0
-45 28 -13 0
25 53 33 0
26 32 -38 0
47 27 39 0
-6 -22 -54 0
28 49 43 0
-24 -36 53 0
2 42 -9 0
39 35 25 0
35 -10 -34 0
-44 -47 -49 0
43 15 -36 0
-28 55 -38 0
-40 -50 -41 0
11 16 36 0
-43 -2 -49 0
14 -24 -33 0
28 -55 19 0
8 -3 18 0
-15 -55 -17 0
15 50 -21 0
-16 -45 10 0
6 -13 -47 0
16 32 28 0
23 -52 45 0
48 10 -40 0
-48 -9 1 0
-24 -17 -3 0
18 -19 -29 0
-35 47 3 0
-52 -44 21 0
35 -45 40 0
17 37 35 0
45 -13 -7 0
26 22 -47 0
-49 -54 -46 0
-10 -26 -43 0
11 53 -24 0
19 -27 39 0
36 9 -19 0
34 15 -44 0
-49 -8 -18 0
12 -34 27 0
5 31 -33 0
27 21 -1 0
22 -19 53 0
24 -26 -14 0
43 22 -42 0
9 34 42 0
29 -52 23 0
36 -38 14 0
1 23 34 0
-52 53 -33 0
52 -27 -30 0
38 -29 32 0
40 21 -37 0
-52 14 -44 0
7 26 -48 0
-1 18 -36 0
-33 -44 -22 0
38 35 49 0
49 -34 2 0
8 18 55 0
8 -28 15 0
24 42 -15 0
-26 -43 -23 0
-6 9 17 0
43 -44 26 0
-18 -42 51 0
-44 15 -37 0
-37 -8 50 0
51 -15 2 0
14 -41 55 0
54 2 -9 0
-49 53 -19 0
53 5 -7 0
6 -9 20 0
23 52 -5 0
-4 -36 -20 0
11 5 -43 0
14 -32 -46 0
30 49 -16 0
-52 27 19 0
-54 -3 -27 0
-43 47 -49 0
-40 -9 26 0
-33 -21 -2 0
-39 43 -3 0
-4 -1 -32 0
31 -26 -49 0
26 53 41 0
52 -12 -39 0
45 -41 12 0
48 43 42 0
49 21 34 0
4 -31 33 0
26 39 -12 0
55 6 47 0
-10 23 -48 0
-40 39 -24 0
-47 34 -42 0
-11 -10 46 0
25 28 -47 0
-52 47 -19 0
-8 15 41 0
41 22 6 0
-22 -13 54 0
-10 -49 -35 0
-32 -39 -23 0
16 14 -28 0
-5 -44 9 0
-9 -54 17 0
-25 15 -17 0
-32 -54 -28 0
-26 -39 -45 0
-54 4 46 0
46 30 -14 0
-34 49 39 0
-12 -1 -52 0
24 17 -19 0
-24 1 55 0
49 -33 -13 0
-3 48 -42 0
-25 -14 -7 0
-26 36 50 0
-27 24 -44 0
43 -4 11 0
-42 -21 17 0
-2 11 -14 0
19 -47 50 0
-28 36 49 0
-25 -5 20 0
41 -27 43 0
19 53 -26 0
-25 23 45 0
54 -32 -19 0
21 -15 -18 0
45 -44 -39 0
-6 34 17 0
47 4 25 0
23 -4 -38 0
27 24 11 0
17 36 23 0
-16 -12 47 0
26 25 -46 0
24 4 38 0
-49 -29 -21 0
15 23 43 0
25 28 21 0
19 47 48 0
53 -16 -9 0
-46 32 -9 0
26 -27 28 0
15 5 -13 0
-54 -28 -31 0
50 46 -19 0
-35 -47 -51 0
-17 51 -28 0
20 -19 10 0
14 -31 54 0
2 15 47 0
-42 34 -53 0
-55 41 -45 0
5 -44 38 0
12 47 36 0
-4 7 -33 0
22 -49 -3 0
22 54 -52 0
-31 32 -45 0
41 -42 24 0
-28 31 -7 0
-39 -45 25 0
-46 -17 14 0
-45 1 2 0
21 -7 -13 0
-10 -50 48 0
43 15 52 0
-9 50 -46 0
