c family=3-SAT n=55 instance=7 seed=2573548008 models=108
c order 26 14 6 22 41 43 29 20 30 4 24 2 13 40 3 55 1 7 23 42 45 53 25 36 47 8 19 28 9 52 49 21 15 54 32 12 5 38 27 44 46 18 17 31 10 37 48 35 50 16 39 51 33 11 34
c order 24 53 47 5 9 41 46 17 32 2 12 8 25 13 14 37 40 30 3 26 36 52 1 10 33 28 21 54 19 6 49 15 50 45 27 42 44 23 7 35 4 39 38 55 43 29 20 48 11 31 51 34 22 16 18
c order 20 49 38 9 39 48 14 28 34 46 50 51 40 25 32 31 35 33 4 12 45 2 17 16 44 22 52 5 19 23 15 42 30 43 13 8 10 6 27 11 3 21 41 55 26 18 36 53 54 47 1 7 24 29 37
c order 2 9 24 50 12 52 8 45 49 33 10 4 18 43 35 29 22 42 23 38 6 11 27 54 14 55 36 37 48 13 16 46 53 1 30 7 39 32 5 3 19 25 26 44 34 21 28 51 41 31 15 20 47 17 40
c order 32 37 20 1 5 17 51 11 4 35 19 21 34 23 33 10 52 47 6 24 53 45 44 48 2 26 13 41 12 8 54 15 18 3 31 36 42 38 28 30 27 50 55 9 46 29 16 22 39 49 7 43 25 40 14
c order 44 14 11 51 36 45 48 40 6 16 33 23 22 53 17 19 49 38 2 5 1 9 20 4 7 52 8 26 18 29 46 54 12 37 41 34 55 28 25 24 42 21 35 30 39 32 13 50 47 10 15 43 3 27 31
c order 49 1 35 27 16 46 7 15 41 18 55 19 52 30 23 42 12 40 8 32 24 45 50 26 47 25 53 54 13 6 33 11 36 9 4 3 17 14 31 21 22 10 51 28 38 29 43 5 48 2 39 20 44 34 37
c order 54 48 14 47 22 39 41 23 20 11 32 34 33 46 52 9 15 28 19 8 27 5 31 38 53 6 40 35 37 43 21 16 36 50 29 24 18 12 1 42 26 7 13 45 2 17 10 30 25 3 55 44 51 4 49
c order 31 47 42 28 5 8 20 23 35 34 1 39 15 3 32 40 19 13 25 53 2 16 46 18 22 17 49 41 4 12 24 14 38 45 33 52 29 43 30 51 10 27 54 55 37 21 44 50 36 48 11 9 7 6 26
c order 10 9 26 53 43 22 12 6 47 38 52 28 39 55 2 20 17 27 18 36 40 50 14 5 54 4 19 48 21 1 24 7 30 49 16 42 45 51 44 13 11 35 8 23 34 31 41 37 15 32 3 25 33 29 46
p cnf 55 231
-46 -49 -32 0
24 5 -48 0
-17 51 -6 0
-19 -48 41 0
28 -16 -52 0
51 -53 -33 0
13 -6 -16 0
-45 -2 -11 0
2 24 13 0
41 2 -24 0
12 -33 53 0
30 -36 -44 0
1 6 -31 0
42 53 43 0
5 39 16 0
36 16 20 0
49 35 -29 0
-6 -18 -46 0
26 -16 -19 0
2 51 31 0
-24 37 -22 0
-49 47 -35 0
-7 -37 -48 0
-25 27 23 0
5 54 8 0
-13 50 14 0
-13 -5 17 0
53 -52 -31 0
8 45 -20 0
-24 38 -20 0
15 -9 -29 0
-11 -51 26 0
-21 -47 12 0
25 41 -13 0
-30 -25 3 0
7 -22 55 0
-27 -45 -49 0
-10 -13 -54 0
-54 -24 25 0
30 -27 42 0
47 55 -31 0
-32 37 -16 0
-14 -51 50 0
-18 -31 -49 0
29 39 -50 0
-53 -8 -47 0
17 33 46 0
-22 18 -50 0
7 -23 -3 0
55 50 26 0
24 -43 -14 0
16 52 44 0
-27 1 53 0
-35 -37 39 0
-10 -51 -49 0
35 8 -26 0
39 -2 5 0
-52 42 44 0
-15 -6 -44 0
-9 -32 -16 0
22 53 23 0
-13 11 -5 0
23 -26 1 0
-22 -40 -28 0
13 -40 28 0
26 -44 21 0
52 30 -46 0
10 -4 -17 0
5 55 44 0
8 47 -26 0
53 21 -37 0
15 51 -49 0
-15 -30 31 0
25 -22 48 0
-3 2 -40 0
-14 -36 48 0
-44 28 37 0
48 -10 33 0
-22 -41 12 0
30 -20 -35 0
-26 7 6 0
-37 -38 17 0
34 30 42 0
-38 -21 32 0
47 48 42 0
-34 -17 46 0
15 -17 49 0
22 16 52 0
-5 -47 -25 0
-52 8 31 0
21 16 -55 0
16 53 -19 0
51 3 8 0
-32 1 -38 0
49 -35 16 0
30 54 36 0
-44 -16 3 0
4 -41 -6 0
-29 -5 -37 0
15 45 -1 0
20 -37 -39 0
-17 -39 -31 0
12 11 -47 0
18 24 5 0
-53 36 11 0
6 20 -33 0
-17 3 29 0
17 -20 -21 0
38 -10 24 0
-13 9 -36 0
51 -26 -52 0
-31 53 -3 0
42 -23 -34 0
-28 30 39 0
-30 43 53 0
55 11 -24 0
1 -46 -55 0
55 -44 -46 0
-55 -48 22 0
52 47 24 0
-22 26 32 0
-28 3 21 0
14 38 -37 0
-42 -41 50 0
-2 47 -6 0
-33 5 -22 0
-31 12 -20 0
-1 -32 6 0
-22 12 -34 0
49 11 1 0
48 -15 1 0
-13 -14 -17 0
-31 4 9 0
8 44 -42 0
4 -9 45 0
-4 -2 42 0
-26 36 24 0
-10 4 47 0
-18 -2 15 0
54 26 51 0
46 31 33 0
-28 -38 -30 0
-55 -45 -20 0
26 25 -44 0
-6 -30 18 0
55 50 10 0
47 1 -35 0
10 -2 29 0
-39 -35 -38 0
20 -48 -23 0
46 -53 35 0
-17 24 51 0
-29 -10 45 0
23 25 10 0
-30 14 -39 0
55 -17 -39 0
-11 -25 34 0
-44 -1 30 0
-36 27 19 0
29 51 55 0
-16 -12 -2 0
-22 21 54 0
-40 47 -46 0
31 -49 13 0
45 49 -4 0
28 27 -46 0
-41 48 4 0
41 20 -15 0
-21 -40 -36 0
10 -22 40 0
-21 41 9 0
13 -20 -2 0
-9 25 51 0
-31 55 20 0
40 50 -35 0
-48 -53 -23 0
25 44 6 0
-30 -21 50 0
-22 8 -9 0
35 -46 21 0
-33 -50 -15 0
-4 -24 -7 0
-23 -3 -32 0
-36 -18 -41 0
-51 22 14 0
-1 -26 -49 0
-34 -45 18 0
47 -24 -22 0
-18 27 28 0
3 32 -29 0
-29 14 -4 0
-29 -13 -35 0
42 -33 55 0
-47 19 -25 0
-13 53 -41 0
-53 14 -19 0
-44 -28 -25 0
4 -22 31 0
19 25 -26 0
-54 -6 15 0
36 -55 -35 0
2 -22 -49 0
50 29 -32 0
-40 8 -4 0
-24 -52 -18 0
20 -51 50 0
29 51 -46 0
30 31 -22 0
-21 -8 -12 0
-6 -34 -11 0
10 -29 -45 0
-26 -36 -44 0
45 -49 54 0
-54 55 -41 0
31 -24 1 0
-51 17 9 0
37 47 52 0
48 19 -35 0
43 12 9 0
44 28 -12 0
-47 22 24 0
20 -5 26 0
-11 52 -2 0
15 -12 44 0
-26 -30 9 0
53 12 -9 0
36 24 20 0
-29 17 -8 0
18 -12 -43 0
-25 -35 -29 0
-14 -55 39 0
