c family=3-SAT n=55 instance=2 seed=2573548008 models=100
c order 20 42 46 9 2 28 47 5 21 34 32 45 54 30 33 43 3 22 55 26 12 49 1 52 7 48 11 31 27 41 16 44 4 23 13 29 15 50 6 39 35 53 19 14 36 10 24 25 17 37 8 51 40 18 38
c order 27 15 12 25 18 26 17 3 13 7 1 54 31 38 22 4 39 35 52 51 16 49 36 5 42 10 20 11 9 34 6 44 8 30 32 28 24 50 21 55 48 14 46 40 19 45 29 37 41 23 47 43 2 33 53
c order 19 4 10 34 31 8 49 24 42 13 52 20 15 33 14 36 26 37 54 30 17 44 43 32 3 18 2 35 51 11 39 16 47 6 27 40 28 5 21 38 22 23 50 1 41 25 9 55 12 29 48 7 46 53 45
c order 19 36 51 44 25 53 9 24 21 40 26 20 31 4 54 8 23 29 15 55 13 43 7 41 42 35 17 46 32 6 34 33 27 38 11 14 3 1 37 16 10 45 47 39 52 18 22 30 48 50 12 49 2 28 5
c order 12 54 53 5 16 40 23 17 44 13 50 2 8 14 45 25 43 30 52 19 47 32 20 49 41 6 4 22 51 27 37 36 33 10 48 26 1 31 3 21 15 9 35 46 7 18 39 29 11 28 38 34 24 55 42
c order 55 6 32 26 51 18 17 12 1 38 27 50 24 53 43 9 33 7 54 31 14 15 34 42 52 25 44 29 10 20 28 35 16 45 39 5 46 30 22 13 19 2 21 4 48 40 36 41 23 37 3 8 47 49 11
c order 46 26 42 22 27 2 50 4 49 51 29 21 25 39 24 20 41 37 16 52 10 14 32 7 1 53 44 54 15 47 17 43 13 38 28 19 23 30 11 31 40 3 36 18 48 34 8 33 6 55 45 12 35 5 9
c order 24 52 35 39 1 31 17 36 13 43 20 25 22 38 2 3 9 45 46 54 49 55 5 14 26 23 28 4 10 12 34 7 19 27 29 15 41 32 6 37 48 33 44 11 50 18 16 30 8 51 53 40 21 42 47
c order 27 28 54 40 46 21 23 16 55 13 43 11 34 14 44 3 22 26 19 50 39 47 7 51 45 10 42 33 12 41 35 37 6 1 17 48 29 2 4 53 8 25 38 31 24 32 18 15 20 9 30 52 5 49 36
c order 31 27 29 19 9 25 5 33 39 38 54 47 11 51 41 44 35 43 48 53 42 12 16 36 7 32 13 37 20 40 30 1 46 50 34 49 24 15 6 22 14 3 55 2 45 4 17 21 10 23 28 52 26 8 18
p cnf 55 231
49 -43 -36 0
-47 43 -6 0
-39 14 55 0
7 35 -3 0
-36 13 -4 0
6 53 -25 0
41 11 27 0
-52 27 23 0
-24 -20 38 0
20 27 -11 0
39 8 17 0
-12 -18 33 0
18 4 -49 0
28 22 18 0
54 -43 8 0
-5 -25 -51 0
-9 3 -12 0
3 52 -35 0
-43 -21 -40 0
-30 -14 -27 0
48 19 3 0
-3 -17 29 0
39 34 31 0
50 49 35 0
36 -16 -7 0
52 -28 7 0
-45 -17 -1 0
25 42 -43 0
-34 -15 -30 0
-38 -3 29 0
-26 -7 52 0
-21 22 -26 0
-33 16 -11 0
37 -10 1 0
-5 -38 -40 0
-25 -47 36 0
52 -7 22 0
2 -14 -18 0
-46 11 48 0
-19 -40 27 0
49 40 30 0
-19 -22 -17 0
16 10 28 0
-6 -29 -9 0
-32 -41 -44 0
31 -9 36 0
-6 24 -39 0
-43 5 26 0
47 -5 -25 0
-42 28 -23 0
42 28 -26 0
21 -22 -28 0
-34 -31 -21 0
-41 22 23 0
47 40 -43 0
-4 20 47 0
-49 -19 14 0
49 54 -55 0
-12 -22 23 0
-41 26 -21 0
29 24 -45 0
53 12 -48 0
11 24 -42 0
-55 54 49 0
26 29 17 0
-21 -44 38 0
33 41 -15 0
30 -51 54 0
50 49 41 0
-10 -18 -32 0
-37 -48 -26 0
-4 -51 8 0
24 -38 -2 0
39 3 -10 0
36 -38 21 0
39 -23 -13 0
39 37 24 0
29 -33 -31 0
9 -33 -53 0
40 27 46 0
-18 39 53 0
17 -12 -52 0
-3 40 -18 0
-31 -19 -48 0
-2 -45 -37 0
-19 -49 26 0
21 53 47 0
-48 55 25 0
38 -6 -46 0
-23 6 11 0
-1 -41 -13 0
-28 36 40 0
9 -26 37 0
-18 21 5 0
-4 8 28 0
-9 -23 29 0
19 53 -16 0
-36 -40 28 0
-50 25 -40 0
55 19 -32 0
11 45 50 0
-43 -27 -50 0
-51 -45 10 0
40 -26 22 0
5 -1 13 0
27 -32 11 0
-11 24 -6 0
-14 -41 44 0
-26 23 -28 0
-38 44 -47 0
-33 12 -41 0
15 10 -29 0
18 43 14 0
-48 45 36 0
-1 -29 -40 0
-51 28 11 0
8 9 -22 0
32 30 44 0
21 13 44 0
-11 -36 14 0
-10 -26 7 0
31 1 14 0
51 -52 -4 0
-18 1 -11 0
-12 -22 -18 0
-3 -20 -39 0
-19 15 12 0
19 -52 -7 0
-41 22 -27 0
-35 -28 21 0
-27 -44 21 0
37 39 22 0
-35 19 -48 0
21 53 -12 0
51 39 45 0
2 21 46 0
-49 40 28 0
-34 -14 -32 0
-18 -55 -51 0
-52 -14 49 0
-51 -29 28 0
-11 -34 46 0
-48 8 -22 0
6 18 -17 0
37 12 9 0
7 54 -19 0
12 1 -29 0
16 46 -35 0
36 -21 27 0
44 22 19 0
40 -53 -30 0
43 -26 -51 0
-17 42 24 0
-54 -47 26 0
26 -50 12 0
-31 40 1 0
-44 -49 -18 0
12 -45 25 0
-7 47 -30 0
-38 52 48 0
29 11 -45 0
20 -4 -55 0
-2 30 -14 0
8 -27 -16 0
-19 47 8 0
35 3 -8 0
-22 52 -23 0
-33 20 53 0
-18 3 6 0
8 51 6 0
-15 -19 43 0
3 -35 46 0
32 38 37 0
7 11 -32 0
-16 -3 52 0
-15 51 -46 0
53 -33 -49 0
50 -10 47 0
47 52 -8 0
5 -33 -19 0
-17 48 24 0
55 18 53 0
-39 -50 6 0
3 14 10 0
18 15 -47 0
-11 -2 46 0
18 26 50 0
-27 -19 -14 0
6 -16 48 0
28 -7 32 0
-43 -27 52 0
-46 44 48 0
43 -31 -46 0
20 -53 54 0
16 -3 -32 0
-40 43 -10 0
-23 2 1 0
-15 -37 -26 0
-35 -38 2 0
-14 1 -31 0
-2 -41 43 0
49 23 -47 0
-28 -39 -30 0
30 10 -47 0
39 -22 -27 0
-17 -15 -41 0
-46 20 28 0
12 52 10 0
-25 17 -37 0
54 3 -52 0
8 -28 21 0
-9 -22 13 0
35 9 42 0
54 37 3 0
22 -4 14 0
43 -34 -50 0
-11 -55 -2 0
-2 23 -18 0
-4 -10 16 0
4 -41 32 0
53 18 26 0
-30 32 -15 0
19 -31 26 0
-32 -19 -40 0
35 38 44 0
-46 -38 -1 0
49 17 -20 0
3 -17 -8 0
-32 -33 17 0
16 -52 -23 0
33 -9 -4 0
