c family=3-SAT n=55 instance=3 seed=2573548008 models=686
c order 47 9 40 22 32 29 24 53 38 55 15 49 21 8 54 36 19 34 44 31 18 16 12 3 11 37 5 2 26 7 4 39 10 43 50 17 20 51 14 28 25 48 27 13 35 30 52 6 41 33 42 46 23 1 45
c order 41 2 26 22 6 31 44 25 4 9 30 49 46 19 33 14 27 47 29 45 11 32 5 54 52 51 10 17 7 28 35 12 13 40 42 38 36 3 21 43 37 15 20 53 55 18 1 16 48 24 34 39 8 23 50
c order 33 12 16 45 52 46 54 8 24 34 55 15 25 39 17 5 43 9 3 4 2 6 13 49 40 35 21 50 7 27 48 1 42 10 22 30 11 14 28 47 26 32 44 31 36 38 18 51 20 19 53 29 23 37 41
c order 16 54 24 37 8 22 38 17 35 10 51 43 27 5 4 32 6 45 41 13 29 39 50 33 15 34 44 11 31 26 55 25 53 48 2 30 20 40 19 28 42 12 18 9 23 52 21 46 1 47 7 14 36 49 3
c order 48 45 17 26 23 53 52 7 35 33 5 10 14 13 25 31 40 55 44 37 20 28 6 42 11 49 9 43 38 34 8 46 39 32 47 30 4 18 41 16 12 15 36 54 50 29 21 27 51 24 1 2 22 3 19
c order 34 46 8 28 27 21 42 7 11 40 53 45 52 55 50 20 10 9 2 14 16 25 31 35 36 43 1 4 30 24 39 29 26 44 49 38 51 18 23 47 54 37 15 17 48 22 19 13 3 5 12 6 32 33 41
c order 21 32 18 54 31 33 20 26 13 34 46 22 41 16 9 44 4 45 29 25 23 37 12 30 5 19 6 49 8 28 53 2 10 15 3 52 40 35 1 51 43 36 38 11 55 24 50 39 42 47 7 14 48 27 17
c order 36 4 17 47 27 50 6 20 54 52 11 7 22 38 12 53 33 2 41 10 16 42 13 21 19 14 46 44 24 30 18 43 37 48 25 31 3 1 29 35 49 40 23 28 45 55 51 9 15 39 5 26 32 34 8
c order 42 39 2 1 44 34 27 4 20 28 29 21 22 19 12 38 43 35 6 54 48 30 41 40 47 18 55 25 16 8 14 13 52 7 23 51 45 17 9 49 36 11 26 46 15 32 24 33 3 5 31 53 50 37 10
c order 20 17 9 8 24 3 21 7 26 48 46 50 49 36 34 52 27 15 4 45 22 32 10 16 1 14 47 55 31 35 30 39 25 18 19 13 41 29 12 42 53 33 11 6 23 54 44 40 2 38 28 51 37 43 5
p cnf 55 231
-22 49 54 0
-35 -5 -11 0
-42 19 -26 0
-27 -6 -19 0
-26 -25 28 0
11 -42 20 0
-44 22 49 0
50 -1 48 0
-30 17 -34 0
-52 -1 -33 0
16 -43 -55 0
-29 45 -47 0
-55 -11 54 0
-46 -34 42 0
33 -19 -48 0
48 -10 13 0
8 -21 -23 0
51 -8 42 0
-55 22 39 0
50 -4 34 0
46 17 5 0
-41 -23 7 0
-23 -1 29 0
-29 33 50 0
8 -32 -39 0
-2 -4 -42 0
-19 11 -49 0
27 -25 -41 0
20 26 -42 0
50 39 -25 0
-8 -45 40 0
-2 23 33 0
46 -40 -28 0
38 -17 22 0
23 19 52 0
-17 6 -45 0
39 9 49 0
47 -9 -13 0
7 -19 -12 0
34 -40 30 0
29 49 45 0
43 -37 7 0
50 -26 6 0
-38 13 -55 0
55 -35 -34 0
-50 5 -55 0
15 -48 46 0
13 21 37 0
18 -55 27 0
47 41 -18 0
-41 -5 26 0
-13 -29 8 0
-1 7 -42 0
5 26 -19 0
26 -21 -30 0
-36 -18 34 0
-41 -52 1 0
-18 -46 20 0
50 -7 23 0
9 46 6 0
20 -21 13 0
32 9 36 0
-24 42 53 0
-6 -1 53 0
-46 -39 51 0
16 -10 5 0
14 -55 -51 0
-6 43 -2 0
-44 33 -19 0
-11 -28 -41 0
52 -38 -10 0
48 31 -7 0
-18 34 -48 0
-53 -24 5 0
-50 -22 -11 0
-20 -47 -27 0
-2 46 7 0
-53 31 7 0
45 20 -3 0
54 12 51 0
-40 -9 -33 0
3 -29 12 0
3 -40 9 0
-16 -28 -45 0
-40 28 48 0
42 -17 -2 0
-30 -34 31 0
4 17 52 0
-9 23 -47 0
36 18 -10 0
21 10 -42 0
-3 -2 44 0
-41 -19 34 0
-15 -27 5 0
53 11 27 0
33 -29 7 0
5 50 55 0
25 -20 -35 0
38 -23 -7 0
-21 13 3 0
10 -13 -12 0
43 -1 -51 0
42 -18 -33 0
54 7 -45 0
4 38 17 0
33 35 -27 0
23 -47 29 0
-8 -21 25 0
-9 -7 -12 0
-24 20 -35 0
3 -6 -49 0
30 44 47 0
25 -34 -54 0
31 -10 45 0
-4 -13 23 0
24 -41 -23 0
54 13 -12 0
42 52 -2 0
44 -28 -49 0
-21 5 46 0
21 37 32 0
52 44 20 0
-43 -52 6 0
4 44 21 0
41 -13 2 0
21 12 -7 0
30 10 35 0
-54 35 18 0
33 -47 32 0
42 30 37 0
-45 19 6 0
-28 -37 20 0
31 -41 -23 0
52 -39 42 0
-2 40 -24 0
12 -55 -35 0
-46 -27 17 0
-30 -11 52 0
44 -20 31 0
-32 -6 53 0
-49 16 41 0
-8 -23 -53 0
-24 -13 -36 0
-31 -15 -49 0
32 6 21 0
-25 36 5 0
-50 -5 16 0
31 -33 -1 0
17 -25 6 0
-16 -19 30 0
-45 -6 -10 0
-43 27 41 0
30 49 -23 0
40 55 38 0
-22 10 -50 0
29 36 47 0
-24 19 31 0
30 5 -25 0
-55 21 50 0
16 -9 44 0
-11 35 -36 0
42 34 -49 0
35 -51 -45 0
25 -2 23 0
39 -10 27 0
-9 -31 -55 0
47 43 -32 0
-27 17 25 0
40 -44 -18 0
-39 17 -20 0
-22 -1 41 0
-18 -9 -11 0
10 -21 48 0
51 13 5 0
-9 -50 40 0
-7 17 46 0
21 23 36 0
-41 20 -6 0
-12 11 32 0
-51 41 -37 0
-17 -5 7 0
54 36 -47 0
-39 38 -10 0
40 -49 55 0
38 11 29 0
6 -4 -36 0
-45 10 49 0
13 1 -14 0
-47 -8 -27 0
4 -5 -48 0
51 -15 37 0
39 -44 -19 0
16 -52 -24 0
-25 43 39 0
-51 54 7 0
33 -26 21 0
-55 23 20 0
40 51 29 0
24 -15 50 0
-32 -9 44 0
-39 -11 -23 0
10 -47 -44 0
18 26 -9 0
31 36 50 0
-36 -42 21 0
12 -20 -22 0
-46 2 53 0
31 -7 -23 0
-2 53 -41 0
43 6 35 0
11 46 -9 0
-49 36 4 0
21 -36 25 0
13 43 -41 0
17 12 -2 0
40 -22 10 0
41 -42 24 0
47 29 -36 0
17 11 29 0
27 5 19 0
43 37 -45 0
-22 28 -34 0
46 42 -24 0
7 23 -27 0
34 5 29 0
42 38 28 0
-16 4 -38 0
-53 1 -42 0
-45 5 16 0
42 -29 32 0
11 -41 -1 0
