c family=3-SAT n=55 instance=4 seed=2573548008 models=96
c order 19 4 29 11 8 32 53 20 9 37 18 26 3 7 15 13 10 45 34 5 55 54 28 42 38 6 22 33 25 2 21 41 1 49 12 47 48 27 46 40 14 30 16 52 24 36 51 23 31 39 17 43 50 44 35
c order 21 27 45 11 26 46 50 14 28 18 8 52 10 39 30 22 13 42 9 41 19 16 12 54 20 35 1 55 15 5 37 32 2 38 33 4 44 40 49 3 51 53 43 25 17 31 7 34 6 23 47 36 48 24 29
c order 55 38 14 46 18 11 37 31 47 30 49 16 44 9 36 28 27 42 4 40 54 17 29 21 6 10 48 19 7 34 13 5 43 26 23 15 8 39 3 35 32 22 50 53 41 12 52 1 45 51 33 2 25 24 20
c order 49 39 52 13 37 32 21 33 14 43 31 1 10 23 16 54 42 48 11 20 6 7 19 2 26 53 36 55 24 4 41 18 47 3 9 40 38 27 5 12 28 8 44 50 15 30 34 22 46 17 45 35 29 25 51
c order 29 15 43 23 42 10 11 8 33 17 5 48 1 12 44 46 13 20 22 26 31 19 6 47 9 36 52 28 32 49 37 39 34 50 21 25 18 35 53 16 45 51 24 41 4 30 3 27 40 38 14 55 7 54 2
c order 36 38 25 39 48 46 7 6 31 42 55 50 49 10 40 43 21 45 14 35 54 2 8 13 16 53 30 41 24 5 47 4 52 23 34 15 19 1 3 28 12 37 22 26 33 11 32 18 20 9 44 29 51 27 17
c order 55 53 32 47 16 36 37 38 2 40 34 14 31 54 13 1 10 35 52 41 7 30 22 25 48 28 12 3 5 27 18 24 9 51 29 11 46 8 39 4 17 21 44 49 42 33 23 50 19 6 15 43 20 26 45
c order 29 2 41 34 21 12 51 44 5 48 52 10 35 4 17 38 26 42 46 32 1 54 22 8 11 37 24 25 13 28 55 30 31 50 9 6 18 45 33 15 3 7 16 23 53 14 47 20 36 40 39 49 19 27 43
c order 27 45 22 36 50 18 16 49 40 43 12 42 30 21 38 6 19 11 52 7 39 3 5 51 41 14 26 54 46 55 47 33 31 24 44 20 1 2 9 48 37 8 15 32 28 13 17 10 25 34 29 35 23 53 4
c order 1 23 18 17 32 29 35 51 40 2 24 4 53 41 8 26 7 38 49 10 5 25 28 54 21 42 11 46 14 48 16 37 20 39 44 30 50 19 43 34 33 9 47 31 12 3 36 13 22 52 15 45 6 27 55
p cnf 55 231
-9 -7 12 0
-15 -11 18 0
-9 32 -2 0
55 4 27 0
51 -10 -33 0
52 3 32 0
-49 15 26 0
3 28 -20 0
9 -19 -8 0
-37 52 -46 0
-49 -10 36 0
-42 41 4 0
23 42 41 0
39 -41 28 0
35 -41 -3 0
38 43 18 0
44 -7 22 0
45 43 -21 0
-29 21 10 0
-31 -53 -25 0
15 16 17 0
-33 49 -4 0
38 -53 -6 0
-17 34 39 0
1 -44 -46 0
49 -35 12 0
-18 -53 -42 0
48 11 25 0
-25 -36 14 0
48 -42 23 0
-31 14 13 0
-53 38 16 0
26 -43 36 0
-21 19 49 0
27 40 44 0
49 14 27 0
46 -33 -49 0
-17 51 -4 0
-15 -33 52 0
-1 22 -55 0
40 24 -46 0
10 -18 47 0
-55 2 -16 0
32 -8 49 0
50 28 22 0
46 8 -9 0
32 8 26 0
-27 52 -1 0
33 -4 -40 0
-2 3 4 0
18 -9 -21 0
6 13 49 0
12 -53 -39 0
50 -22 26 0
50 55 31 0
40 39 25 0
26 -49 -4 0
-8 39 -46 0
-14 22 -42 0
11 -32 -19 0
31 -24 -26 0
2 -6 39 0
-31 -8 -53 0
6 -7 -3 0
-19 48 -53 0
-26 -8 23 0
21 -29 32 0
29 -13 31 0
-23 -53 25 0
-32 -28 -12 0
-53 -18 4 0
-54 48 -35 0
38 -25 -52 0
-2 7 1 0
-16 4 17 0
-17 -39 8 0
41 -30 -3 0
19 27 17 0
52 -22 -5 0
-42 -30 17 0
36 -26 -53 0
-21 -10 23 0
-15 -46 36 0
15 -43 47 0
-49 35 36 0
-16 -42 52 0
-43 3 41 0
-35 -20 17 0
53 32 -18 0
-15 -24 -1 0
48 -35 -52 0
46 -51 -28 0
-52 -41 43 0
31 53 40 0
33 -11 23 0
13 -53 1 0
-48 -50 12 0
-8 2 9 0
-46 33 50 0
-42 11 24 0
27 2 -8 0
-48 37 -21 0
30 16 -24 0
-28 13 10 0
-25 -51 -14 0
-2 -54 24 0
15 -3 47 0
21 18 -15 0
14 4 -42 0
-30 -15 49 0
-41 7 11 0
-24 51 14 0
18 -28 23 0
50 22 -53 0
-33 -47 -31 0
-12 -33 -49 0
9 -45 -23 0
32 50 10 0
-16 26 3 0
14 -12 -45 0
33 51 18 0
19 -50 40 0
41 -17 -27 0
33 39 31 0
21 -47 50 0
-18 -3 -53 0
19 -29 33 0
15 5 -30 0
-9 -32 -4 0
-6 -53 -12 0
-6 -31 1 0
-44 26 -25 0
-1 21 -50 0
41 32 49 0
40 -11 -19 0
-1 -52 3 0
-1 -40 -20 0
-22 7 12 0
-34 -32 -30 0
49 4 23 0
43 5 49 0
5 -38 -40 0
30 -26 43 0
-36 -2 13 0
-24 52 5 0
-12 47 10 0
3 43 45 0
-5 19 23 0
-33 38 6 0
48 41 -45 0
-47 -27 9 0
-34 23 -17 0
25 12 10 0
-43 -8 29 0
-43 47 -38 0
36 12 -21 0
-46 36 3 0
7 -14 -27 0
6 8 -3 0
-3 19 -27 0
-16 7 31 0
48 1 -28 0
-2 -38 -13 0
-54 7 -38 0
11 -19 -38 0
-24 51 -55 0
23 11 -12 0
8 -22 -31 0
-52 13 5 0
-6 -18 52 0
32 -3 -36 0
-51 -35 45 0
42 -14 -5 0
35 -45 41 0
38 -16 42 0
12 43 21 0
-37 -34 47 0
28 -36 -37 0
-12 3 49 0
-38 -1 -13 0
53 -52 21 0
-35 8 -38 0
34 33 4 0
49 -18 16 0
40 -4 34 0
27 8 26 0
24 5 -45 0
37 -21 9 0
24 -14 -1 0
2 11 49 0
34 -9 -10 0
52 -34 -25 0
1 9 -35 0
2 -35 -32 0
33 -20 -3 0
46 2 -19 0
34 4 -12 0
-4 -26 12 0
25 -31 -38 0
39 -12 -43 0
49 48 17 0
-37 43 20 0
-9 -13 -20 0
-18 -43 51 0
-49 -53 -22 0
39 46 -15 0
-55 8 24 0
-28 -48 43 0
10 -46 11 0
27 30 18 0
-55 13 8 0
25 50 -43 0
33 53 -49 0
-34 -8 -10 0
-37 -26 29 0
-10 51 4 0
9 39 16 0
3 -7 -53 0
-53 -38 -55 0
-39 52 -8 0
6 -42 31 0
4 27 -34 0
-2 -32 -55 0
38 -36 39 0
17 -47 24 0
-22 -27 42 0
23 41 -2 0
-50 1 2 0
-44 -29 55 0
-46 -52 23 0
-28 41 -3 0
