c family=3-SAT n=55 instance=6 seed=2573548008 models=46
c order 33 11 2 31 4 17 40 51 43 54 45 47 14 13 10 12 7 26 5 39 37 52 49 6 50 32 36 24 29 9 30 15 28 34 22 8 46 35 21 41 3 44 19 38 1 25 18 48 27 23 20 53 42 16 55
c order 50 33 2 22 7 8 31 29 46 30 9 12 37 11 25 45 20 13 5 52 10 19 4 35 41 54 18 48 40 38 44 23 26 27 51 36 43 1 49 15 17 55 6 3 28 24 16 34 53 21 42 14 32 39 47
c order 3 21 9 49 26 40 48 39 31 12 30 51 27 14 11 16 34 24 19 7 41 6 4 42 38 33 55 18 1 54 44 13 2 45 36 35 28 32 8 50 5 53 37 43 46 52 23 17 22 10 25 20 29 47 15
c order 21 6 4 28 43 5 8 3 35 2 27 23 42 14 33 45 53 11 55 34 7 47 13 40 41 29 36 17 54 48 31 39 1 19 12 15 10 50 18 51 9 24 30 25 32 37 20 52 46 16 38 49 26 22 44
c order 2 3 34 50 48 41 39 29 17 43 55 7 10 54 20 33 28 49 4 8 12 47 45 35 19 14 18 27 16 22 30 46 40 5 25 32 23 9 31 53 26 36 6 1 42 21 52 13 15 37 51 24 38 44 11
c order 50 16 49 26 55 37 35 20 4 5 3 54 43 17 47 19 7 13 28 42 34 21 36 44 31 40 22 12 1 38 25 45 53 48 41 18 14 33 32 30 8 15 23 9 6 24 51 46 2 27 10 11 39 29 52
c order 17 1 38 9 39 11 14 16 42 40 27 28 3 43 25 12 51 53 37 33 45 32 30 46 2 10 29 49 34 41 15 4 24 6 21 5 13 55 31 18 44 22 19 7 35 26 23 8 36 50 52 47 54 20 48
c order 16 24 32 25 41 38 51 3 52 54 17 50 28 23 27 18 5 45 21 2 46 10 35 53 42 31 49 8 19 43 7 33 6 29 22 9 20 12 47 26 48 1 14 55 4 37 36 30 13 15 44 11 34 39 40
c order 34 39 20 17 36 18 26 12 52 38 22 2 15 3 48 43 8 31 16 24 32 49 47 55 42 30 50 28 45 1 5 7 9 21 44 53 54 11 41 6 27 51 35 10 25 13 37 14 29 4 33 19 23 40 46
c order 25 11 51 44 9 45 19 40 16 8 22 20 49 46 26 41 47 12 39 5 13 55 4 2 52 30 27 36 29 7 3 38 23 48 10 1 15 42 21 24 37 28 14 32 54 17 53 43 34 50 31 18 33 35 6
p cnf 55 231
50 -8 -34 0
-44 35 -52 0
41 -33 17 0
-28 36 45 0
-11 -38 52 0
-46 -48 45 0
19 -42 -1 0
-47 -28 -29 0
-32 28 -26 0
-43 25 2 0
-46 1 -9 0
35 -20 24 0
9 33 16 0
-47 -34 -23 0
-15 -40 -30 0
31 55 -19 0
-39 -11 46 0
33 18 21 0
20 -43 -32 0
-43 8 51 0
-4 -23 -33 0
-19 -24 -49 0
25 -7 27 0
-33 31 -1 0
-17 -18 42 0
-2 -55 -5 0
9 -29 -26 0
17 22 23 0
53 41 -14 0
27 -52 -5 0
-25 -8 6 0
-53 48 40 0
3 42 -20 0
46 23 -3 0
47 44 -32 0
-55 -54 33 0
-22 8 -17 0
19 45 -25 0
-32 -24 34 0
33 45 -3 0
-31 43 50 0
-34 -10 13 0
-17 12 33 0
4 -36 -25 0
-18 26 -16 0
33 -55 49 0
12 -54 -35 0
-43 -47 11 0
-32 29 24 0
-13 -50 -15 0
34 5 -19 0
50 -35 29 0
9 -4 -22 0
23 41 -35 0
26 -46 52 0
10 23 -39 0
10 -53 -36 0
-46 -44 -1 0
-38 7 -47 0
-28 47 50 0
22 45 51 0
-43 7 -8 0
12 -18 -27 0
-36 -14 3 0
48 -9 16 0
-8 -17 -11 0
-16 19 39 0
-17 50 -52 0
-19 18 -31 0
-22 36 37 0
15 -14 37 0
12 23 -41 0
18 42 -7 0
-9 11 52 0
7 -47 44 0
-7 46 -37 0
26 -45 42 0
55 -41 14 0
-52 30 22 0
-53 35 30 0
-43 33 -1 0
4 43 -37 0
54 20 23 0
25 35 50 0
-27 33 46 0
11 -41 -26 0
-22 -54 -12 0
-1 -44 26 0
-15 2 -37 0
-9 -19 22 0
-25 33 34 0
-15 49 21 0
47 -2 22 0
-54 -29 34 0
3 23 -18 0
-45 -41 12 0
14 31 -50 0
-17 35 -16 0
-23 25 34 0
-8 -15 4 0
-6 33 36 0
24 -30 7 0
42 53 -24 0
26 31 7 0
46 -11 -7 0
9 -10 -39 0
-9 4 50 0
23 -13 -36 0
54 3 19 0
50 47 -24 0
-24 50 10 0
23 27 14 0
12 -20 49 0
-37 -52 -22 0
5 10 13 0
-26 -25 -51 0
18 -7 12 0
20 -29 4 0
-49 -41 35 0
8 -46 4 0
-16 -9 32 0
20 -44 -40 0
6 -8 -36 0
-26 49 -40 0
-14 12 -11 0
2 32 -29 0
16 -54 -34 0
17 46 19 0
-27 -22 51 0
-36 -33 47 0
-3 -22 -33 0
-16 47 -33 0
34 6 40 0
53 -7 -33 0
-17 -28 53 0
29 -37 -46 0
-16 -49 1 0
32 34 43 0
47 -35 17 0
-5 -32 29 0
-28 -16 22 0
15 -9 -3 0
-5 -10 51 0
-14 -35 -34 0
-46 26 -5 0
31 44 18 0
25 37 31 0
14 3 45 0
-32 -2 39 0
-43 -30 46 0
39 55 17 0
17 10 -14 0
-49 24 48 0
45 27 -4 0
-48 -1 -28 0
10 4 44 0
45 43 -10 0
29 40 -36 0
-54 18 6 0
-24 -8 35 0
22 -45 -5 0
-40 25 27 0
-9 -3 30 0
44 22 23 0
33 50 -40 0
44 53 20 0
51 -15 -41 0
-14 49 39 0
-42 -13 41 0
-10 20 -32 0
-42 -34 28 0
-44 21 34 0
25 -27 6 0
46 44 37 0
22 -50 8 0
-32 -39 6 0
26 -29 -15 0
52 2 32 0
14 8 -41 0
-16 33 -13 0
-54 -32 47 0
-12 33 -10 0
47 19 39 0
4 11 -18 0
45 -8 9 0
-3 -52 44 0
47 32 31 0
1 -52 -9 0
-33 8 -4 0
42 22 -9 0
41 38 33 0
-38 43 7 0
-39 7 55 0
40 19 -12 0
-15 42 44 0
22 -38 4 0
43 -45 9 0
53 -3 36 0
49 -1 -30 0
-47 46 37 0
-39 -19 22 0
-14 -5 27 0
-36 29 -16 0
7 27 5 0
17 42 -45 0
31 -1 -15 0
-18 -30 -22 0
-31 -30 3 0
34 41 -11 0
9 -44 -14 0
-37 -7 20 0
-20 41 -16 0
-32 3 39 0
-39 55 45 0
-20 -48 -4 0
-28 -25 29 0
5 40 33 0
-9 7 30 0
-49 -50 -35 0
21 40 -7 0
15 2 53 0
15 -12 -8 0
47 6 10 0
22 37 3 0
-31 40 -29 0
-2 12 -13 0
-5 17 -16 0
-51 -13 40 0
18 24 -15 0
-2 18 10 0
-11 -17 36 0
