c family=3-SAT n=55 instance=5 seed=2573548008 models=12
c order 48 49 43 46 47 50 5 35 6 18 36 44 52 55 21 27 1 11 4 22 19 53 23 29 24 8 25 34 7 33 54 10 28 39 16 9 17 26 38 41 20 42 3 12 13 31 40 14 51 32 45 37 15 2 30
c order 43 52 37 44 15 48 1 27 4 3 10 7 45 54 41 53 23 38 39 28 14 47 8 40 29 6 32 42 9 12 22 33 25 50 21 34 24 30 17 26 13 20 49 35 16 36 5 31 46 51 18 19 2 55 11
c order 44 52 11 5 32 31 50 42 36 1 43 33 51 13 48 53 2 16 6 3 35 4 24 40 37 19 10 54 26 30 46 45 22 34 14 49 9 41 39 12 8 23 18 27 55 15 21 29 20 47 28 38 25 17 7
c order 20 5 35 44 54 13 17 22 9 26 55 4 53 6 3 48 31 1 21 29 8 42 14 45 16 33 49 25 10 47 34 23 32 28 15 37 39 27 46 2 36 38 41 50 12 43 30 51 11 52 18 19 7 40 24
c order 28 14 24 27 7 11 47 49 54 37 38 43 41 17 1 39 55 18 45 23 16 9 19 6 20 8 4 44 50 13 22 30 46 21 36 2 25 53 29 48 42 10 34 26 15 52 40 35 32 3 51 5 33 12 31
c order 41 15 17 55 42 53 2 43 22 6 7 50 5 35 14 10 38 24 28 52 1 27 34 36 12 47 51 9 45 49 26 8 23 18 40 32 48 54 29 13 37 11 31 46 44 33 16 30 3 21 20 39 25 4 19
c order 42 4 3 52 1 14 21 39 13 28 2 26 25 5 43 34 48 11 27 7 49 24 16 18 10 41 55 51 36 31 32 33 38 15 9 20 19 53 47 45 17 22 8 12 37 46 35 6 29 30 50 54 23 44 40
c order 51 29 54 34 41 24 39 35 43 26 49 53 20 27 28 18 46 15 22 17 6 37 3 50 31 47 11 55 7 23 42 9 1 12 10 5 14 48 25 36 52 33 44 8 30 21 19 45 32 38 2 13 4 16 40
c order 52 15 37 11 49 27 48 50 55 3 28 25 31 20 23 8 18 30 32 7 21 46 17 24 51 19 47 14 4 41 54 34 33 1 39 9 12 13 44 40 36 2 38 53 10 22 16 5 6 26 29 45 35 42 43
c order 15 36 4 32 46 6 23 43 41 38 28 13 39 22 33 51 30 18 44 42 20 19 37 40 54 3 16 12 17 27 53 26 25 50 48 47 49 34 55 2 29 8 24 14 11 31 1 52 7 45 21 9 10 5 35
p cnf 55 231
-41 -14 49 0
2 41 -55 0
-47 -13 -21 0
36 -1 4 0
14 47 -23 0
51 -16 -20 0
-3 39 -14 0
-10 -12 -5 0
-29 4 9 0
-8 -47 1 0
53 -13 -46 0
-40 -12 -26 0
-30 11 -26 0
27 26 -9 0
-17 -4 -33 0
49 27 -20 0
27 6 16 0
52 13 44 0
-10 31 -37 0
51 -19 -18 0
-9 -21 -42 0
-25 -42 -21 0
-10 -14 -39 0
39 23 -55 0
12 -2 -13 0
11 -7 39 0
17 -30 -8 0
-38 -19 4 0
26 30 41 0
-47 33 -41 0
-36 -34 -27 0
-31 -23 15 0
7 41 36 0
38 -7 -50 0
15 51 11 0
45 -39 47 0
21 4 49 0
7 8 -13 0
-15 -7 -22 0
48 -9 29 0
-46 -34 -6 0
-40 13 3 0
40 -1 -49 0
28 -44 -7 0
3 44 -7 0
23 5 29 0
10 2 -14 0
-11 -46 16 0
36 39 -41 0
11 30 -27 0
34 40 -38 0
-46 18 -52 0
35 -18 -15 0
-50 -38 52 0
-25 -33 -36 0
2 -13 -6 0
7 -22 48 0
3 -14 4 0
-10 -49 21 0
-50 21 39 0
-18 -13 55 0
51 -42 19 0
-51 -35 -37 0
-51 -6 -52 0
-45 -54 37 0
48 11 23 0
-52 36 -10 0
-37 20 1 0
3 -38 1 0
-9 -54 29 0
25 32 4 0
24 33 -3 0
12 54 28 0
1 -19 36 0
-41 3 32 0
38 24 36 0
-35 4 19 0
-33 51 -34 0
6 33 47 0
23 -55 -13 0
-48 41 16 0
-42 -28 -29 0
-10 18 33 0
33 -8 -1 0
4 -21 51 0
31 -33 39 0
-12 -49 -34 0
20 21 17 0
46 40 10 0
25 10 -20 0
18 15 -47 0
53 -38 37 0
-42 -38 -23 0
14 34 -53 0
-32 5 -41 0
-6 -46 -35 0
-21 -42 23 0
35 54 47 0
43 21 54 0
42 -31 29 0
14 -25 -4 0
-49 47 -25 0
13 -6 -50 0
54 44 -7 0
49 28 -27 0
22 5 -48 0
-25 49 -47 0
-13 53 8 0
-55 -4 -53 0
-17 -51 18 0
-48 -45 8 0
19 13 -40 0
-26 -9 -49 0
6 -23 7 0
-18 43 52 0
1 47 36 0
11 34 29 0
6 -34 -21 0
2 -30 37 0
-31 -48 -14 0
-15 -27 -1 0
50 41 -39 0
22 7 46 0
46 30 -24 0
16 -4 -47 0
49 19 51 0
-55 3 -48 0
-27 18 29 0
13 26 -29 0
-51 -47 -12 0
-48 -46 11 0
-21 30 23 0
-48 -9 1 0
-20 -41 47 0
-14 35 -17 0
38 -42 -10 0
-48 -9 -5 0
-49 -18 -37 0
-38 -14 50 0
-27 16 2 0
19 17 6 0
-23 -6 44 0
47 -16 54 0
-21 -44 26 0
-6 -17 -20 0
29 -19 -1 0
20 47 -15 0
-27 49 40 0
15 46 36 0
34 49 -12 0
43 -34 -11 0
45 40 -50 0
-33 20 -27 0
37 -7 47 0
-46 -45 20 0
-51 -34 -46 0
46 -23 41 0
-55 -19 -46 0
-22 5 -38 0
-13 12 -37 0
-19 25 14 0
-4 17 32 0
36 14 51 0
45 51 -39 0
-33 20 54 0
13 -39 -3 0
-30 33 5 0
-8 -27 -31 0
-30 -39 32 0
-28 -5 -11 0
35 41 -45 0
-19 31 -49 0
35 22 7 0
26 -20 13 0
31 32 23 0
36 41 -11 0
-9 30 -43 0
-13 -55 -14 0
-25 -5 28 0
36 14 19 0
6 -22 -52 0
3 -23 2 0
12 33 23 0
47 -3 20 0
4 -36 30 0
33 47 11 0
-3 -22 -51 0
-2 -25 22 0
-25 39 -46 0
20 -46 -13 0
-33 10 34 0
18 -36 -17 0
-19 29 25 0
4 -5 -54 0
13 24 -19 0
-13 55 12 0
-53 -40 -2 0
-20 -18 39 0
-38 -10 5 0
53 6 1 0
-43 -32 12 0
-42 17 -32 0
-4 -55 -34 0
-25 -23 32 0
-7 -18 -23 0
-1 26 -40 0
-49 -48 -11 0
21 -7 -31 0
-53 -37 -24 0
27 1 -40 0
-14 34 -33 0
20 -5 -38 0
-14 25 30 0
-13 -1 -51 0
43 23 -51 0
-48 -32 25 0
-2 23 -10 0
-51 19 9 0
40 -36 5 0
-23 14 40 0
-1 43 39 0
-46 32 25 0
55 34 -15 0
29 18 -5 0
2 50 -40 0
-31 -38 35 0
37 -46 8 0
15 5 49 0
52 -39 38 0
-25 -46 51 0
-54 -37 -19 0
