c family=3-SAT n=60 instance=8 seed=2573548008 models=17260
c order 17 47 30 52 4 2 35 38 27 33 24 60 20 8 41 58 53 25 59 49 15 14 16 5 44 29 32 43 31 45 1 55 57 50 9 26 22 42 51 21 37 54 18 13 40 34 23 46 56 3 7 28 48 19 10 39 6 36 12 11
c order 56 53 38 20 16 36 48 41 21 49 24 25 33 52 44 23 60 14 39 34 32 1 35 26 22 11 10 5 15 37 19 58 12 6 42 43 55 13 57 28 7 51 8 40 9 17 4 45 2 3 46 27 18 31 30 50 47 29 59 54
c order 15 27 46 37 40 57 26 21 49 52 53 55 8 47 50 28 38 48 59 25 51 43 13 6 36 41 22 33 3 18 34 44 2 1 20 7 16 17 56 30 10 19 23 45 24 31 14 9 4 12 11 29 39 54 32 42 60 35 58 5
c order 46 45 18 31 35 42 15 19 3 36 14 2 41 47 26 9 25 60 16 37 49 13 58 38 27 12 55 33 56 7 44 1 11 23 53 54 48 30 8 24 34 52 43 40 28 4 17 22 20 6 10 39 51 32 21 57 59 29 50 5
c order 55 7 54 10 28 2 31 45 41 37 34 21 56 17 27 60 53 46 33 29 20 5 59 47 18 4 23 35 42 3 22 25 12 39 44 58 11 6 9 13 30 50 15 1 8 26 19 40 57 38 51 49 16 52 24 43 14 48 32 36
c order 38 14 25 39 50 33 49 7 24 32 27 59 37 17 12 42 54 22 57 5 9 4 55 35 47 20 45 21 44 48 46 28 40 1 34 11 53 29 2 60 56 18 30 43 31 52 51 15 16 19 3 10 8 13 41 36 6 26 58 23
c order 30 13 31 33 40 19 35 17 23 38 54 48 55 22 3 41 51 27 10 47 43 20 34 4 18 24 11 21 44 42 26 28 15 39 12 56 9 50 16 45 14 52 5 58 53 37 46 7 1 60 6 29 8 25 59 2 36 49 32 57
c order 5 4 2 21 57 15 23 18 35 6 28 43 22 56 34 30 44 50 16 12 27 24 14 51 13 26 36 52 20 3 55 41 19 33 8 7 46 11 48 59 54 10 45 37 49 39 9 25 1 58 42 60 32 38 53 31 40 47 29 17
c order 51 20 43 5 50 1 48 25 34 12 39 2 29 11 52 6 47 13 22 4 24 56 30 14 19 10 45 44 9 59 60 46 18 15 36 3 26 27 17 38 49 53 28 57 33 23 7 32 40 42 41 54 58 21 31 35 8 55 37 16
c order 36 19 31 51 4 21 17 26 40 54 42 25 3 56 10 35 55 28 32 52 30 15 2 34 60 24 14 53 57 6 59 5 44 48 8 16 58 39 47 29 50 23 27 41 11 9 37 46 12 33 18 45 7 13 49 38 1 22 20 43
p cnf 60 252
40 10 49 0
46 23 -51 0
-8 -5 15 0
2 19 38 0
4 -57 -25 0
-34 -48 -49 0
-36 49 41 0
24 -36 -29 0
33 39 25 0
28 41 -42 0
-46 -25 15 0
14 -48 57 0
51 -28 -5 0
51 -48 42 0
-4 -10 -36 0
39 -28 12 0
6 -9 37 0
52 -42 -27 0
28 -22 -29 0
-52 4 -6 0
16 -39 -11 0
5 -8 14 0
-8 -50 24 0
-56 15 -39 0
-9 -41 -32 0
59 6 -26 0
-51 19 17 0
-4 -30 43 0
9 -31 -34 0
35 -53 -58 0
23 -47 53 0
-10 38 -55 0
36 -18 -47 0
18 -33 30 0
38 -30 43 0
9 17 -26 0
27 39 -4 0
28 31 -30 0
-18 11 -17 0
-43 -45 49 0
-11 -4 -14 0
44 -48 46 0
57 -14 53 0
-25 -13 -33 0
-11 -27 -30 0
33 46 -36 0
50 -10 6 0
-30 51 25 0
-53 36 -46 0
-44 -60 23 0
-1 28 19 0
-27 -21 -43 0
-2 -55 28 0
39 -44 -59 0
-9 -10 42 0
35 -48 51 0
-13 60 5 0
50 1 -51 0
-29 -17 12 0
48 -23 -8 0
-47 36 -38 0
57 -36 -45 0
27 33 -26 0
-41 35 14 0
-60 47 3 0
-39 -8 26 0
15 38 -25 0
-15 -55 -31 0
-39 -44 -21 0
-54 -29 -40 0
10 -27 -57 0
31 17 -2 0
-4 -34 -9 0
10 -29 -30 0
-24 -17 -31 0
22 48 30 0
-51 53 -34 0
19 37 -45 0
-10 -47 -43 0
-41 -22 33 0
39 -43 21 0
-17 -2 14 0
-54 24 18 0
-54 -19 -23 0
6 44 -27 0
-32 -7 19 0
7 -5 -47 0
-15 -14 -30 0
-7 -25 52 0
20 -12 -36 0
50 7 -1 0
-20 -54 -43 0
17 12 18 0
-59 49 -56 0
4 -3 -30 0
-48 -23 5 0
54 -1 4 0
51 -8 -30 0
-44 51 11 0
55 -47 32 0
46 -60 52 0
47 37 -44 0
11 -39 48 0
-8 -50 -3 0
-29 36 -14 0
-6 -59 43 0
-32 56 -55 0
-19 59 -56 0
-23 -12 -5 0
-9 -36 -17 0
3 -24 -58 0
-8 17 5 0
-2 8 45 0
-35 -46 -55 0
30 56 42 0
-40 32 49 0
-36 8 -10 0
-38 41 11 0
19 -6 -57 0
-46 53 -35 0
30 45 20 0
44 -35 -38 0
-27 -26 51 0
23 30 57 0
-5 12 -53 0
-26 40 -58 0
-55 -59 -27 0
22 -5 38 0
-1 -42 2 0
-53 -16 22 0
16 -37 -23 0
-6 18 -56 0
34 -41 -40 0
19 28 -9 0
-6 56 -9 0
-12 -2 -35 0
-9 -14 -21 0
-38 -20 60 0
-59 -27 -22 0
-12 -7 60 0
-28 22 -56 0
9 21 -55 0
42 -38 11 0
-15 59 -16 0
-53 -33 -23 0
-31 -22 -16 0
16 -55 -42 0
20 58 4 0
-11 32 10 0
-54 -18 35 0
-21 -50 -40 0
45 -10 -31 0
10 -13 -8 0
-16 50 -12 0
-38 10 14 0
-20 -37 -26 0
7 28 -29 0
-11 -26 -3 0
-57 -51 -35 0
32 -4 7 0
2 -52 45 0
-8 -9 -36 0
-45 -46 33 0
-39 -51 -38 0
57 27 28 0
-11 -3 -14 0
-15 -22 -3 0
18 11 -56 0
54 -44 15 0
-14 -54 -6 0
36 -38 -47 0
-41 -16 14 0
-60 -40 -45 0
-20 -11 -25 0
-27 42 2 0
36 -47 43 0
-46 9 25 0
20 -56 35 0
47 12 46 0
-52 28 -35 0
-23 46 39 0
-26 -25 -7 0
40 -7 -54 0
9 25 -44 0
-37 -19 -5 0
43 -55 25 0
57 34 -38 0
38 -4 -49 0
-22 -48 18 0
-37 -45 -55 0
-53 60 -46 0
-12 -44 29 0
19 3 45 0
18 6 -45 0
21 -46 -14 0
24 38 -4 0
54 -60 32 0
-54 43 -15 0
-2 54 -23 0
41 -12 -20 0
38 60 25 0
-5 -14 -57 0
23 -24 35 0
44 -40 -5 0
46 57 9 0
-22 -40 -24 0
34 36 42 0
47 1 28 0
-28 -51 -33 0
-35 -50 -24 0
-58 8 -9 0
53 41 -20 0
36 51 -40 0
39 29 24 0
-39 -44 -15 0
-51 -42 -50 0
28 -6 32 0
-8 45 -42 0
15 -8 -1 0
-6 45 -48 0
31 25 33 0
-53 45 46 0
-2 8 -30 0
-28 -34 -27 0
-28 10 -9 0
57 13 -2 0
-17 -59 -18 0
-18 -10 -47 0
30 34 55 0
36 16 -28 0
53 45 -52 0
52 -26 59 0
-46 -44 42 0
-51 45 -57 0
18 -16 26 0
-29 -40 31 0
-5 -6 46 0
16 39 -4 0
-30 52 -3 0
25 -50 -10 0
40 -60 5 0
31 1 8 0
-30 -9 8 0
17 46 50 0
54 32 -58 0
-55 -36 20 0
20 -45 11 0
56 -48 8 0
58 -31 -37 0
46 -17 -30 0
-2 55 -41 0
-44 1 -36 0
