c family=3-SAT n=60 instance=3 seed=2573548008 models=1170
c order 6 27 3 26 46 37 53 5 47 20 4 48 39 54 15 19 50 42 22 44 2 8 40 12 23 9 14 55 10 58 38 59 31 41 51 30 16 35 36 32 57 13 11 45 25 1 17 28 60 56 34 49 18 33 24 29 7 21 43 52
c order 7 27 25 12 37 52 55 3 53 58 41 1 28 46 2 4 31 48 38 19 56 13 20 11 42 47 17 51 5 16 45 50 8 44 26 35 32 15 49 40 57 29 21 59 14 54 24 36 30 22 23 33 34 60 43 9 39 18 10 6
c order 52 58 36 56 46 11 37 14 59 33 42 44 34 30 48 51 21 12 43 55 4 31 26 5 60 54 50 17 45 40 19 18 22 32 20 23 57 41 6 24 29 39 38 27 9 47 53 49 7 28 3 35 8 15 1 2 25 13 16 10
c order 10 43 6 14 51 46 42 22 12 25 60 47 29 30 1 57 40 8 34 20 4 2 3 24 16 11 55 49 23 53 38 19 31 44 36 56 7 27 5 41 18 28 17 45 58 9 32 13 54 39 26 37 33 50 48 59 21 15 35 52
c order 12 34 56 53 29 26 59 38 39 52 21 3 35 20 33 31 51 43 32 44 60 57 37 50 24 40 14 17 9 16 7 46 22 5 48 47 55 11 13 6 41 4 15 54 49 27 19 36 42 58 30 28 8 2 18 10 23 1 45 25
c order 36 46 14 49 18 57 11 9 29 15 6 40 44 26 53 19 24 27 25 43 13 42 23 21 34 22 38 4 56 3 52 20 45 55 39 2 32 48 35 12 17 8 58 1 33 37 47 10 30 31 7 54 51 59 60 28 16 50 41 5
c order 47 34 59 7 41 21 46 53 12 48 8 37 57 58 19 28 29 40 43 27 33 10 13 44 5 22 55 45 25 52 4 56 24 42 26 14 6 54 3 49 38 30 20 11 36 50 60 16 2 51 39 15 35 1 18 9 32 17 23 31
c order 29 7 30 34 9 27 53 14 36 11 45 49 1 41 28 43 18 51 35 56 42 57 59 50 13 54 40 2 21 19 22 12 26 20 55 24 58 39 16 17 3 10 44 31 5 23 33 48 8 4 37 15 47 25 6 46 60 38 52 32
c order 59 58 47 32 4 10 60 2 53 26 27 41 12 22 49 44 39 20 57 40 23 28 3 50 11 35 29 9 36 16 42 31 25 18 43 52 7 8 38 21 17 1 15 54 13 37 51 33 30 45 48 24 19 56 55 34 5 6 14 46
c order 22 25 42 30 53 41 29 18 19 51 59 21 33 47 3 31 17 26 24 12 14 15 39 23 43 58 5 36 35 48 46 20 54 55 6 34 28 11 13 27 44 1 38 49 50 45 56 2 9 4 52 32 8 60 57 37 16 40 10 7
p cnf 60 252
58 17 29 0
43 -22 48 0
41 45 42 0
46 -60 56 0
-46 -55 -42 0
58 17 16 0
29 -14 -34 0
-34 26 4 0
53 31 46 0
24 -40 -56 0
57 -17 -27 0
-50 -60 30 0
45 14 -32 0
-19 -46 17 0
59 -42 30 0
-51 -55 -28 0
53 -58 33 0
20 -43 -11 0
52 24 -11 0
-40 27 6 0
-28 23 7 0
-50 25 -30 0
-15 -12 -53 0
45 -20 55 0
-39 -29 17 0
9 49 -60 0
-53 33 -36 0
-34 -51 31 0
-57 1 4 0
-34 -57 -27 0
-49 -11 42 0
-24 54 6 0
26 12 -52 0
-60 -10 50 0
-51 2 -34 0
3 -5 36 0
3 -37 9 0
-56 43 25 0
58 -44 -1 0
-56 20 -2 0
-19 36 33 0
59 -51 -57 0
-17 24 -12 0
34 33 -36 0
51 -55 1 0
-53 5 46 0
-44 40 -29 0
-48 -14 -54 0
54 -30 22 0
9 35 16 0
46 -16 56 0
57 -30 13 0
9 -7 -13 0
15 4 -47 0
-30 53 8 0
-28 -36 58 0
46 13 -43 0
42 -54 59 0
51 -53 -26 0
43 -45 21 0
11 29 -26 0
55 7 48 0
54 -2 -57 0
8 -32 -34 0
47 53 -36 0
-2 -12 -58 0
-6 -26 33 0
32 -35 -25 0
-13 -7 -20 0
-39 -16 8 0
56 3 52 0
-27 -53 -56 0
-8 29 10 0
-27 28 40 0
-28 -14 31 0
-55 -18 -56 0
-49 -19 -30 0
39 49 -59 0
-38 37 -55 0
56 7 33 0
-22 -11 -30 0
-1 4 56 0
-6 -7 -14 0
-10 -9 -7 0
-8 -13 -34 0
10 51 4 0
-50 42 49 0
-28 37 48 0
13 -43 7 0
-9 14 31 0
41 53 -37 0
57 38 22 0
54 -18 -22 0
58 2 -18 0
35 40 44 0
23 -52 57 0
-2 -54 21 0
-28 -58 14 0
-28 -23 -38 0
-22 35 60 0
-10 -12 -32 0
-57 7 -50 0
-12 2 23 0
-42 37 -18 0
29 52 13 0
-15 -53 -58 0
3 -4 10 0
-35 18 -12 0
30 -26 55 0
-21 19 47 0
-56 -23 -38 0
33 -20 58 0
-23 7 -31 0
27 -14 35 0
4 -18 11 0
2 23 22 0
-24 11 46 0
-39 -25 5 0
53 10 -14 0
25 -37 60 0
3 34 -14 0
49 55 -28 0
33 26 -44 0
-52 -19 -53 0
7 39 -28 0
-32 24 37 0
51 -21 60 0
29 -24 17 0
16 29 -30 0
-7 48 -27 0
32 -59 -56 0
-20 -54 -23 0
-48 -33 42 0
-59 11 -54 0
38 -37 -19 0
1 -31 26 0
-3 54 55 0
56 -34 13 0
-43 -12 -46 0
-20 8 55 0
9 -45 60 0
-54 35 -51 0
-7 32 -17 0
-37 -50 -51 0
42 -23 -22 0
-12 28 -29 0
8 59 1 0
-42 3 -2 0
-50 -53 44 0
-48 58 3 0
39 10 3 0
4 2 32 0
5 30 -7 0
11 12 -36 0
-42 33 13 0
15 32 52 0
24 43 15 0
58 -3 40 0
3 24 -7 0
10 -12 27 0
-5 35 -51 0
-48 33 -30 0
-19 -41 -58 0
-51 25 -43 0
42 -59 -45 0
26 45 29 0
37 -1 2 0
-59 -19 40 0
-58 -59 23 0
47 28 -39 0
-2 -4 -29 0
-37 -52 -34 0
35 55 -20 0
-35 16 -42 0
-14 -50 -49 0
-3 -4 -45 0
60 -48 -5 0
-21 -7 -13 0
-3 -25 -16 0
52 -54 -30 0
-15 -41 20 0
24 -16 -53 0
51 58 -46 0
21 13 -51 0
9 14 4 0
-54 32 -57 0
-4 -5 -32 0
-60 13 -57 0
36 60 -38 0
48 -38 47 0
-13 -45 -15 0
-52 19 49 0
-2 -44 -7 0
-7 60 52 0
-9 -12 11 0
13 17 5 0
-52 60 11 0
60 2 -33 0
-1 -51 -2 0
31 37 -40 0
53 -60 -39 0
-4 21 -45 0
-55 -50 -27 0
-60 -53 -5 0
-58 51 -1 0
-14 -55 -22 0
-2 -52 -29 0
59 20 -3 0
60 37 -40 0
41 15 60 0
-38 -36 -33 0
14 43 -11 0
16 31 46 0
60 -56 -33 0
31 25 -53 0
10 -22 -60 0
-59 -47 1 0
-37 47 22 0
59 -6 4 0
-10 -56 -2 0
13 2 -21 0
-13 2 -57 0
58 -35 -38 0
-2 -41 -7 0
-46 40 32 0
-36 -34 -50 0
-19 30 -12 0
15 17 -49 0
-16 24 42 0
-23 59 -50 0
11 -53 37 0
-15 -38 -13 0
56 18 -59 0
45 -60 41 0
-12 16 8 0
32 2 -5 0
-21 37 -54 0
58 32 41 0
32 3 -19 0
-43 13 -45 0
-7 35 -37 0
-16 -8 2 0
39 -32 -6 0
-11 9 24 0
2 58 41 0
-35 25 16 0
31 4 6 0
13 -23 -16 0
-31 53 8 0
17 32 34 0
-37 -12 -50 0
18 -58 -52 0
