c family=3-SAT n=60 instance=6 seed=2573548008 models=9727
c order 38 23 7 45 57 58 15 19 51 31 17 39 18 52 33 11 4 46 3 25 37 42 21 43 53 40 32 10 13 26 9 36 41 54 5 47 50 27 22 60 29 55 6 28 49 16 14 34 12 44 56 1 35 30 8 48 59 2 24 20
c order 46 18 42 28 13 31 47 20 25 44 49 51 23 15 12 4 57 5 48 2 6 41 33 21 50 43 60 8 22 45 30 24 40 38 54 10 1 7 32 26 34 58 35 29 11 16 19 27 3 56 14 59 17 55 37 9 53 52 39 36
c order 45 17 54 15 46 19 24 12 59 26 55 5 25 47 27 37 4 3 21 41 9 16 20 50 39 32 28 11 6 30 22 31 40 53 10 33 58 56 51 44 14 38 29 8 42 13 23 35 34 48 1 52 18 36 7 49 2 57 43 60
c order 28 12 51 57 38 44 10 21 49 41 33 55 17 40 7 42 50 1 24 6 2 56 5 16 46 9 22 52 13 8 47 43 54 34 19 35 58 60 36 27 25 11 18 20 29 31 15 3 53 37 14 32 39 26 4 59 30 45 48 23
c order 56 45 37 57 60 10 14 8 12 5 11 32 58 26 49 48 51 25 39 35 3 24 38 30 13 31 34 33 6 29 52 22 2 44 54 15 53 28 40 18 50 46 21 16 4 42 27 19 23 17 20 43 9 41 1 59 7 36 55 47
c order 41 5 39 55 45 4 16 27 12 53 2 51 29 38 52 24 7 10 17 28 57 25 3 59 46 54 8 1 14 58 18 35 47 50 21 23 34 15 9 44 33 56 49 60 37 30 43 13 11 42 32 31 6 22 20 19 48 36 40 26
c order 37 38 18 60 30 28 2 55 47 40 44 29 6 10 31 4 23 20 14 36 48 39 16 3 56 32 41 50 35 8 24 12 9 45 49 17 43 19 59 33 52 15 54 5 11 58 53 46 1 22 51 34 21 7 26 42 57 27 13 25
c order 49 40 48 47 35 56 58 31 42 3 55 7 60 46 36 5 45 51 20 18 50 52 19 53 59 26 38 14 28 24 25 9 54 33 37 15 34 11 32 4 17 23 2 44 12 41 1 29 30 13 16 10 27 43 8 22 6 39 57 21
c order 54 4 44 21 55 60 10 53 30 9 5 25 33 56 20 7 35 32 51 27 13 6 19 14 49 15 3 57 36 1 11 18 41 31 42 29 46 39 12 45 58 50 37 8 22 26 47 24 16 43 59 52 2 34 17 40 23 48 38 28
c order 56 53 31 20 6 48 12 11 55 58 23 39 4 5 47 59 38 19 54 33 16 46 2 21 42 44 14 57 18 24 43 7 29 50 60 49 52 27 3 36 28 9 35 45 41 37 13 10 30 25 15 8 1 17 26 32 40 51 22 34
p cnf 60 252
55 47 26 0
48 -47 46 0
30 -45 18 0
14 -31 -34 0
27 -39 -26 0
5 34 25 0
-12 15 -54 0
21 -39 -22 0
-27 -20 8 0
-25 30 58 0
-31 22 29 0
-14 3 -45 0
20 8 37 0
58 27 48 0
-36 32 24 0
54 27 -17 0
5 22 -40 0
14 -35 -30 0
-54 29 -48 0
52 29 31 0
-11 2 -55 0
-54 56 -10 0
16 15 50 0
55 -28 36 0
33 -19 -57 0
-26 -35 -7 0
-42 44 40 0
-46 -6 16 0
-27 -40 -38 0
-18 -3 -10 0
30 -33 -7 0
-18 56 8 0
-10 -34 25 0
-22 47 -9 0
-25 -20 -28 0
54 45 58 0
26 40 55 0
54 -7 1 0
-16 -34 -27 0
-34 15 5 0
-40 46 -56 0
51 -37 3 0
6 -57 -11 0
54 59 -45 0
53 -36 9 0
23 -7 -3 0
26 22 -38 0
-19 32 -12 0
-51 -44 11 0
-37 41 24 0
24 16 15 0
20 -35 21 0
23 55 21 0
-44 -59 -41 0
-16 -24 -57 0
-37 -11 -39 0
-25 54 -55 0
51 37 2 0
47 38 -8 0
46 30 -43 0
10 24 25 0
-46 13 -19 0
-20 38 -44 0
5 55 59 0
34 58 -21 0
-31 46 38 0
13 38 33 0
3 -36 -9 0
30 38 -15 0
50 -20 12 0
42 55 -23 0
36 57 -9 0
-26 51 -5 0
-45 -28 -14 0
-28 15 -14 0
35 42 -22 0
19 -3 -18 0
55 -1 -15 0
15 48 -10 0
41 39 57 0
46 56 40 0
-51 54 -35 0
28 36 6 0
-19 -15 52 0
-11 21 8 0
-16 54 30 0
-27 -42 -54 0
4 -32 -43 0
-26 -44 -16 0
17 -25 -54 0
20 -57 49 0
28 -3 32 0
-1 34 52 0
6 -40 -13 0
-53 32 -25 0
-5 37 -56 0
18 24 -2 0
-30 -32 -35 0
-7 -26 -35 0
9 -23 24 0
33 -60 -37 0
-44 -18 1 0
-20 11 -7 0
45 -14 -49 0
49 9 26 0
16 -22 15 0
-45 59 -20 0
-15 38 29 0
46 -18 -50 0
59 7 -47 0
58 59 12 0
-58 -52 -37 0
7 49 -33 0
37 -20 24 0
-4 -24 -31 0
-38 30 9 0
28 31 -7 0
-14 4 58 0
-9 8 -43 0
-37 60 -52 0
-14 -34 -22 0
-42 9 -36 0
38 7 -25 0
5 -6 -25 0
21 -10 38 0
-59 -46 21 0
-48 58 -52 0
52 11 -54 0
-50 -59 60 0
13 -52 -8 0
-16 10 -29 0
-55 -43 4 0
-39 57 -55 0
14 -52 -38 0
18 -24 -26 0
39 9 1 0
-13 -17 -45 0
23 6 9 0
13 -55 58 0
23 22 4 0
-30 47 45 0
-20 -15 -50 0
31 12 34 0
26 11 55 0
8 50 -23 0
32 -42 -49 0
-49 15 59 0
-56 5 23 0
11 -45 15 0
2 -1 -11 0
-11 23 50 0
14 17 -3 0
-12 57 -20 0
-11 35 -9 0
-11 17 21 0
-6 1 32 0
59 3 -44 0
-49 -35 -16 0
-55 57 33 0
-27 9 -15 0
-39 -6 -48 0
-14 -9 33 0
10 -41 55 0
42 19 -35 0
12 -21 -26 0
13 8 25 0
52 56 24 0
-34 55 40 0
50 -45 36 0
-34 8 -2 0
25 -56 -19 0
24 -38 5 0
24 -25 17 0
-50 3 -47 0
-19 -55 12 0
14 44 24 0
-15 4 -14 0
-17 -26 37 0
26 -9 19 0
51 53 -20 0
13 47 58 0
3 -14 6 0
11 49 -17 0
-11 47 21 0
11 51 28 0
14 37 30 0
56 -13 -54 0
51 41 -60 0
-36 50 39 0
6 59 34 0
-15 -21 -38 0
25 -39 -19 0
-8 42 30 0
-7 -23 -50 0
-33 -4 -54 0
-54 35 27 0
-42 58 -34 0
12 -26 2 0
-12 40 -56 0
-45 29 -54 0
-1 -22 -36 0
-45 -13 -30 0
-46 59 15 0
-8 -52 -57 0
-18 -58 -20 0
57 -16 22 0
-34 -25 -13 0
20 23 -47 0
13 -26 54 0
-60 29 -9 0
26 34 -37 0
15 -52 56 0
-2 36 -54 0
-46 -16 22 0
-33 -42 22 0
-10 58 17 0
-35 39 26 0
31 13 45 0
-57 35 6 0
-31 -55 -18 0
-57 4 5 0
23 43 9 0
37 50 8 0
33 -9 7 0
-21 33 -52 0
42 -55 -15 0
-25 41 45 0
-40 -21 19 0
29 -27 -30 0
31 -41 -25 0
17 13 -3 0
-45 41 -46 0
57 -16 -28 0
56 -45 -36 0
-46 -36 44 0
49 -53 -30 0
26 -2 -38 0
-3 49 55 0
-31 -30 -3 0
-46 50 20 0
1 -51 56 0
34 49 -36 0
-16 17 -18 0
-31 -19 -47 0
27 17 21 0
-29 53 15 0
-41 30 59 0
-44 -9 36 0
-5 -52 17 0
-52 -56 -25 0
-3 -5 4 0
18 12 -47 0
