c family=3-SAT n=60 instance=7 seed=2573548008 models=8828
c order 26 29 11 58 45 30 50 42 7 35 54 37 13 32 43 53 20 33 38 14 60 52 40 6 31 15 8 17 23 56 41 34 18 44 16 39 22 19 12 49 5 51 55 28 4 57 2 3 9 1 36 48 47 25 21 59 46 10 24 27
c order 7 12 40 9 24 53 26 36 39 32 48 23 6 21 19 20 13 57 58 43 50 47 25 10 54 11 35 38 45 30 44 2 16 14 15 37 49 52 41 27 46 29 59 33 18 56 3 1 28 8 31 55 42 17 4 51 22 60 34 5
c order 9 20 30 12 16 56 39 8 54 29 14 13 47 52 60 40 38 21 36 4 6 2 59 17 37 43 48 57 55 27 50 42 44 25 5 51 26 32 46 7 41 22 10 15 1 28 58 35 11 49 45 34 18 53 3 24 31 19 23 33
c order 54 39 21 58 28 47 40 34 53 3 29 25 43 56 22 18 60 57 50 14 12 7 24 4 46 23 35 15 33 49 51 9 11 17 32 48 26 59 52 1 13 38 10 20 27 36 5 41 31 19 6 37 45 44 42 16 8 55 30 2
c order 32 13 42 50 12 46 43 17 51 11 9 27 8 39 38 35 2 19 30 26 31 10 59 24 20 47 16 28 29 55 45 60 22 53 15 5 18 25 41 21 14 33 7 34 3 56 36 1 54 58 52 40 37 23 44 6 48 4 49 57
c order 34 48 41 27 49 22 38 20 8 17 32 45 6 57 23 58 36 26 9 14 5 21 59 29 16 54 35 3 56 10 1 37 12 40 18 46 50 2 25 31 47 39 30 33 7 43 42 51 55 52 4 24 60 19 15 11 44 53 28 13
c order 38 21 55 46 12 50 31 41 17 6 18 45 27 15 43 22 39 35 13 29 47 20 5 53 54 23 56 14 32 9 57 49 3 2 30 42 59 26 28 24 4 40 19 52 33 48 58 44 7 8 34 1 16 36 11 10 37 25 51 60
c order 49 46 50 31 18 39 48 2 19 27 4 44 58 26 47 1 3 17 60 12 57 38 23 6 8 54 45 34 11 21 7 56 20 30 52 36 10 29 53 59 51 32 33 14 22 40 41 15 43 24 55 37 42 25 16 9 5 13 35 28
c order 24 32 37 55 58 12 1 51 5 46 33 17 41 6 45 31 26 7 36 50 22 11 18 56 49 4 42 34 60 54 44 35 48 10 21 19 15 25 16 28 40 39 43 8 47 20 3 59 38 52 29 30 57 2 14 27 13 9 53 23
c order 41 5 7 13 32 55 51 34 36 20 38 59 52 33 40 49 42 23 15 18 21 26 11 29 17 35 39 50 19 4 16 3 1 2 31 43 14 37 53 25 27 58 22 9 56 12 10 24 57 47 46 30 45 54 8 48 28 60 44 6
p cnf 60 252
32 48 42 0
-19 46 7 0
-6 24 4 0
-48 58 15 0
47 31 -44 0
56 -34 53 0
31 43 54 0
46 53 -8 0
7 -39 11 0
3 39 -1 0
-10 -47 -35 0
-51 -25 -58 0
-19 47 -18 0
-4 20 2 0
-43 -21 53 0
-5 -59 55 0
15 37 -9 0
32 30 -49 0
-5 12 49 0
12 -51 38 0
-43 -14 46 0
-5 -35 41 0
56 -3 17 0
17 -35 -33 0
-60 59 26 0
-3 39 36 0
-36 59 31 0
49 -25 -58 0
-21 10 26 0
-35 34 11 0
-50 46 24 0
-50 -4 55 0
-4 28 49 0
54 27 56 0
-56 -38 26 0
21 60 -3 0
44 -12 35 0
-38 -56 46 0
35 7 9 0
-48 33 23 0
-51 -15 -37 0
-8 22 23 0
17 -7 -42 0
-45 -33 -37 0
5 -11 42 0
7 24 -48 0
-46 28 -60 0
-17 59 -5 0
-20 -32 55 0
57 -54 -44 0
-35 29 -56 0
-29 12 -47 0
-42 39 16 0
42 -8 20 0
-37 -26 45 0
-4 -50 21 0
51 12 -57 0
35 31 -36 0
-50 -9 -24 0
-14 -20 16 0
51 -38 53 0
-23 -9 -22 0
25 32 -23 0
22 -13 44 0
16 7 1 0
-13 -11 59 0
6 -52 1 0
-10 2 42 0
-27 -32 3 0
33 -3 -16 0
52 -3 -45 0
-47 55 -20 0
36 -2 38 0
-41 -27 -32 0
17 -20 -32 0
34 -21 -45 0
29 -28 27 0
25 -11 9 0
-47 -3 38 0
14 53 5 0
-31 19 -16 0
-25 -38 57 0
22 13 -41 0
-26 -15 57 0
28 51 -8 0
-21 6 -54 0
33 19 49 0
45 36 -26 0
-19 -57 -32 0
24 -14 -31 0
-42 -36 50 0
-54 28 6 0
-13 7 25 0
49 -54 -11 0
24 -20 -31 0
-59 31 -1 0
50 -16 -40 0
59 -20 -4 0
-11 29 -33 0
30 -14 42 0
21 -5 -8 0
-32 57 -56 0
16 -60 -1 0
12 -7 27 0
42 28 50 0
-60 23 -45 0
53 59 -12 0
41 21 35 0
-18 53 -52 0
12 -48 8 0
-51 36 56 0
48 -57 -37 0
-52 48 27 0
1 -52 57 0
20 59 46 0
20 1 -29 0
50 53 55 0
46 19 56 0
3 18 17 0
-30 17 -50 0
-31 -54 44 0
-22 -44 -60 0
11 25 -9 0
-17 -47 -21 0
52 -38 56 0
-43 23 56 0
-36 -1 17 0
-55 53 -36 0
51 52 -2 0
-47 30 22 0
-57 -25 -60 0
-51 32 29 0
-22 20 45 0
8 1 44 0
-33 15 52 0
42 -4 -23 0
56 1 -44 0
-60 -43 -13 0
-31 -2 3 0
56 -8 58 0
60 32 -31 0
-10 33 13 0
31 -44 54 0
3 -18 42 0
40 -36 -25 0
-21 -60 39 0
10 8 43 0
-11 32 23 0
-41 -8 -43 0
27 -32 -16 0
13 59 52 0
16 -1 39 0
-32 47 -51 0
-18 49 12 0
5 16 -44 0
-39 12 -29 0
-56 12 -60 0
30 -16 -29 0
58 -46 -13 0
17 -60 -35 0
-29 -53 48 0
20 -49 -30 0
18 -21 -26 0
56 -28 -4 0
-46 -54 9 0
30 46 17 0
52 -55 4 0
-36 28 -29 0
34 -18 -2 0
-55 -42 -45 0
-14 31 -38 0
47 -38 -55 0
3 22 -18 0
-43 38 -32 0
46 45 -7 0
-10 8 50 0
35 18 -33 0
28 -26 7 0
-34 6 -7 0
34 41 54 0
13 40 16 0
59 -3 -30 0
46 32 6 0
41 -38 28 0
10 -59 49 0
-50 57 14 0
-30 52 -50 0
46 -41 36 0
35 -31 12 0
-58 -39 53 0
-28 44 4 0
-39 -5 31 0
-40 -49 -15 0
46 -26 40 0
11 -27 -4 0
51 -31 29 0
-11 12 43 0
26 -49 17 0
45 24 -43 0
-45 42 -55 0
23 -5 52 0
38 -34 -45 0
-53 -56 42 0
33 54 -40 0
-45 49 20 0
-56 2 -18 0
-19 58 43 0
-55 -5 -20 0
22 -35 -21 0
12 52 46 0
-34 58 -57 0
37 27 -1 0
26 56 47 0
5 19 30 0
4 -16 -42 0
11 -59 56 0
35 31 -9 0
50 16 -56 0
52 -4 -9 0
25 59 2 0
-40 4 28 0
-48 31 -53 0
30 -10 27 0
54 -39 -50 0
-35 -15 -5 0
-53 -3 -23 0
-43 -22 -37 0
-41 40 52 0
-20 35 9 0
5 20 -31 0
41 -11 -56 0
4 49 -40 0
51 29 33 0
-12 -22 -39 0
-31 -14 58 0
41 -47 23 0
-50 53 -21 0
-1 32 56 0
24 -59 37 0
-36 33 -27 0
-27 -9 -48 0
-1 2 -33 0
40 -27 -34 0
39 -43 -53 0
1 -9 -59 0
-51 -16 29 0
57 5 16 0
21 -54 -9 0
-10 -21 37 0
-51 -57 45 0
-16 -33 -47 0
-15 -48 16 0
