c family=3-SAT n=60 instance=2 seed=2573548008 models=2044
c order 9 55 1 42 49 41 56 23 35 19 36 2 34 24 26 37 15 29 58 11 18 10 25 28 7 45 52 33 17 43 16 5 4 6 12 22 14 59 32 21 8 53 50 57 48 27 20 40 13 30 3 39 51 60 44 31 46 47 38 54
c order 27 19 42 48 51 32 12 36 11 53 45 5 2 16 23 20 22 24 29 6 37 9 10 47 15 55 3 21 33 1 25 58 31 26 54 57 59 7 43 46 56 14 38 60 49 13 40 4 41 34 35 30 17 8 39 52 28 44 50 18
c order 57 36 46 58 54 8 23 29 28 47 37 34 30 9 39 35 43 1 53 24 40 11 59 32 13 31 22 38 19 33 25 16 49 52 12 56 20 18 21 5 44 26 3 7 15 27 41 48 42 51 55 14 17 45 4 60 6 10 2 50
c order 7 48 18 5 43 15 9 6 17 60 40 39 29 35 22 12 16 45 14 27 10 33 58 36 49 23 21 25 46 30 3 50 32 37 55 11 31 51 52 13 59 20 38 56 47 54 19 44 34 41 4 8 1 42 57 24 2 53 26 28
c order 44 58 9 29 23 25 53 12 7 17 48 16 46 59 45 50 15 31 26 38 30 49 33 37 10 34 20 60 6 21 18 47 54 14 11 40 3 19 41 8 1 32 39 42 57 51 28 55 5 56 13 27 24 35 36 52 43 4 22 2
c order 43 4 51 26 8 17 34 31 56 27 47 10 11 46 42 40 37 20 6 60 21 13 25 39 18 1 15 59 29 48 38 23 50 12 32 22 57 58 53 52 9 3 2 28 54 5 55 44 16 33 45 24 49 36 41 14 35 19 30 7
c order 59 17 23 12 3 47 38 48 4 41 8 51 35 43 40 36 33 16 18 53 11 29 55 50 1 52 13 34 46 28 14 9 45 20 7 32 22 49 37 31 6 19 2 26 5 30 15 42 10 27 25 39 54 60 56 21 58 44 57 24
c order 49 3 17 51 8 15 1 16 40 28 36 37 52 34 21 6 44 14 29 5 58 47 22 19 60 33 38 55 7 42 20 27 10 46 50 59 45 31 54 32 53 57 13 26 18 4 41 12 2 24 35 56 23 39 43 30 9 11 48 25
c order 7 55 60 35 50 11 31 14 48 58 6 24 12 40 32 49 54 3 22 28 20 37 26 15 27 19 38 36 33 2 34 53 59 39 23 42 25 52 17 41 13 43 4 21 44 56 8 46 45 16 57 51 30 18 9 29 10 5 1 47
c order 13 15 22 48 18 24 9 60 35 40 38 52 30 49 46 28 43 53 5 54 21 47 6 7 50 19 12 51 16 42 58 26 10 11 3 27 29 39 37 41 55 2 36 33 32 45 56 4 31 44 20 17 59 8 1 14 57 23 25 34
p cnf 60 252
-11 41 56 0
-58 53 14 0
-36 -51 53 0
25 60 21 0
-57 -31 38 0
-2 -58 -29 0
19 -30 -18 0
-43 -55 -29 0
-6 -15 43 0
-4 36 28 0
49 1 -41 0
-53 -42 -45 0
59 -5 44 0
-59 16 -54 0
55 -60 57 0
-42 -48 -41 0
5 -22 42 0
56 -57 -21 0
-14 -13 -48 0
49 -9 -10 0
-1 48 14 0
58 -12 -55 0
-25 12 -16 0
-32 -57 51 0
-40 -43 18 0
32 60 12 0
15 -16 4 0
45 -32 42 0
39 15 26 0
22 -58 -37 0
32 1 -40 0
51 12 -44 0
-44 -30 -11 0
-11 -45 -23 0
-13 -11 53 0
-52 54 -37 0
39 -41 15 0
-38 60 -16 0
33 -13 30 0
58 25 56 0
15 5 21 0
-55 -46 -53 0
-37 -3 -35 0
41 52 -34 0
-45 41 35 0
-51 16 -23 0
-59 -55 -43 0
-7 -31 38 0
-49 -13 31 0
-37 49 38 0
-47 28 -51 0
-54 2 -33 0
53 34 9 0
-2 -16 -1 0
-59 -38 -37 0
1 30 58 0
32 -44 -30 0
-16 -51 -11 0
30 -44 46 0
-9 -13 -52 0
39 -35 -12 0
-14 15 -38 0
-49 21 -17 0
50 12 43 0
-45 29 -42 0
42 -54 -50 0
-52 -32 21 0
43 -38 45 0
6 -29 -2 0
59 54 56 0
-49 56 10 0
13 -58 -55 0
22 34 58 0
-5 40 -1 0
1 22 6 0
40 30 -34 0
-41 43 -60 0
-53 8 41 0
-50 -34 -21 0
30 -20 32 0
-9 -1 -41 0
-9 4 36 0
-27 5 55 0
22 -59 -58 0
47 8 -10 0
56 -55 -32 0
2 15 -53 0
25 58 56 0
-43 45 47 0
58 -44 27 0
57 39 41 0
49 -27 10 0
17 26 37 0
-48 -34 39 0
-27 21 20 0
25 -16 28 0
-58 45 -15 0
14 -20 -33 0
-43 20 22 0
53 38 43 0
22 -57 -18 0
36 -42 -52 0
-31 15 30 0
10 -26 -11 0
-14 -53 -17 0
7 -2 -6 0
60 -2 9 0
37 -40 -22 0
16 38 -7 0
3 -44 -11 0
54 49 11 0
6 39 1 0
10 2 -30 0
6 33 -36 0
-58 19 49 0
59 57 46 0
-32 -25 -16 0
-42 -11 -43 0
-1 9 -53 0
54 2 58 0
-56 12 17 0
-13 49 -23 0
55 -18 43 0
-55 -37 -6 0
41 -56 27 0
-19 -1 -39 0
17 35 51 0
-7 -17 11 0
31 -39 -2 0
3 -6 -45 0
17 -10 -44 0
32 5 -21 0
15 -49 -22 0
-29 -24 13 0
-47 -28 -9 0
-20 -29 12 0
-51 22 -45 0
-32 -20 -3 0
-57 -52 59 0
-15 -9 -49 0
-53 -35 -19 0
59 27 -20 0
-47 -41 -46 0
-40 56 -24 0
-17 -46 -48 0
29 -16 -3 0
-12 -40 27 0
-2 57 -46 0
-1 -13 -40 0
4 -15 48 0
16 -10 34 0
21 42 -13 0
54 5 -19 0
-8 33 6 0
-8 -16 17 0
31 -50 -12 0
26 57 31 0
40 -37 -41 0
-13 -19 -57 0
30 -42 -56 0
35 3 16 0
-7 -2 42 0
52 -56 46 0
34 -26 -44 0
33 38 -21 0
36 -60 45 0
-10 -58 46 0
-9 20 1 0
-42 29 53 0
-56 -27 39 0
6 20 -22 0
10 39 -30 0
-39 -12 -48 0
57 29 -50 0
-51 -6 33 0
23 5 -27 0
22 -13 -45 0
-56 12 -33 0
9 -24 51 0
35 -16 -19 0
4 51 -48 0
9 -13 36 0
5 -31 48 0
20 -12 -33 0
19 -10 -28 0
54 44 -18 0
-56 36 17 0
-45 38 -55 0
-53 -59 -39 0
5 33 51 0
-8 4 -45 0
25 53 -28 0
-45 59 -28 0
-7 39 30 0
-44 -39 41 0
-10 -31 18 0
32 -48 -33 0
-46 50 19 0
31 -17 -7 0
4 -18 -34 0
-2 -32 -1 0
1 4 -58 0
19 -33 -34 0
-21 -45 -57 0
36 11 -57 0
-9 -8 5 0
-9 -12 15 0
11 -22 -60 0
-30 -46 34 0
-5 -55 -41 0
21 -27 -29 0
35 50 46 0
-38 37 -56 0
-44 49 -28 0
-10 18 -27 0
-32 -28 -20 0
-6 47 43 0
53 -41 -5 0
-24 -38 -27 0
-22 -44 25 0
-35 20 57 0
40 49 -43 0
57 -18 4 0
7 26 -34 0
-40 -26 -48 0
41 -57 18 0
19 18 -45 0
35 -58 11 0
52 -44 -21 0
-55 -49 40 0
55 -54 14 0
-8 -7 43 0
11 51 31 0
58 -56 -11 0
14 -18 34 0
36 57 46 0
-3 35 19 0
-36 -28 7 0
-10 30 15 0
4 -32 3 0
-1 -32 -27 0
45 -50 49 0
-52 -44 -3 0
34 6 15 0
-10 21 22 0
45 57 -20 0
-55 -24 51 0
-17 58 -54 0
41 -24 -1 0
12 22 -60 0
-58 5 -37 0
-46 45 17 0
