c family=3-SAT n=60 instance=5 seed=2573548008 models=856
c order 58 33 47 22 29 25 13 24 21 57 39 56 55 16 27 12 43 4 44 9 8 6 54 53 41 10 60 11 3 49 20 7 5 35 40 18 2 26 52 34 1 17 48 23 37 30 32 19 38 14 51 50 15 59 31 28 45 42 46 36
c order 1 13 25 27 42 7 60 32 16 4 53 59 10 43 50 6 36 28 34 51 20 47 39 2 19 8 46 35 17 11 26 44 54 38 57 23 21 22 37 58 14 29 24 18 45 9 3 40 5 30 15 48 12 52 49 56 41 31 33 55
c order 21 8 12 58 46 35 25 23 26 28 19 31 6 41 1 40 48 9 59 16 2 30 54 29 57 42 33 43 49 60 44 52 56 14 5 27 18 45 4 20 39 3 17 10 55 38 47 13 51 15 53 50 24 37 34 32 36 11 22 7
c order 16 8 53 60 5 34 20 17 54 38 14 33 46 49 4 55 3 35 36 52 51 57 45 59 6 37 31 12 42 9 39 13 40 21 56 48 47 32 2 22 15 28 27 29 26 1 24 19 7 18 58 30 25 11 23 43 10 50 41 44
c order 60 34 39 57 19 9 17 55 14 56 5 49 37 31 24 25 50 13 10 2 46 16 29 30 33 6 51 45 32 26 8 38 42 41 40 3 27 44 52 4 1 48 43 28 54 21 53 15 7 23 20 18 36 11 22 59 35 58 12 47
c order 25 41 51 54 39 14 27 29 1 30 6 18 34 56 60 17 7 21 22 49 12 8 5 31 48 55 26 11 44 10 24 16 52 45 3 42 4 58 35 28 36 43 37 9 13 40 15 33 2 20 38 53 46 57 19 47 32 59 50 23
c order 48 45 33 43 47 4 30 6 22 25 20 38 44 24 40 19 21 55 60 31 56 53 46 5 11 34 12 42 26 36 27 29 37 35 10 15 50 9 7 8 23 32 2 18 52 58 57 3 13 59 39 17 28 16 54 49 51 14 1 41
c order 31 5 17 57 8 41 22 45 11 24 47 55 6 52 35 37 36 2 38 9 26 14 1 59 40 13 28 4 29 34 53 20 15 16 12 49 54 21 32 18 44 27 46 60 51 58 19 42 48 30 3 23 39 7 43 33 56 10 25 50
c order 14 52 3 47 31 60 42 33 21 29 44 35 41 51 12 20 54 9 40 10 57 48 59 11 55 23 50 8 16 13 7 24 34 26 5 53 22 4 19 30 17 49 39 45 1 58 6 27 38 2 36 43 28 46 18 37 56 25 15 32
c order 1 55 4 58 7 11 44 8 51 2 18 20 32 17 46 49 56 10 52 47 26 36 38 9 3 14 43 30 22 16 48 33 54 50 37 31 15 53 23 19 28 24 25 27 29 35 40 57 60 39 45 13 42 41 34 12 21 6 59 5
p cnf 60 252
56 10 23 0
49 26 -6 0
-27 -60 -32 0
-7 -17 -11 0
-59 11 -46 0
-29 8 13 0
-45 -26 17 0
-17 -49 -24 0
43 13 -39 0
-60 15 53 0
-18 -12 -32 0
4 -20 53 0
47 -19 41 0
45 -18 49 0
12 -36 46 0
55 -58 34 0
22 60 9 0
27 46 16 0
-28 8 7 0
43 22 6 0
45 32 6 0
6 53 -34 0
40 -52 -7 0
-8 37 26 0
32 5 -40 0
50 -53 10 0
-29 8 -41 0
35 60 -38 0
43 39 12 0
6 1 -50 0
13 -18 40 0
-45 47 18 0
-52 -59 -9 0
-42 36 5 0
-51 27 1 0
38 52 -40 0
-12 -33 56 0
29 14 51 0
-9 -7 -2 0
23 50 -9 0
56 24 44 0
48 38 -44 0
38 -26 -54 0
-9 8 57 0
17 -14 38 0
31 -13 60 0
-44 -25 -46 0
27 -32 -28 0
-43 10 57 0
18 -20 -4 0
8 13 31 0
32 51 7 0
3 -49 -58 0
35 -30 -51 0
-22 -50 54 0
21 -25 55 0
32 55 -58 0
48 33 7 0
-31 18 -27 0
-37 -7 -5 0
-8 -19 43 0
-53 -52 -13 0
9 -23 26 0
33 -51 -2 0
-26 1 -15 0
-46 -41 57 0
-54 21 33 0
-51 -1 -31 0
-55 2 14 0
11 -56 -45 0
-23 -34 -53 0
-5 -57 48 0
-47 15 17 0
-56 -32 1 0
48 47 33 0
-59 -54 13 0
-36 6 -21 0
14 -17 24 0
-50 53 5 0
-56 22 20 0
-16 17 -43 0
47 16 -3 0
55 -5 11 0
-1 5 49 0
18 20 -58 0
-5 18 35 0
11 -20 25 0
38 -29 -7 0
-19 55 17 0
-25 27 -58 0
-26 -24 28 0
59 50 -15 0
18 56 28 0
37 33 19 0
-26 58 49 0
-8 -54 60 0
-57 41 -15 0
49 5 -42 0
-13 -36 49 0
-19 -34 -55 0
-14 -32 7 0
-39 -35 -1 0
47 -35 42 0
-34 9 -28 0
-52 21 31 0
8 7 15 0
-46 -58 10 0
29 -45 7 0
14 -27 22 0
46 -31 14 0
-9 -10 -51 0
-29 9 38 0
-43 7 -1 0
-38 -24 -21 0
-21 11 16 0
43 36 -39 0
51 28 45 0
10 -24 37 0
-1 -7 -16 0
-41 21 -31 0
-45 -29 -21 0
-50 38 16 0
-51 -35 52 0
39 -17 -59 0
-39 -43 -35 0
8 31 -5 0
-10 33 -48 0
-35 50 -47 0
-21 59 56 0
6 32 -38 0
-6 8 38 0
-53 -57 -35 0
-9 -55 45 0
8 23 14 0
-28 -21 33 0
-45 50 10 0
-12 37 25 0
43 5 25 0
-42 -47 -29 0
6 52 -16 0
-49 -55 22 0
-50 -39 40 0
27 45 -33 0
29 -3 39 0
-30 42 -27 0
-59 -49 -8 0
56 -7 -14 0
23 36 -56 0
-10 47 30 0
48 20 -47 0
24 32 -7 0
-39 19 28 0
42 1 -47 0
40 -5 -39 0
-27 15 37 0
-21 -60 56 0
14 12 40 0
27 -45 59 0
7 30 -41 0
-27 -32 36 0
-2 -53 -34 0
42 19 -45 0
-59 31 57 0
58 15 -27 0
48 9 -59 0
28 -47 15 0
-43 -51 -11 0
31 17 -60 0
47 -40 -7 0
52 55 -3 0
-38 -41 -47 0
38 -8 -6 0
5 21 15 0
24 12 -7 0
-43 -8 -40 0
-47 5 42 0
53 -55 25 0
7 -20 33 0
35 59 31 0
-43 29 40 0
-4 60 36 0
-52 -59 40 0
-51 55 14 0
-7 -46 32 0
22 7 -31 0
40 -22 -31 0
-9 -13 3 0
-25 23 -46 0
18 1 31 0
-23 -26 42 0
-1 12 52 0
-13 -19 18 0
11 -60 48 0
-57 45 -48 0
-59 -25 20 0
32 16 -40 0
45 22 -42 0
12 37 52 0
51 -23 -32 0
3 57 -32 0
7 -26 -24 0
-50 -44 6 0
-40 -8 50 0
-46 -28 60 0
-29 10 -24 0
60 18 20 0
-57 -39 -51 0
-5 -15 42 0
-43 40 5 0
27 16 -32 0
37 31 60 0
53 -41 -16 0
-35 2 -1 0
-14 10 25 0
24 -16 19 0
15 6 8 0
27 -48 -3 0
26 2 27 0
25 12 -29 0
-3 56 11 0
1 -48 -57 0
21 -32 -1 0
-22 35 52 0
43 -3 57 0
52 1 5 0
-14 -6 17 0
-58 23 2 0
-6 49 3 0
-4 7 9 0
37 5 38 0
15 -28 -27 0
23 -17 -53 0
26 -2 -29 0
34 -4 39 0
-13 30 56 0
-58 -31 9 0
38 -11 -59 0
-12 -29 -24 0
8 32 49 0
42 51 57 0
8 42 -33 0
-27 1 6 0
-10 41 -2 0
-25 -34 -16 0
50 46 -6 0
56 -43 -17 0
-5 -17 23 0
-36 19 46 0
20 39 -15 0
-60 -10 47 0
-9 31 -29 0
-59 -56 46 0
