c family=3-SAT n=60 instance=4 seed=2573548008 models=6815
c order 21 52 8 27 14 55 9 41 11 49 48 57 18 56 53 60 47 50 31 32 42 26 24 54 1 33 25 36 6 59 46 58 7 15 10 44 29 34 28 5 30 23 3 35 4 19 12 51 2 38 40 17 45 13 39 16 37 22 20 43
c order 24 58 6 18 27 7 48 31 47 13 20 4 49 56 41 33 55 34 16 25 60 42 51 26 17 14 35 1 5 53 39 57 29 46 43 54 40 11 38 23 50 36 22 8 52 2 28 19 37 15 3 30 10 9 45 44 12 59 32 21
c order 20 35 43 6 53 39 59 50 2 28 46 34 29 48 5 41 26 54 12 8 52 30 36 13 38 17 3 32 10 19 51 14 1 49 21 24 22 9 18 7 57 15 45 44 42 56 31 27 40 11 47 58 37 23 4 33 16 60 25 55
c order 19 13 43 45 47 20 55 2 35 24 16 40 52 37 23 39 59 27 30 28 11 53 14 51 44 6 7 57 9 60 21 38 17 10 4 8 34 36 41 48 46 32 54 29 50 49 22 1 25 42 3 5 31 56 18 26 12 58 15 33
c order 11 42 47 52 31 6 21 43 41 1 37 22 38 10 2 35 19 49 36 44 39 59 12 50 15 7 8 29 25 58 30 28 55 17 16 18 46 53 9 60 40 57 3 34 5 27 33 56 48 26 45 54 23 32 13 24 20 14 51 4
c order 1 19 40 53 9 45 35 43 26 39 21 20 59 49 11 48 38 2 32 60 18 57 56 42 22 15 8 24 30 23 41 4 55 16 25 54 5 51 34 58 37 6 17 50 28 27 14 33 52 3 13 12 7 44 47 36 31 10 29 46
c order 46 49 12 10 24 27 58 35 26 18 41 42 57 48 54 38 2 29 9 17 55 15 56 50 31 30 1 39 60 51 47 28 7 22 20 14 4 44 36 11 16 52 6 45 33 32 23 53 43 19 34 5 3 8 13 59 40 37 25 21
c order 31 55 50 56 2 16 22 27 10 6 58 19 9 13 40 21 47 54 15 52 45 12 24 36 17 3 1 28 46 20 43 32 26 39 29 33 38 57 35 42 7 37 23 4 44 60 59 34 14 41 30 25 48 5 53 51 18 11 8 49
c order 60 11 56 59 22 48 25 41 32 55 43 37 8 30 57 47 51 2 58 12 10 13 26 46 39 45 4 14 40 7 19 15 5 54 31 16 21 50 53 27 18 17 3 42 52 20 38 9 44 49 28 1 36 24 35 29 23 6 34 33
c order 12 50 48 58 44 31 6 23 5 47 7 19 3 37 42 45 38 9 32 53 33 57 43 15 27 16 8 51 55 28 56 13 52 30 25 20 4 14 49 54 22 36 59 34 40 26 41 60 39 29 18 17 2 35 11 24 46 21 10 1
p cnf 60 252
-6 37 -8 0
-49 38 -51 0
56 15 -34 0
9 -11 59 0
50 -42 15 0
-55 -9 -53 0
-60 5 41 0
8 4 1 0
-50 23 44 0
-59 30 -2 0
11 -33 -56 0
-25 41 51 0
45 48 -6 0
-30 -7 -33 0
-20 -30 -5 0
-21 12 -9 0
7 46 2 0
-7 15 17 0
-10 26 -23 0
-38 46 7 0
-22 18 51 0
31 21 55 0
36 41 -25 0
49 21 -54 0
43 8 32 0
-18 42 -39 0
-13 -12 33 0
31 20 14 0
-25 -4 -42 0
-42 -31 45 0
3 -54 -37 0
31 4 -24 0
54 31 52 0
-4 -3 24 0
-13 57 42 0
-60 -37 -46 0
-45 -58 -22 0
29 -19 -55 0
37 -32 31 0
-31 35 -17 0
14 -34 -4 0
-38 58 -29 0
-55 -48 21 0
-30 -14 -20 0
-55 -39 31 0
38 18 31 0
8 -49 16 0
23 27 17 0
-42 -20 30 0
-40 -8 -1 0
2 6 -29 0
51 -47 46 0
-38 -30 -50 0
6 8 -49 0
-39 -2 -15 0
-19 -15 30 0
52 -4 8 0
-54 35 60 0
-7 2 -32 0
-5 58 29 0
1 -40 -3 0
-28 12 -20 0
-55 -2 56 0
17 -57 24 0
54 17 6 0
22 16 -44 0
-60 5 -32 0
-22 -46 -5 0
-42 16 -33 0
-51 -26 6 0
-60 21 -25 0
-23 20 -12 0
-54 48 -6 0
-41 28 44 0
36 -49 14 0
35 8 -1 0
-46 -26 -15 0
-55 60 32 0
-52 -47 -51 0
31 -1 -55 0
-12 55 48 0
-23 4 -37 0
6 42 -35 0
46 -39 -16 0
-54 47 -43 0
26 27 -10 0
-34 -41 -60 0
-24 40 -7 0
14 11 16 0
-46 31 -13 0
-26 40 36 0
-41 11 -28 0
19 -49 37 0
43 53 -19 0
12 -39 54 0
58 -18 27 0
-21 35 26 0
-20 -50 16 0
2 54 41 0
-50 -55 28 0
-53 7 -16 0
-58 19 34 0
14 25 -22 0
44 38 -20 0
22 -9 -58 0
-59 -42 -1 0
56 59 -39 0
-2 50 47 0
-6 48 -18 0
9 6 46 0
-30 -1 -46 0
21 17 -5 0
38 48 35 0
-13 -10 -7 0
35 -22 -8 0
24 39 -47 0
54 -12 13 0
38 37 -1 0
-25 3 30 0
44 7 26 0
10 -15 18 0
29 48 21 0
10 -36 20 0
53 -29 15 0
16 -40 -5 0
-31 -59 -53 0
54 -25 -28 0
28 9 35 0
52 -18 40 0
54 51 1 0
58 45 2 0
45 -17 24 0
-19 -23 36 0
-1 -22 44 0
-54 38 1 0
24 -39 57 0
4 43 16 0
3 -58 50 0
-57 -5 -29 0
48 -10 33 0
14 2 -6 0
-17 -45 50 0
36 -59 44 0
-20 60 35 0
-45 -34 18 0
-60 42 7 0
-56 6 -17 0
55 2 -23 0
47 -39 -53 0
53 17 54 0
-59 -28 23 0
-37 -46 16 0
-35 8 -49 0
-2 -25 53 0
-53 49 24 0
-36 48 -53 0
-44 57 34 0
5 -30 -1 0
-58 13 25 0
35 -60 37 0
-43 34 50 0
53 57 -38 0
8 3 28 0
17 27 44 0
8 -38 -57 0
-1 -60 -20 0
-52 -27 -16 0
-19 44 24 0
-55 22 30 0
-45 14 -59 0
-58 -17 -16 0
-15 47 54 0
16 58 -27 0
-15 14 -43 0
49 -10 -33 0
9 -37 45 0
-36 -22 -59 0
-60 -1 -47 0
14 42 -47 0
37 16 -44 0
-47 -2 -23 0
-51 -6 -8 0
-12 53 -52 0
-26 2 -23 0
-40 -18 20 0
16 48 23 0
-5 17 -39 0
32 57 23 0
-50 32 -18 0
-17 21 38 0
28 51 -29 0
10 -25 8 0
-38 25 56 0
-41 -59 -37 0
-57 -56 15 0
-52 -6 50 0
49 -22 57 0
26 -22 -60 0
-57 -25 -8 0
-53 22 -37 0
-6 28 -46 0
-57 -55 45 0
-13 26 -4 0
-36 41 -20 0
-52 -22 -10 0
11 -22 38 0
-32 -55 -37 0
43 38 42 0
-27 51 39 0
7 -13 54 0
56 -40 -53 0
-55 -42 16 0
57 50 -53 0
-54 -30 18 0
-38 31 11 0
-28 48 -45 0
56 36 60 0
-54 -30 -22 0
33 -52 -39 0
35 24 -2 0
4 -23 26 0
4 20 -5 0
-27 59 -24 0
21 -8 -7 0
-14 -24 -28 0
-36 -32 -49 0
-42 46 12 0
-14 -44 2 0
-8 -30 -5 0
39 51 -40 0
47 32 -44 0
-33 -43 2 0
36 -7 -19 0
23 -8 32 0
-34 56 -52 0
-57 -5 33 0
37 -54 -33 0
35 -31 -43 0
7 -19 39 0
-2 -3 -41 0
36 -41 46 0
-34 -4 -32 0
12 8 46 0
25 -12 -21 0
-21 -19 -53 0
28 -11 -20 0
48 -50 -14 0
-21 -51 27 0
27 3 -8 0
-10 -4 -5 0
-10 -55 13 0
-34 -21 -49 0
