c family=3-SAT n=60 instance=0 seed=2573548008 models=154
c order 34 10 49 28 54 37 55 43 52 13 36 26 38 30 29 58 21 51 56 6 7 39 15 17 40 42 35 16 11 4 14 50 45 59 23 33 57 19 12 2 60 5 53 41 3 44 9 22 48 18 47 1 8 24 20 27 32 46 25 31
c order 41 3 60 28 51 20 10 44 4 49 36 24 37 53 59 8 57 21 38 50 35 52 7 18 43 9 25 5 45 39 17 16 46 42 47 34 22 1 23 58 54 33 13 55 29 31 26 30 12 14 19 11 56 15 32 48 2 6 40 27
c order 15 39 53 3 37 60 55 50 47 40 19 48 20 41 14 56 22 38 58 49 1 33 45 23 32 27 51 57 26 59 5 10 13 9 36 46 30 24 21 8 35 2 54 42 25 52 17 16 18 31 4 29 7 6 43 44 28 34 11 12
c order 49 19 27 55 5 47 26 11 48 43 21 10 44 36 20 2 56 40 18 50 6 9 38 33 7 42 31 51 14 28 52 54 57 37 13 60 24 34 15 23 25 8 59 12 4 1 53 29 3 22 35 46 39 16 41 17 32 45 30 58
c order 33 58 11 54 7 48 51 30 2 34 53 6 55 26 47 49 9 15 31 13 42 40 45 1 5 35 17 16 37 52 10 38 29 32 8 60 50 57 3 18 41 46 4 28 36 27 20 25 12 14 56 22 24 19 59 23 39 44 43 21
c order 5 20 37 9 23 13 33 56 16 36 24 38 41 3 32 30 21 26 59 39 8 19 6 31 43 46 48 40 45 18 52 42 34 12 53 35 55 44 14 50 17 22 7 54 49 10 2 4 25 57 47 11 1 60 29 27 58 51 28 15
c order 36 4 55 21 20 51 40 1 22 8 26 59 35 56 54 57 44 2 52 46 43 47 12 37 24 5 19 11 3 6 38 53 60 17 58 48 14 50 13 42 16 45 7 25 31 32 49 30 33 41 9 10 28 23 27 39 15 18 29 34
c order 57 42 18 34 8 14 2 35 9 11 37 50 53 56 22 29 1 21 7 16 43 48 15 52 32 26 36 28 51 54 44 10 20 19 58 6 31 12 41 5 33 4 55 39 30 60 3 49 13 59 24 40 17 45 46 27 23 47 38 25
c order 4 48 27 28 13 25 23 49 22 60 51 44 41 26 1 5 45 39 11 56 37 57 18 43 59 47 19 8 15 42 35 33 20 36 21 58 54 10 6 50 53 16 12 31 55 24 17 2 32 52 46 3 40 9 34 29 7 38 14 30
c order 36 45 22 46 29 59 51 2 41 30 6 49 37 26 31 52 25 15 13 23 33 40 18 1 44 16 34 27 39 53 38 60 50 58 9 14 21 43 4 3 48 54 5 35 10 24 47 19 7 8 20 12 32 11 55 57 17 42 56 28
p cnf 60 252
-48 -56 -46 0
-35 59 -36 0
-20 34 -21 0
-26 28 11 0
-19 -43 12 0
-40 48 -36 0
-15 48 53 0
-9 -24 11 0
-48 -59 18 0
13 26 60 0
51 -24 -32 0
-18 10 35 0
-36 17 -54 0
52 41 32 0
51 -33 44 0
39 6 -29 0
-57 25 3 0
39 58 -57 0
-52 56 -12 0
-6 54 25 0
20 38 -37 0
-35 45 22 0
-17 38 -40 0
-32 -15 34 0
31 -40 38 0
18 -29 -2 0
20 -17 53 0
49 23 -44 0
34 -43 -46 0
-50 60 -27 0
-8 26 -53 0
-31 -20 38 0
-21 -18 46 0
-39 -26 43 0
-46 -56 58 0
-42 -10 -20 0
-24 26 31 0
-44 -42 -28 0
-46 29 -26 0
13 52 46 0
56 17 -38 0
8 34 33 0
-41 18 -20 0
-46 -50 3 0
-54 -23 5 0
52 54 -15 0
-13 -36 -51 0
42 -20 49 0
-44 13 32 0
43 40 -29 0
44 57 1 0
1 -52 -47 0
-56 4 -30 0
-14 -33 31 0
37 -39 8 0
-25 19 -47 0
-8 -11 21 0
-54 24 -15 0
-23 3 -29 0
-35 -26 56 0
59 -53 -42 0
-33 -46 -47 0
55 -48 -5 0
-56 -45 -8 0
-5 -50 -14 0
-3 4 -32 0
59 -5 -41 0
-50 -36 4 0
-48 31 44 0
-23 27 49 0
14 -38 13 0
-35 -30 -39 0
-47 48 25 0
9 44 20 0
-14 -41 60 0
-47 -31 -9 0
-24 -40 -20 0
5 -8 -42 0
50 49 40 0
20 19 -48 0
50 4 -56 0
51 -13 19 0
58 51 21 0
53 24 -33 0
18 -32 -15 0
-30 44 -26 0
48 51 36 0
-56 -53 43 0
-53 -19 -42 0
-16 40 -27 0
59 -45 -20 0
12 27 -58 0
-48 15 41 0
-44 -6 -5 0
54 18 58 0
1 -4 46 0
-26 -32 -44 0
1 54 38 0
-32 31 -36 0
54 5 53 0
18 -14 47 0
-22 -25 -51 0
56 -8 -57 0
35 -51 -11 0
-15 -37 51 0
49 41 -30 0
8 26 -28 0
-40 -57 55 0
-26 27 -7 0
-35 -9 8 0
-36 10 -37 0
-21 -10 18 0
-46 -38 59 0
34 -37 -54 0
-41 21 -14 0
-53 21 7 0
-40 59 36 0
50 7 54 0
-59 -56 -49 0
47 -30 -19 0
-20 5 -59 0
-6 19 -32 0
-40 15 -43 0
26 55 16 0
26 -30 -23 0
-45 17 -21 0
50 -30 28 0
-16 -50 21 0
16 -23 22 0
5 -58 -12 0
-51 33 19 0
28 6 -36 0
-24 -32 -37 0
-51 -54 -52 0
-30 -23 -47 0
-50 -44 13 0
-41 -4 -45 0
-21 14 -16 0
-35 54 43 0
-19 55 -45 0
3 35 25 0
-9 -26 18 0
20 -15 -44 0
-7 53 35 0
-19 38 -50 0
43 -39 4 0
-15 31 27 0
-9 22 -48 0
25 58 -22 0
12 57 -56 0
43 13 -18 0
-33 23 -14 0
47 8 43 0
37 47 30 0
-37 52 -4 0
-9 -16 17 0
-6 -44 -54 0
32 11 -31 0
43 41 31 0
-26 -17 27 0
-23 -14 -9 0
-20 -27 42 0
-50 58 27 0
45 12 6 0
-52 -21 11 0
50 -31 -42 0
24 13 -31 0
-40 -11 -8 0
45 -26 36 0
-56 -2 -8 0
27 -28 -31 0
57 -13 12 0
-28 -20 49 0
60 5 -22 0
38 22 -18 0
-3 -26 42 0
18 -34 -13 0
33 29 41 0
-19 -32 50 0
-34 -28 38 0
-26 37 38 0
54 -56 -43 0
42 53 17 0
5 33 21 0
-43 -44 -4 0
58 22 -25 0
32 24 -50 0
-38 57 -20 0
52 -11 8 0
-30 -47 -35 0
-24 -41 -30 0
-25 -38 43 0
-54 8 45 0
57 -23 55 0
28 -12 5 0
32 39 5 0
-32 -16 5 0
55 2 -45 0
38 24 -21 0
32 25 52 0
7 -28 44 0
21 7 11 0
21 -14 15 0
-60 -23 -50 0
38 36 -9 0
-17 53 -43 0
-34 24 25 0
-13 -58 33 0
-25 15 42 0
18 42 -20 0
-58 43 -35 0
60 33 -49 0
-34 11 33 0
-10 -37 -45 0
50 -48 -54 0
-11 -10 -46 0
-3 -53 37 0
23 -47 45 0
-36 -55 -21 0
-12 -55 -3 0
60 16 26 0
14 54 9 0
-26 24 27 0
-4 -26 41 0
-44 34 51 0
-33 -46 35 0
-30 8 -34 0
28 55 49 0
1 41 37 0
-1 -39 -53 0
49 58 18 0
16 3 42 0
-42 29 -51 0
46 -45 44 0
-57 -46 4 0
4 42 39 0
-4 2 53 0
-51 41 -32 0
23 7 -21 0
-54 -8 32 0
50 23 -60 0
-57 -9 11 0
-50 57 8 0
54 52 46 0
-48 3 -15 0
-7 14 -37 0
-17 22 -41 0
42 45 -41 0
-10 -15 -55 0
31 -50 -7 0
47 -55 33 0
17 33 6 0
