c family=3-SAT n=60 instance=9 seed=2573548008 models=1216
c order 48 6 16 52 11 3 35 44 43 36 56 2 45 9 13 34 51 10 29 1 8 37 19 41 60 4 12 39 50 5 20 21 30 17 32 22 25 23 27 59 46 54 42 24 18 55 33 14 57 28 47 31 7 40 53 15 49 58 26 38
c order 9 17 47 7 40 30 28 2 58 27 10 25 20 26 52 8 37 32 29 48 4 44 22 36 11 46 41 33 31 60 39 59 6 24 23 18 15 14 51 5 3 21 49 50 1 19 12 38 53 16 57 45 56 42 54 55 34 35 43 13
c order 29 20 35 37 54 26 28 27 15 21 52 57 13 30 4 6 50 59 23 19 7 9 42 58 1 56 38 22 5 3 2 44 33 24 40 25 53 43 12 17 34 18 39 8 46 49 16 32 45 48 55 31 51 60 10 41 14 47 36 11
c order 19 8 5 4 34 50 27 11 23 42 18 53 56 59 54 55 58 22 17 7 13 38 10 16 51 20 2 39 1 32 57 37 30 12 15 40 41 24 60 36 44 21 45 29 9 52 48 46 25 28 31 3 14 43 35 47 26 6 33 49
c order 49 24 58 10 23 18 20 6 42 53 48 40 19 60 25 8 56 54 22 5 50 26 36 16 31 17 39 33 3 7 15 45 28 57 14 38 1 37 55 52 27 44 46 41 30 11 32 47 59 4 35 29 13 12 51 9 43 34 21 2
c order 2 8 9 10 53 48 27 39 36 43 35 42 34 4 60 18 52 19 23 41 58 11 33 47 3 55 12 6 38 26 7 54 30 51 21 31 32 25 59 57 16 56 5 15 46 49 22 40 14 28 29 17 13 1 45 24 37 50 20 44
c order 44 10 36 29 57 22 51 25 16 15 37 24 31 1 3 7 5 39 8 11 50 21 45 46 9 32 59 60 33 12 19 56 4 2 14 35 23 47 28 30 34 42 54 38 48 17 58 26 20 40 52 53 13 41 55 27 49 6 43 18
c order 45 50 23 48 21 10 3 59 1 27 5 35 58 13 44 15 51 46 32 41 34 20 38 54 52 37 40 30 31 47 25 33 53 36 4 60 28 49 11 9 22 8 43 39 29 19 57 55 14 2 17 56 16 18 26 6 12 7 24 42
c order 22 37 34 43 13 59 52 4 8 28 27 14 47 56 21 39 2 50 41 54 11 32 25 19 35 1 5 18 24 45 58 53 46 9 38 17 7 49 36 60 31 3 51 57 23 48 33 16 20 44 30 12 15 26 29 55 10 42 40 6
c order 16 60 11 54 22 40 6 52 14 24 18 15 49 31 4 56 34 19 46 37 58 8 48 20 47 30 36 51 50 55 12 27 29 10 39 5 7 2 33 21 1 9 38 57 53 23 43 41 59 42 35 3 28 25 32 26 45 17 44 13
p cnf 60 252
15 -40 -56 0
13 -55 56 0
-10 -36 28 0
-52 -58 -17 0
-41 59 -6 0
-43 5 -32 0
6 -57 -14 0
34 7 -50 0
1 44 -26 0
17 -23 33 0
49 -29 -2 0
18 20 -21 0
-10 52 -36 0
16 60 -25 0
-50 14 39 0
35 -48 25 0
-55 22 45 0
57 32 -30 0
25 28 8 0
26 -50 23 0
52 -45 26 0
37 -56 -30 0
-48 -15 -34 0
37 -49 -38 0
2 -57 -47 0
33 52 16 0
-33 -4 25 0
-41 -44 57 0
-43 -21 55 0
-44 -34 23 0
-47 -29 14 0
53 -48 9 0
58 -5 49 0
22 -5 -25 0
-6 -36 -13 0
8 56 -20 0
1 -43 -20 0
59 14 15 0
55 42 -5 0
47 3 -18 0
47 -10 -18 0
15 -60 -14 0
28 58 -31 0
7 -3 27 0
60 -8 -59 0
58 -19 60 0
-48 24 -27 0
44 9 53 0
-45 40 -55 0
-35 2 -15 0
59 -36 -24 0
-26 36 -43 0
16 -2 -9 0
42 47 -10 0
-11 -15 -25 0
31 -48 44 0
28 2 35 0
-25 -51 -11 0
-60 46 -4 0
-28 -25 -9 0
41 -38 15 0
-23 41 42 0
-1 60 -54 0
47 33 -21 0
46 -25 -41 0
10 -45 -56 0
8 -19 -52 0
-54 -41 -43 0
56 -17 57 0
60 -38 28 0
-40 48 -26 0
4 39 -16 0
8 -57 -26 0
23 15 -9 0
58 -25 49 0
4 -1 43 0
-21 32 -12 0
11 60 -4 0
-28 -26 -36 0
25 -16 -31 0
-6 -50 5 0
34 38 -33 0
-43 50 17 0
11 -40 29 0
58 -43 -40 0
51 -31 -32 0
27 38 -24 0
23 -6 -47 0
48 -35 4 0
17 -10 26 0
48 -22 59 0
-37 59 -22 0
-8 -26 47 0
-23 -2 -13 0
-51 -11 -29 0
-19 6 -26 0
12 -56 -27 0
15 -37 -21 0
35 39 29 0
57 48 -40 0
10 -47 32 0
-46 -16 31 0
45 -25 58 0
37 -17 -26 0
7 11 -45 0
-55 56 35 0
17 38 3 0
52 -39 19 0
33 -13 -11 0
56 11 -3 0
49 18 -34 0
22 -2 57 0
-51 32 -45 0
20 -25 -40 0
-53 24 -59 0
30 -24 17 0
22 -53 -17 0
-15 11 29 0
18 -44 37 0
18 20 10 0
3 57 33 0
-13 48 -58 0
43 16 -25 0
13 22 54 0
-52 -6 -24 0
18 13 55 0
45 22 -54 0
-37 -15 -27 0
39 52 -6 0
28 -11 32 0
48 -44 -17 0
47 -24 3 0
25 -57 -26 0
-26 10 -29 0
39 -25 58 0
26 50 -57 0
-49 14 -43 0
21 55 52 0
-57 16 -36 0
-16 -38 -40 0
25 -39 29 0
41 -40 -38 0
17 -59 46 0
7 1 24 0
-12 -31 -18 0
26 -18 13 0
-59 -18 37 0
-28 -48 24 0
25 -42 9 0
40 43 -9 0
-26 31 -5 0
-10 60 -34 0
49 -46 -24 0
47 -12 17 0
23 60 47 0
-19 -10 5 0
-59 -21 -20 0
-31 -60 -17 0
37 41 20 0
-12 55 -34 0
-40 -32 59 0
-29 53 -16 0
-26 -2 36 0
49 -32 -44 0
-43 18 -16 0
54 49 38 0
-15 4 24 0
29 -44 -42 0
-4 27 34 0
-20 23 -40 0
3 -12 -33 0
-4 46 59 0
41 -36 -54 0
57 29 -23 0
-48 57 -40 0
16 -48 -1 0
-33 -48 -2 0
59 24 -53 0
-20 11 -58 0
-21 35 51 0
13 -9 23 0
10 33 12 0
58 31 49 0
31 28 1 0
23 -16 -15 0
13 -55 -25 0
8 -13 -50 0
13 -20 -28 0
-47 -53 27 0
-57 39 -52 0
51 -11 14 0
32 53 6 0
-38 55 -56 0
-12 16 -25 0
-49 4 10 0
20 -2 -3 0
-23 32 42 0
28 20 -19 0
58 -59 28 0
-5 3 22 0
60 -3 -39 0
8 -17 -21 0
-25 -9 29 0
4 -45 -25 0
57 -37 36 0
-46 22 31 0
-56 -48 -36 0
-36 41 35 0
-55 -49 46 0
33 32 -41 0
-3 36 -39 0
-33 14 -20 0
8 33 7 0
4 -14 55 0
-38 -9 -16 0
-13 -47 31 0
12 -36 -58 0
-30 57 34 0
24 31 -14 0
-21 20 -34 0
37 60 -33 0
18 -16 -27 0
49 47 51 0
-32 -46 -52 0
-55 42 39 0
-16 -57 47 0
-34 11 53 0
-19 26 -23 0
-38 26 -5 0
8 42 -59 0
-55 12 45 0
53 -8 -60 0
8 45 -39 0
-40 -37 30 0
24 6 28 0
-28 -40 15 0
-41 -42 45 0
4 36 11 0
-13 5 -32 0
18 -40 11 0
58 50 -16 0
-5 -19 25 0
-15 -23 14 0
-50 -39 53 0
29 44 -26 0
-55 51 23 0
-32 -55 -60 0
-39 -34 36 0
25 20 -19 0
-50 43 -32 0
-45 -14 52 0
23 2 15 0
