c family=3-SAT n=60 instance=1 seed=2573548008 models=121
c order 16 48 55 31 5 18 11 4 47 57 13 26 36 49 6 17 37 8 35 53 38 23 1 22 25 27 32 43 52 33 2 46 7 50 40 59 28 41 51 3 29 60 42 14 34 56 30 54 45 39 44 9 15 12 10 19 24 58 20 21
c order 2 8 57 52 28 50 20 11 4 55 38 44 10 36 25 14 35 54 6 37 56 43 13 34 58 18 46 47 23 53 1 33 48 29 16 5 32 45 60 21 26 22 30 59 49 42 19 39 7 3 31 27 51 12 40 17 41 9 24 15
c order 4 18 25 47 41 7 60 3 8 14 2 1 31 16 55 49 40 30 24 34 57 32 35 44 19 58 27 13 33 38 29 45 53 12 10 48 56 54 28 59 37 22 51 39 6 5 11 17 43 50 21 15 42 36 52 46 26 20 9 23
c order 1 43 57 3 52 23 21 22 42 45 40 56 18 55 39 28 16 20 15 7 46 41 6 34 19 13 36 54 11 44 27 48 12 58 14 38 51 33 25 2 29 60 49 50 35 10 47 32 31 26 4 37 53 17 8 30 9 24 59 5
c order 38 14 10 51 52 23 5 48 12 44 25 42 13 32 17 15 35 41 3 7 1 19 26 45 57 27 29 50 20 21 58 49 59 8 46 2 34 22 54 56 6 55 36 60 43 24 28 30 53 40 47 31 9 33 16 39 37 11 18 4
c order 26 9 5 52 27 36 43 10 59 34 48 11 47 2 30 1 50 58 4 20 42 24 38 40 54 46 23 6 41 29 39 49 56 32 15 35 17 13 18 3 53 14 33 44 7 22 57 19 12 8 60 45 37 28 25 16 51 55 21 31
c order 14 29 45 7 30 55 31 1 5 53 44 9 39 38 35 24 3 37 47 32 8 11 58 49 56 2 34 43 22 57 17 54 50 46 36 27 23 21 15 10 20 41 52 13 12 6 26 33 19 51 40 42 16 25 4 18 48 28 60 59
c order 55 26 14 5 28 43 22 59 40 50 51 29 10 49 38 48 57 46 17 23 47 52 8 3 11 54 20 33 13 41 4 31 21 36 34 2 19 37 60 7 30 15 16 45 56 25 18 42 6 35 39 32 12 44 24 58 27 9 53 1
c order 46 39 10 17 36 59 26 9 60 8 42 41 12 44 15 18 13 45 51 19 47 31 27 29 11 7 58 52 24 14 32 50 37 28 5 38 55 22 56 48 1 49 57 33 34 20 30 23 54 40 21 6 25 16 53 4 35 43 3 2
c order 25 14 7 17 54 18 28 45 52 10 46 47 60 6 59 23 5 11 26 35 2 12 1 13 43 21 38 30 15 33 53 44 4 40 29 24 49 8 9 19 37 50 22 16 57 31 27 51 3 20 55 34 39 36 42 48 32 41 56 58
p cnf 60 252
35 -37 -49 0
-8 -27 30 0
-38 -10 34 0
-42 15 37 0
10 51 15 0
1 2 -48 0
-5 -6 16 0
17 -58 -49 0
-54 -34 -41 0
-7 -35 40 0
-6 -25 -30 0
14 -37 50 0
41 54 -50 0
-39 -51 41 0
49 38 -5 0
28 52 -59 0
-13 41 -3 0
-39 -6 -7 0
21 11 12 0
39 -19 -54 0
31 -48 -35 0
60 55 38 0
17 -21 35 0
3 -44 21 0
46 -12 -59 0
-10 23 -58 0
-3 10 -17 0
-57 18 -25 0
-47 -6 5 0
21 3 52 0
-20 -43 -26 0
29 20 -44 0
-17 11 -41 0
-30 38 -60 0
-19 -21 -29 0
57 20 -47 0
24 60 54 0
58 43 -24 0
3 -8 -28 0
-60 49 23 0
-50 -26 51 0
32 38 49 0
-25 -43 -31 0
-51 -37 25 0
58 -33 -6 0
20 18 -55 0
57 60 -13 0
-40 9 24 0
12 -11 5 0
-17 57 -35 0
39 -48 -27 0
-19 -8 -44 0
-30 27 -16 0
48 -10 -23 0
-42 19 59 0
15 -60 -4 0
-33 48 32 0
-1 -48 -42 0
33 4 60 0
-60 -23 52 0
38 -18 -42 0
13 -19 -57 0
30 -47 25 0
-45 -50 -25 0
-41 -14 18 0
-6 15 57 0
8 56 50 0
-29 12 -56 0
-26 -5 -4 0
-45 14 17 0
43 46 -33 0
-33 -27 -1 0
-24 17 -2 0
23 -7 -49 0
23 53 32 0
34 59 -12 0
18 -14 29 0
-3 -45 37 0
-60 -3 -8 0
-42 -30 -50 0
-59 -23 57 0
46 13 36 0
-52 -18 13 0
-37 55 -36 0
2 -6 25 0
33 -1 60 0
13 -55 34 0
-37 30 57 0
39 -51 47 0
20 58 -27 0
52 -54 -21 0
-51 1 8 0
2 55 24 0
58 39 29 0
-14 37 25 0
-39 -35 37 0
6 52 -18 0
50 48 -55 0
-37 34 -8 0
20 49 11 0
57 -43 18 0
22 13 55 0
49 59 39 0
55 -39 -12 0
30 40 -47 0
-24 27 35 0
16 24 -7 0
13 -54 -49 0
-3 30 -33 0
36 -5 -38 0
53 -8 -38 0
-57 -9 15 0
25 47 36 0
-15 59 52 0
55 -37 42 0
-46 -34 49 0
9 38 37 0
-38 -48 20 0
30 -45 41 0
-30 -32 26 0
43 57 -15 0
-52 6 -54 0
-22 45 -55 0
-40 36 32 0
18 1 -52 0
-49 22 -40 0
53 -41 42 0
53 -29 -30 0
3 -58 21 0
-54 53 49 0
30 34 3 0
34 18 11 0
-45 -13 -2 0
-47 -12 24 0
-23 -35 24 0
6 2 -25 0
44 12 57 0
57 -21 2 0
-9 34 -51 0
-58 -24 48 0
-23 -1 49 0
47 -32 -57 0
7 -47 46 0
-11 4 12 0
-56 29 52 0
50 35 -32 0
-12 28 26 0
53 -39 9 0
18 39 -44 0
-11 -3 17 0
57 -59 35 0
-44 -13 7 0
-27 42 -26 0
23 -53 -57 0
54 53 -33 0
-53 -26 -8 0
43 -46 14 0
-13 -24 -47 0
-20 51 17 0
-27 -54 -32 0
54 46 28 0
15 39 51 0
11 -56 7 0
-60 -38 48 0
-15 -56 -38 0
-56 -51 48 0
-39 -48 44 0
57 45 32 0
-6 29 -53 0
-25 47 -16 0
-55 37 45 0
-16 59 -54 0
34 -55 -40 0
5 55 27 0
-22 42 -1 0
60 -28 37 0
26 39 -13 0
58 -41 -5 0
-39 -19 52 0
46 33 -27 0
-29 34 35 0
-50 -35 60 0
60 14 9 0
-15 8 22 0
40 -34 -53 0
-54 -8 -24 0
38 6 -56 0
31 -41 25 0
-4 56 6 0
-31 -55 18 0
-14 -11 -21 0
-10 57 -44 0
-53 34 -22 0
22 30 -26 0
8 -30 -39 0
-29 56 31 0
24 -12 27 0
47 31 60 0
-14 23 -10 0
-8 -28 -43 0
60 46 -13 0
14 -24 3 0
-39 60 13 0
-10 9 48 0
40 15 -13 0
44 36 -55 0
-52 57 -55 0
-34 26 18 0
12 -2 47 0
-38 -59 -24 0
16 35 -44 0
9 13 27 0
-49 60 -21 0
-11 29 -22 0
39 -53 -49 0
-29 2 -43 0
47 42 48 0
38 -9 -53 0
52 -27 -45 0
-50 -17 57 0
57 -50 35 0
-55 -8 -16 0
-29 10 -16 0
-18 55 34 0
20 -18 59 0
-43 24 -35 0
-45 36 12 0
-38 27 53 0
-60 32 14 0
18 -5 57 0
-29 11 -44 0
31 55 37 0
51 -18 -36 0
-34 56 -54 0
-35 -36 16 0
43 15 51 0
51 -36 -59 0
-56 -30 11 0
26 1 -49 0
6 8 40 0
-10 42 -24 0
5 22 -59 0
-53 20 28 0
-28 -16 -10 0
-33 53 60 0
-17 -4 37 0
34 27 -53 0
44 -47 56 0
58 44 -27 0
60 -53 9 0
-5 -7 22 0
-29 12 57 0
