c family=3-SAT n=70 instance=5 seed=2573548008 models=30
c order 9 3 58 17 37 25 8 55 22 33 62 23 5 52 69 57 32 13 30 20 38 43 63 21 44 31 18 42 7 1 50 46 61 29 45 24 27 12 48 11 10 41 56 68 6 15 16 53 28 64 70 59 65 51 19 2 60 14 36 35 26 66 39 49 67 34 4 54 40 47
c order 52 57 29 50 32 20 40 8 59 49 27 54 61 62 25 14 1 55 51 45 19 47 35 68 13 15 7 5 64 37 36 6 53 22 65 12 39 48 33 56 9 10 31 28 60 18 16 42 11 43 69 58 46 23 24 66 26 30 41 21 3 63 2 67 38 44 4 34 17 70
c order 61 18 35 6 59 70 60 23 34 14 66 43 57 53 19 55 15 12 32 13 8 33 48 20 45 37 46 22 41 10 56 11 38 24 65 63 40 2 42 68 31 69 50 51 5 9 4 30 16 17 64 21 36 28 54 7 67 62 1 29 58 44 52 47 26 3 39 27 25 49
c order 56 62 26 60 59 11 10 36 47 45 19 3 31 28 51 9 4 22 17 63 42 70 37 40 34 69 13 21 61 32 52 54 25 5 57 24 43 66 50 7 14 48 39 15 8 18 30 64 67 27 65 1 29 46 49 44 12 53 6 33 68 35 41 23 20 2 58 55 38 16
c order 4 11 64 20 18 67 27 16 36 19 6 58 39 51 35 62 61 43 15 32 69 59 24 70 50 52 68 63 66 33 29 1 38 46 40 65 37 10 41 17 9 44 8 3 21 25 45 42 47 60 22 5 14 28 56 23 54 49 7 34 48 53 13 26 31 2 30 55 12 57
c order 51 56 38 46 7 39 28 40 47 53 42 21 58 60 1 52 25 24 5 44 41 49 55 20 8 65 19 27 68 4 66 67 33 13 3 29 48 43 37 16 35 23 54 64 69 2 26 59 70 57 18 63 36 11 50 15 30 17 31 9 22 14 32 12 61 6 62 45 34 10
c order 33 9 7 41 62 24 57 40 2 67 15 5 50 56 52 31 30 37 18 23 26 20 58 39 8 51 45 47 13 6 54 12 68 42 35 22 38 3 25 10 43 61 1 65 28 63 66 29 14 21 34 11 60 32 16 64 19 27 46 59 48 49 44 69 53 55 70 4 17 36
c order 56 23 52 40 51 70 22 62 24 42 7 53 54 45 14 57 41 61 4 27 20 17 5 31 68 64 67 38 58 50 47 29 46 44 9 11 25 66 48 1 16 65 2 33 19 59 49 43 34 28 36 55 30 35 32 3 63 8 12 60 39 10 37 18 26 69 6 21 13 15
c order 67 21 52 66 34 2 31 61 20 51 44 38 18 50 30 39 19 37 65 17 62 57 56 10 11 64 9 58 55 59 29 32 7 25 5 23 43 1 60 46 16 70 35 45 22 42 41 15 69 24 8 54 6 53 4 33 3 13 68 14 49 48 28 40 27 63 47 12 36 26
c order 28 62 12 46 67 70 63 22 3 31 42 53 54 66 59 35 19 50 23 17 58 1 25 61 14 45 69 68 51 64 6 39 57 18 21 30 48 34 4 13 11 47 56 7 65 9 43 26 8 36 38 52 20 5 24 2 16 33 55 15 32 49 44 10 27 29 40 37 41 60
p cnf 70 294
49 5 -29 0
-67 -38 20 0
-10 -32 -36 0
11 -65 35 0
-31 47 23 0
-54 -25 46 0
49 -64 -59 0
45 39 55 0
22 4 -60 0
-9 -15 4 0
25 30 -11 0
3 -47 -64 0
-22 -68 34 0
-24 -65 -53 0
-40 46 67 0
-38 6 -29 0
-50 15 46 0
8 -20 -1 0
-50 4 2 0
17 30 -69 0
69 -13 -55 0
4 -17 -26 0
-1 24 -56 0
53 -58 34 0
30 31 -2 0
-49 -4 55 0
4 -36 -53 0
33 32 69 0
25 3 -57 0
4 -1 -32 0
69 27 -38 0
62 -69 70 0
-16 2 14 0
7 37 -63 0
66 63 53 0
28 4 -24 0
-68 55 67 0
-47 -56 3 0
40 -31 38 0
21 45 10 0
24 66 -69 0
62 67 8 0
-14 9 -67 0
18 -4 21 0
30 64 60 0
-33 -67 13 0
56 65 -47 0
40 54 50 0
53 34 -33 0
-65 68 35 0
-25 22 -28 0
33 29 -1 0
63 -41 -57 0
-22 14 60 0
-67 -24 -34 0
-55 46 -6 0
-6 -48 30 0
44 47 54 0
44 -36 -23 0
-6 -28 -61 0
-10 -3 -41 0
-43 19 -4 0
64 -31 -34 0
-46 -11 64 0
-31 34 69 0
63 -21 -9 0
-32 21 -23 0
31 -25 -20 0
1 48 58 0
61 15 -26 0
19 51 -21 0
-35 66 5 0
-69 -10 14 0
-41 -17 57 0
58 -1 49 0
-56 -30 -28 0
-50 -35 2 0
-39 26 10 0
39 5 55 0
20 -3 -12 0
-33 -16 -53 0
52 7 20 0
8 62 -60 0
55 -32 11 0
-43 -16 -9 0
14 -60 6 0
-7 9 -15 0
18 -16 -34 0
38 -51 4 0
-49 -27 19 0
28 7 -37 0
38 44 -54 0
-28 -40 21 0
-31 -52 64 0
-3 36 -2 0
57 -8 20 0
-52 4 -40 0
-7 -70 3 0
52 23 -15 0
45 8 -30 0
67 42 -70 0
7 -60 64 0
-33 16 -37 0
-11 41 61 0
-14 47 -70 0
-5 45 -15 0
-62 48 29 0
-32 -39 6 0
46 -26 -24 0
-42 -35 -27 0
7 49 15 0
30 -22 -29 0
-47 -4 -50 0
-70 -60 47 0
59 47 -52 0
-41 43 4 0
-54 -25 68 0
-41 29 -39 0
47 8 -10 0
15 -63 -43 0
-67 19 40 0
46 51 -36 0
13 -37 -50 0
35 -59 6 0
49 -39 -70 0
39 -34 37 0
-46 -63 -33 0
29 -20 18 0
4 -61 42 0
-46 -50 56 0
-53 -37 -31 0
17 44 33 0
18 49 12 0
-35 1 49 0
-56 -2 -35 0
-57 -67 -30 0
-57 -39 -5 0
-46 56 43 0
14 -66 44 0
-37 -35 3 0
23 57 32 0
42 -61 21 0
43 14 39 0
28 -49 -57 0
-38 12 59 0
-5 60 -12 0
-70 -23 -62 0
57 2 -41 0
-60 50 -16 0
33 -36 -46 0
-56 19 -58 0
-48 -25 63 0
-43 12 6 0
-30 -42 55 0
29 3 24 0
19 -25 41 0
-55 29 -67 0
8 32 -37 0
11 13 -4 0
-64 37 -41 0
-58 7 3 0
-43 50 1 0
-13 -42 36 0
30 -45 -61 0
-57 64 21 0
-63 5 31 0
-22 -23 50 0
-29 -32 17 0
-48 -4 -6 0
-18 -62 1 0
19 -57 13 0
63 15 44 0
4 39 53 0
53 -15 -32 0
25 6 7 0
-37 -56 -32 0
-61 -59 16 0
-33 59 38 0
-60 70 48 0
-6 40 15 0
19 7 41 0
-51 53 10 0
15 -25 -41 0
-25 -22 -46 0
67 16 15 0
-35 -6 17 0
48 9 -29 0
36 1 5 0
68 17 40 0
-35 70 -22 0
-47 -57 -55 0
53 -45 -12 0
38 58 -8 0
-62 53 3 0
-8 -70 16 0
-70 -34 38 0
-41 56 -31 0
-43 -36 13 0
-4 -67 -66 0
-8 33 -6 0
-18 -59 50 0
50 53 -1 0
23 45 -43 0
55 -47 -6 0
-45 -66 -11 0
-51 -27 3 0
54 5 -29 0
36 -23 38 0
-59 17 11 0
16 -3 -67 0
-4 65 41 0
59 57 22 0
-55 -15 66 0
-32 45 -52 0
3 -67 -30 0
-8 63 -54 0
-50 -51 -26 0
28 -18 -48 0
-7 51 -55 0
-23 -27 -20 0
7 -40 -27 0
69 -52 38 0
-48 -9 -40 0
-3 50 -31 0
60 -59 43 0
-39 45 -20 0
14 43 69 0
70 46 29 0
3 -1 -53 0
38 -58 -62 0
-31 -40 -48 0
33 -54 4 0
42 -5 -36 0
-1 -16 10 0
-56 61 -10 0
36 -32 -52 0
68 25 30 0
-62 12 -60 0
-1 68 -8 0
-24 -54 36 0
60 59 16 0
45 -52 -51 0
1 9 29 0
65 50 70 0
-18 -4 69 0
66 64 -35 0
17 -28 46 0
-64 6 50 0
-8 12 -69 0
21 -36 -11 0
3 -2 46 0
39 -23 -53 0
-2 26 14 0
64 24 -62 0
16 56 -49 0
-21 -39 28 0
4 51 65 0
35 39 5 0
-52 9 -8 0
-9 -35 -1 0
37 -43 9 0
62 -12 47 0
-19 -33 51 0
60 64 -57 0
-47 49 13 0
-16 -2 15 0
-27 -40 -70 0
52 42 58 0
68 11 67 0
-69 -52 -66 0
55 52 68 0
-20 -58 -65 0
1 23 -30 0
-11 53 43 0
67 12 -68 0
-50 -10 -37 0
64 42 67 0
41 56 -11 0
55 -45 67 0
-22 8 -32 0
-2 -17 -25 0
-70 -20 -45 0
47 64 -68 0
-54 53 -14 0
-9 -47 6 0
-17 49 56 0
-41 25 -58 0
-9 59 -22 0
66 47 -32 0
69 -59 -62 0
38 27 -24 0
29 59 58 0
-69 46 -13 0
-17 62 52 0
