c family=3-SAT n=70 instance=4 seed=2573548008 models=24
c order 11 32 59 1 7 22 26 4 36 70 14 31 56 66 30 67 45 69 8 28 49 34 47 46 54 29 61 5 44 17 15 40 39 3 62 57 16 25 38 18 50 2 21 48 6 19 27 13 12 51 20 53 33 42 24 37 65 10 43 60 63 23 9 58 64 41 52 35 55 68
c order 3 55 20 28 16 52 45 70 38 11 15 66 29 9 41 33 36 46 5 32 34 6 22 60 4 50 23 54 69 58 24 43 64 2 27 30 67 10 63 47 7 65 48 40 8 56 39 68 12 18 44 53 51 35 31 13 37 49 25 19 62 14 17 61 42 59 26 21 57 1
c order 27 62 59 51 60 14 68 64 67 63 22 19 1 47 55 70 56 16 23 31 37 13 18 4 69 28 11 42 3 6 43 54 41 21 58 20 34 9 57 7 40 17 53 49 66 35 36 39 10 32 52 29 25 5 8 33 12 48 15 65 38 45 30 44 26 61 24 50 2 46
c order 22 42 19 47 39 35 43 70 68 60 15 20 56 27 12 14 3 32 1 63 9 30 25 16 62 26 18 46 28 38 17 37 44 55 59 58 49 10 29 65 5 21 33 45 54 36 69 66 53 7 2 57 13 67 48 4 8 61 64 6 31 11 52 34 50 41 40 24 23 51
c order 15 26 42 33 38 60 45 66 13 19 48 64 21 49 34 8 50 17 47 35 56 58 65 44 54 16 9 12 69 2 62 1 20 27 23 18 25 11 55 51 63 5 10 59 28 52 4 41 53 6 29 31 7 37 67 36 46 39 14 61 40 30 70 43 32 57 24 3 22 68
c order 55 38 26 7 24 19 30 13 50 45 9 46 53 58 15 37 34 31 60 42 48 8 49 18 43 20 40 21 65 70 6 51 47 69 16 44 52 33 39 59 1 66 3 28 64 10 56 27 68 2 35 67 61 63 11 57 32 12 62 36 17 14 54 22 29 25 4 23 5 41
c order 64 34 65 14 20 50 3 39 22 45 11 25 27 26 58 70 2 63 6 13 15 38 60 59 7 21 16 40 52 41 8 12 37 48 10 28 55 31 18 43 49 61 33 42 54 57 53 1 51 62 30 69 47 17 44 66 9 36 46 68 4 5 67 29 23 24 35 56 32 19
c order 18 64 34 47 50 2 49 26 42 27 25 59 32 61 66 45 48 57 31 33 62 9 36 63 21 65 55 37 3 38 35 56 30 7 15 41 68 60 11 44 6 54 19 24 1 28 17 67 12 23 13 69 51 14 16 52 43 22 8 10 29 53 70 4 20 39 46 40 5 58
c order 66 41 44 10 46 57 29 45 34 62 70 60 36 16 21 25 23 43 19 15 49 8 3 31 39 4 68 53 69 7 11 42 35 54 32 59 48 30 26 38 47 51 55 18 40 9 22 6 17 28 27 63 37 64 5 14 20 58 24 1 13 67 2 50 61 56 33 65 12 52
c order 59 17 38 35 1 18 37 51 33 14 45 49 3 21 20 7 47 53 58 50 29 69 68 24 34 62 44 41 12 4 46 66 19 25 67 16 9 42 36 26 6 31 11 2 64 40 65 43 23 60 52 39 56 48 8 61 28 32 15 63 27 13 57 30 10 22 54 5 70 55
p cnf 70 294
20 -38 1 0
33 55 -41 0
42 11 -55 0
55 34 -56 0
-70 -7 9 0
-62 26 -30 0
-47 53 -15 0
-17 -14 24 0
21 12 63 0
-36 66 43 0
-8 -25 61 0
-35 48 66 0
39 -20 -68 0
4 1 -51 0
-41 -27 -23 0
39 -69 11 0
-38 -62 30 0
-49 37 55 0
14 13 -37 0
-35 -56 45 0
5 -61 13 0
70 8 14 0
59 27 -23 0
-23 3 52 0
3 -1 32 0
36 4 -44 0
64 45 68 0
67 -18 14 0
-27 65 30 0
-36 -30 -22 0
-64 45 58 0
3 62 -65 0
-64 26 -18 0
54 39 -62 0
57 45 60 0
-2 70 -15 0
43 -27 -39 0
50 43 8 0
-18 -40 67 0
-2 -15 -17 0
-53 -60 62 0
4 -10 -47 0
61 55 -57 0
-47 15 26 0
-2 34 7 0
40 34 2 0
2 -67 -48 0
-56 -65 -42 0
-58 -10 -68 0
10 -3 -66 0
-37 -60 -69 0
1 -14 6 0
-3 65 40 0
-12 -33 18 0
-11 43 -16 0
25 -45 70 0
26 -70 -45 0
43 -26 -4 0
-10 70 -46 0
5 -19 -8 0
-17 -9 54 0
-42 -69 -7 0
36 -66 -31 0
-15 60 -67 0
5 3 49 0
-25 -61 30 0
41 -63 48 0
-6 26 41 0
66 -38 -48 0
30 -31 48 0
12 -31 45 0
-11 66 44 0
-15 53 -63 0
-58 41 -42 0
-26 -50 -52 0
7 47 14 0
35 17 -38 0
56 -53 -37 0
30 -15 -46 0
-63 7 -51 0
28 -59 -58 0
38 25 60 0
-33 -1 36 0
65 41 28 0
-38 -54 -15 0
-44 -18 41 0
31 -19 66 0
70 8 22 0
60 -9 -42 0
66 -37 -27 0
1 -46 -16 0
29 43 63 0
35 -18 -65 0
50 -8 -63 0
36 19 22 0
54 -62 -10 0
-57 46 18 0
25 34 50 0
-25 54 47 0
37 -63 45 0
28 52 -6 0
59 67 55 0
17 -31 51 0
59 23 -30 0
11 28 -9 0
23 -58 -8 0
-23 35 6 0
-30 47 22 0
44 23 -31 0
-65 28 -39 0
20 23 -48 0
-11 -56 -3 0
-62 11 -46 0
-30 -7 13 0
-53 -61 67 0
31 5 -64 0
1 67 -38 0
54 -34 65 0
46 -15 -57 0
-47 46 -18 0
-34 20 -67 0
-55 -69 43 0
-38 -57 22 0
51 35 26 0
-1 -21 61 0
-58 -36 -18 0
35 25 3 0
30 70 -25 0
-58 5 -29 0
62 -65 -6 0
-55 -31 -57 0
-51 4 46 0
22 14 17 0
-38 -68 70 0
27 47 33 0
52 57 -55 0
58 6 34 0
29 26 -31 0
59 -32 31 0
59 4 -61 0
-2 62 -12 0
-41 -63 -33 0
46 18 -6 0
-14 -61 58 0
63 18 -62 0
24 54 41 0
-27 -55 -9 0
-45 -50 56 0
-19 -12 57 0
53 23 30 0
-8 -51 66 0
69 1 65 0
-1 -6 28 0
-24 17 20 0
66 -40 -12 0
25 20 -21 0
27 -68 -10 0
-60 -21 -67 0
-8 66 -23 0
38 23 -57 0
49 -5 -60 0
-54 -12 59 0
-36 22 -10 0
7 19 69 0
41 19 43 0
42 -38 -40 0
-26 52 -20 0
36 -45 59 0
59 20 12 0
16 50 47 0
-43 -21 69 0
-61 23 -26 0
3 14 7 0
-70 -41 -5 0
40 -63 42 0
57 1 51 0
-35 28 -15 0
-26 -46 -36 0
-8 -62 5 0
-14 49 36 0
30 -49 60 0
-53 -46 -55 0
-11 -5 4 0
11 -42 41 0
-53 42 -46 0
36 -32 -17 0
-38 36 -58 0
-5 -54 -23 0
36 -57 -26 0
-58 -35 29 0
-21 42 -37 0
-24 -4 47 0
42 -50 -32 0
42 -69 20 0
21 -55 -32 0
37 7 -18 0
-26 -6 -36 0
56 40 -68 0
14 -70 11 0
32 -61 34 0
-66 14 2 0
10 -39 43 0
-21 -13 63 0
-30 2 7 0
19 -8 26 0
8 64 -52 0
63 -16 62 0
22 63 -12 0
-68 -27 48 0
-63 39 -28 0
-13 -53 52 0
3 26 -30 0
-67 -70 -37 0
-14 27 -8 0
20 1 19 0
-10 -8 18 0
-46 26 20 0
62 -32 13 0
-10 -29 49 0
-56 35 60 0
41 61 65 0
43 50 -16 0
17 8 -61 0
-3 -22 41 0
46 -57 12 0
-44 65 57 0
16 -34 68 0
65 -3 7 0
-15 -45 -32 0
44 47 -15 0
-57 34 -17 0
-63 61 -5 0
35 34 -38 0
15 -27 49 0
-49 42 9 0
1 50 2 0
33 54 -24 0
-10 12 32 0
-28 27 -9 0
-57 65 -3 0
11 -58 16 0
-40 10 54 0
-44 -5 40 0
40 27 -13 0
51 -38 42 0
-30 23 -39 0
-14 32 -41 0
-52 47 70 0
13 46 -2 0
-10 -24 -38 0
-20 58 -60 0
4 -54 -58 0
24 -8 55 0
-49 50 -1 0
-28 -65 -22 0
-24 15 21 0
51 23 -12 0
-25 -5 -26 0
-41 70 -8 0
-32 -54 -17 0
68 57 29 0
31 -4 14 0
-11 -35 21 0
-3 18 35 0
-49 -25 22 0
5 -59 56 0
35 25 47 0
50 -24 -41 0
-41 59 57 0
4 -54 -21 0
-7 48 -3 0
18 -21 6 0
38 -39 8 0
66 -37 -64 0
58 43 69 0
62 10 64 0
58 4 33 0
-60 -61 -51 0
39 -27 -53 0
33 12 -25 0
-12 21 -16 0
-5 -65 66 0
-43 31 -48 0
3 30 -7 0
70 11 -64 0
28 -61 -25 0
30 -11 43 0
14 -38 -62 0
67 17 30 0
59 -34 -18 0
53 21 -6 0
-39 -28 4 0
-33 -20 58 0
39 -12 -4 0
