c family=3-SAT n=70 instance=0 seed=2573548008 models=1020
c order 52 63 4 26 64 40 19 3 30 5 22 2 46 43 44 41 38 24 47 50 11 16 49 69 42 36 53 6 67 25 62 54 14 32 17 31 56 66 70 27 60 39 51 33 10 68 15 21 61 29 55 35 9 7 13 48 23 58 12 8 28 65 34 18 1 57 45 37 59 20
c order 15 65 54 35 13 20 5 27 12 51 6 25 57 33 36 56 29 3 9 40 1 62 30 24 60 47 23 14 70 38 59 11 49 55 61 37 68 69 34 66 43 44 31 41 21 32 39 26 50 2 17 52 10 8 58 48 4 19 45 67 53 16 7 18 22 64 63 46 28 42
c order 13 28 64 67 21 25 12 44 34 10 57 19 29 24 46 8 20 6 47 40 35 4 23 11 37 68 2 1 32 53 48 63 58 18 65 16 59 33 26 55 22 30 39 61 45 14 60 69 70 17 50 9 49 3 5 41 54 62 38 56 27 51 43 36 7 15 31 42 66 52
c order 60 58 39 21 2 11 3 15 52 6 65 27 38 20 37 67 24 16 22 31 64 13 5 10 49 57 9 69 59 25 32 46 54 12 23 68 51 43 44 35 1 30 34 42 56 47 33 41 48 70 45 62 17 36 55 50 66 4 29 7 26 63 53 19 14 61 18 40 28 8
c order 70 3 33 17 32 24 65 46 38 22 9 62 35 61 19 6 13 18 48 23 39 44 67 68 56 31 63 55 64 53 45 7 49 42 2 66 37 27 20 12 58 30 57 69 15 54 51 59 4 5 16 36 40 11 28 1 34 8 41 52 50 26 10 47 14 21 43 29 60 25
c order 63 53 65 36 58 32 4 48 9 43 26 44 39 25 2 1 19 64 40 38 20 52 70 27 60 22 59 15 49 6 67 56 50 41 28 7 18 45 30 24 16 68 5 23 21 3 17 13 42 35 8 54 29 46 11 33 14 31 10 55 37 34 62 57 47 51 66 69 61 12
c order 31 9 10 62 25 50 24 48 4 55 12 65 32 5 38 23 43 59 42 33 67 63 36 45 11 54 19 2 30 34 57 41 14 70 26 68 46 35 58 53 61 49 51 13 8 3 37 39 60 22 29 27 44 66 15 64 69 52 17 47 28 7 20 56 21 40 18 6 1 16
c order 30 55 23 24 60 50 49 68 7 1 62 32 34 66 44 4 20 65 38 15 47 37 33 53 56 63 13 40 45 54 12 10 16 28 27 64 19 3 26 14 9 31 25 46 70 42 35 22 18 29 21 52 41 2 59 57 6 8 58 39 11 17 36 5 67 48 61 69 51 43
c order 50 60 16 52 40 39 3 11 6 47 30 18 24 67 26 33 25 69 34 64 54 4 44 27 53 20 22 55 29 37 8 7 58 10 51 32 1 59 19 43 31 2 14 15 9 65 49 63 23 70 45 41 66 61 36 48 38 28 57 12 17 21 46 13 56 5 62 68 35 42
c order 32 25 68 33 67 27 29 37 15 18 52 43 55 51 46 62 9 56 7 1 49 58 48 26 22 16 23 65 31 39 64 57 30 35 45 40 36 50 47 5 66 53 19 44 38 8 20 4 14 24 59 69 70 61 34 11 6 54 3 63 2 42 41 28 21 12 17 60 10 13
p cnf 70 294
-29 1 58 0
56 62 6 0
-35 29 4 0
-64 36 19 0
-47 -33 38 0
11 -14 -18 0
-70 23 -27 0
47 -1 43 0
11 -20 40 0
-70 -66 -47 0
59 7 65 0
-27 -43 36 0
-31 -43 54 0
58 46 -61 0
-18 -16 19 0
-35 70 3 0
-3 54 -52 0
-24 -58 12 0
66 -48 -27 0
17 61 70 0
47 -2 14 0
-14 53 37 0
49 18 -9 0
-14 51 -1 0
52 35 -26 0
-33 37 -57 0
12 24 29 0
62 -47 -64 0
-12 -27 32 0
7 56 -43 0
67 -9 5 0
60 46 4 0
-28 60 4 0
69 66 3 0
-40 -53 -59 0
8 32 42 0
31 6 -51 0
39 -40 -61 0
-11 4 -3 0
44 -53 -28 0
36 -26 -60 0
39 44 -20 0
-9 24 -11 0
-45 25 69 0
-34 11 -19 0
-43 60 -10 0
-26 -48 56 0
32 31 11 0
-42 -31 -70 0
-34 36 30 0
55 -36 -43 0
37 34 -70 0
-47 -17 -45 0
14 4 -28 0
-21 -16 9 0
45 -9 -13 0
-64 -33 65 0
-8 -59 27 0
6 -50 -13 0
39 27 23 0
-35 19 -46 0
29 30 -22 0
55 -33 20 0
-5 -23 -18 0
-28 -55 -26 0
-54 -58 15 0
40 62 61 0
-28 -13 -27 0
-19 8 -17 0
-6 23 -8 0
-38 60 -47 0
61 -47 36 0
-56 -59 -26 0
23 -3 5 0
61 13 55 0
3 -1 16 0
-19 46 -65 0
22 56 34 0
-40 -1 26 0
23 5 46 0
-55 -68 -64 0
1 34 36 0
33 10 -6 0
50 4 8 0
-23 19 20 0
-33 -16 -59 0
30 62 32 0
-31 -15 14 0
-62 -5 -19 0
68 1 52 0
-32 8 61 0
-9 -30 -20 0
-17 63 68 0
-8 33 -29 0
-53 35 -15 0
-49 56 60 0
44 -27 26 0
-44 -25 29 0
-18 -6 -28 0
64 -24 -7 0
19 -13 48 0
34 45 29 0
46 58 54 0
-63 -66 -64 0
-38 -25 -30 0
-50 33 -15 0
-49 -11 47 0
-70 67 -58 0
-44 21 -22 0
6 -49 -1 0
36 -66 -51 0
-44 -17 -56 0
-5 -70 43 0
32 -27 -29 0
43 -56 34 0
25 -69 -35 0
-35 51 -30 0
67 -12 -29 0
49 48 -6 0
-35 10 26 0
56 -51 42 0
-63 -14 69 0
-41 -57 62 0
27 -47 37 0
44 -32 65 0
46 61 -59 0
-64 -21 11 0
-3 8 65 0
-3 36 53 0
-35 14 47 0
9 -67 -40 0
-64 -31 -70 0
-59 37 -11 0
-64 61 -24 0
32 -5 -63 0
34 9 70 0
70 40 -65 0
-1 23 12 0
21 -31 67 0
-41 -24 37 0
46 -14 -66 0
-45 -27 -53 0
21 41 37 0
10 -53 -70 0
23 -12 21 0
-17 48 19 0
-66 -61 26 0
2 -10 -24 0
37 3 -67 0
-28 -26 61 0
3 -48 18 0
-62 -9 -59 0
36 49 53 0
-64 46 -43 0
4 8 31 0
-22 27 9 0
37 -14 -70 0
-16 -32 18 0
-16 -7 -42 0
-10 5 8 0
-17 28 -42 0
9 -25 15 0
26 47 -24 0
-50 32 -18 0
-45 -18 -54 0
-22 -8 -30 0
-32 -69 24 0
37 35 8 0
-26 37 13 0
8 -20 11 0
41 69 51 0
7 66 -58 0
26 10 -20 0
-37 32 9 0
-40 59 49 0
-47 -52 48 0
44 -4 -19 0
-38 32 -57 0
58 28 -66 0
-20 -61 22 0
42 28 12 0
69 66 -44 0
11 32 -36 0
-11 -54 17 0
-53 21 35 0
22 25 24 0
70 -9 -21 0
-27 -11 20 0
64 -12 49 0
4 66 -40 0
52 70 13 0
-58 21 -53 0
36 -26 62 0
-61 -21 38 0
4 -24 17 0
-29 -61 -66 0
69 11 -70 0
-48 45 66 0
13 -42 -30 0
69 -15 24 0
59 -51 54 0
50 -67 42 0
-69 -39 21 0
20 11 -68 0
45 -48 49 0
-13 67 -9 0
21 -16 35 0
-56 -20 31 0
-33 -39 9 0
-38 24 -17 0
-12 42 -59 0
8 55 -40 0
-19 -25 -22 0
-57 21 -15 0
53 -2 54 0
62 -57 -32 0
-53 -70 -3 0
-61 -20 64 0
-62 5 25 0
-15 -19 38 0
-5 -40 -49 0
20 -24 -1 0
41 36 -53 0
23 18 -62 0
29 48 -50 0
-2 20 67 0
15 -69 -8 0
-68 43 -18 0
-69 -44 -41 0
44 43 30 0
4 -11 57 0
8 -2 67 0
14 7 -20 0
49 33 -4 0
59 60 -64 0
22 20 59 0
70 45 -3 0
-22 31 60 0
34 57 56 0
-57 -62 -18 0
70 21 68 0
50 -55 4 0
49 43 5 0
54 55 12 0
-3 -24 4 0
-17 8 50 0
62 50 24 0
-56 -14 -70 0
30 31 67 0
5 -17 -45 0
-16 -63 -40 0
59 -37 44 0
-47 -64 -57 0
-65 -12 -15 0
1 -41 66 0
27 -61 28 0
31 22 -65 0
-23 -41 -7 0
22 -35 26 0
-12 26 -55 0
-43 28 66 0
21 -49 24 0
9 42 35 0
30 63 25 0
39 41 40 0
-44 3 -53 0
42 63 -52 0
-11 58 34 0
-65 4 -20 0
8 33 47 0
-65 -9 3 0
-38 -52 -67 0
16 -25 -36 0
20 32 -10 0
36 -63 -20 0
46 7 49 0
41 19 53 0
-3 -25 -47 0
70 57 58 0
25 54 -51 0
48 19 16 0
9 -20 -1 0
28 -64 -44 0
24 7 -33 0
25 -68 16 0
48 12 -70 0
11 -48 65 0
8 60 -4 0
1 -13 -33 0
-46 -7 -64 0
44 -50 -46 0
-69 -10 -57 0
45 -24 -64 0
-7 -54 -3 0
