c family=3-SAT n=70 instance=1 seed=2573548008 models=200
c order 4 38 37 40 58 54 18 8 23 24 15 9 7 69 48 30 56 20 2 51 39 41 27 57 68 12 11 36 55 28 47 31 45 33 17 3 67 64 52 32 19 13 35 16 53 62 1 49 65 10 14 66 34 29 43 5 63 42 46 44 60 26 59 61 22 70 21 50 25 6
c order 21 53 15 33 61 47 60 26 31 44 46 67 11 54 3 39 7 16 34 58 9 30 63 64 20 48 59 14 35 45 55 23 18 6 70 43 62 37 69 36 65 13 52 40 10 57 4 12 29 51 27 17 25 28 68 56 24 32 5 50 66 1 38 19 22 2 42 49 41 8
c order 47 26 61 49 36 52 69 23 50 14 24 40 46 32 68 27 45 3 37 57 59 33 55 16 22 67 9 29 20 10 6 51 62 25 28 13 35 54 4 11 19 63 1 53 17 39 41 8 15 56 7 60 44 48 70 42 34 5 64 58 38 65 31 30 21 43 2 66 18 12
c order 4 57 28 13 52 39 48 34 10 43 66 68 70 19 54 7 29 11 30 9 33 65 26 40 5 23 3 61 50 36 41 24 42 2 45 55 18 8 47 21 22 59 14 6 1 44 38 16 58 69 35 67 27 31 63 53 56 51 62 60 15 64 12 46 20 17 32 25 37 49
c order 1 27 41 69 50 46 5 51 32 65 66 48 12 55 22 64 8 57 7 3 9 25 35 61 70 19 67 34 6 62 36 21 38 52 63 60 49 59 29 18 11 30 53 15 44 2 26 42 58 43 14 23 54 47 37 24 10 31 16 20 40 45 33 13 39 56 28 17 4 68
c order 17 15 27 49 63 65 24 34 19 20 48 12 60 3 8 45 51 14 52 28 18 29 37 42 54 47 58 39 25 23 26 10 36 70 1 7 43 46 59 68 56 22 31 61 38 53 35 33 44 64 2 66 32 30 13 5 57 9 16 41 62 40 50 11 55 69 6 67 21 4
c order 27 39 69 5 57 6 24 50 3 37 58 56 48 17 12 29 68 13 32 1 67 47 20 21 8 63 26 46 55 11 4 38 30 53 15 51 14 43 19 7 28 25 52 66 42 16 70 9 31 54 60 61 34 45 18 59 65 35 62 10 49 22 36 2 40 44 64 23 33 41
c order 58 60 10 55 23 19 42 20 1 67 57 26 24 28 66 54 62 12 39 21 8 47 29 37 50 49 52 5 11 4 31 35 44 25 43 45 70 14 38 27 65 2 7 34 59 56 64 13 51 46 33 17 3 18 16 61 32 69 30 53 22 48 63 9 36 15 41 6 68 40
c order 49 4 47 8 53 20 18 50 16 2 37 19 33 22 1 23 36 41 57 56 25 30 10 59 32 44 66 63 38 17 52 34 14 7 69 27 61 65 28 55 29 24 21 62 26 12 60 13 9 15 54 42 51 31 43 6 67 45 70 35 58 40 3 48 5 46 11 64 68 39
c order 9 51 7 8 2 59 44 11 1 57 30 38 46 19 15 17 48 42 56 40 37 24 52 31 25 49 32 67 70 41 43 66 45 62 23 53 68 63 3 10 47 64 35 36 50 65 20 18 61 39 33 29 5 13 14 58 69 22 16 60 6 21 34 26 12 27 55 28 4 54
p cnf 70 294
-62 -56 -24 0
-54 -15 61 0
-58 -27 8 0
45 -16 27 0
-35 -6 18 0
-3 49 -44 0
5 -28 -41 0
56 -17 -8 0
-16 -5 -22 0
-28 -61 -10 0
61 -44 -22 0
1 18 -15 0
-51 -50 58 0
-48 -21 67 0
58 -36 25 0
-47 -68 -26 0
36 17 62 0
69 68 -44 0
37 -39 -54 0
14 -43 6 0
3 13 46 0
-39 -32 26 0
64 55 52 0
34 -2 -38 0
-4 -35 -50 0
-21 39 47 0
-10 -18 -8 0
23 65 -62 0
-45 60 22 0
-6 -60 53 0
12 32 46 0
11 -6 -8 0
65 -57 59 0
-45 -53 -65 0
22 35 -42 0
-25 57 56 0
57 68 29 0
11 -9 5 0
32 -33 -69 0
57 -34 -11 0
-37 -4 36 0
21 -51 32 0
-51 11 -47 0
-6 -1 -41 0
16 38 27 0
49 30 42 0
-51 35 -12 0
-64 22 48 0
41 -8 64 0
21 60 -47 0
-68 -67 36 0
-54 62 -25 0
-56 -60 12 0
-33 22 15 0
29 -69 -43 0
7 -47 55 0
-32 68 56 0
-25 12 -44 0
-24 -22 -21 0
-21 61 10 0
-32 53 -21 0
-33 -1 63 0
33 -17 48 0
70 -33 -28 0
-12 -33 34 0
11 39 -33 0
32 47 23 0
-13 -1 -15 0
-39 -44 60 0
61 -67 -15 0
60 -44 -52 0
-1 55 24 0
-5 -40 -70 0
-67 -24 -22 0
31 69 51 0
31 51 27 0
52 -51 1 0
-2 37 -42 0
9 60 -28 0
-56 54 -55 0
4 -60 39 0
-18 43 -16 0
66 32 54 0
-68 22 11 0
69 -24 -13 0
-64 -43 -31 0
5 43 20 0
-15 -63 47 0
-27 -34 -70 0
28 26 -51 0
-49 31 4 0
60 48 -54 0
-26 51 46 0
-4 28 -40 0
26 -27 -37 0
45 -39 46 0
-6 52 31 0
28 43 26 0
70 10 25 0
43 41 23 0
-64 20 -53 0
-15 -44 43 0
-21 -60 -55 0
-39 -51 -25 0
45 -11 8 0
24 30 26 0
-26 65 19 0
64 19 -27 0
54 21 7 0
-52 67 -10 0
7 -70 -22 0
49 -21 -61 0
-69 -28 23 0
-57 15 -34 0
-55 -37 7 0
34 25 37 0
62 36 29 0
-24 55 -53 0
11 -68 -20 0
-22 6 14 0
48 -23 31 0
46 54 -11 0
-41 -50 -26 0
-44 -36 11 0
52 21 -46 0
-55 -18 -2 0
-33 -47 -40 0
5 48 -35 0
-24 -41 -69 0
41 -11 12 0
58 6 -8 0
4 19 -58 0
23 -8 -44 0
18 65 -11 0
42 -7 -28 0
41 -34 -21 0
41 59 -9 0
25 55 56 0
-67 -31 -38 0
-22 -9 47 0
-19 5 -49 0
6 -7 26 0
1 -50 -26 0
-48 -34 -29 0
69 7 -62 0
57 -29 -22 0
-50 -7 35 0
-13 54 48 0
18 46 -15 0
18 65 5 0
47 46 25 0
53 45 -63 0
-51 59 -38 0
-42 -51 29 0
17 65 25 0
27 -23 -17 0
-6 -50 -2 0
-4 58 -25 0
-25 -57 -69 0
60 -63 -4 0
-58 -64 -63 0
3 31 61 0
70 -52 -54 0
-2 67 -46 0
-44 4 -24 0
70 -26 51 0
-26 38 -70 0
-12 -29 6 0
7 45 42 0
-26 -53 24 0
-11 -35 -46 0
-22 39 25 0
70 -23 -53 0
31 69 -29 0
63 67 -22 0
49 -61 12 0
-8 4 -49 0
-5 -28 20 0
-4 26 9 0
-36 -60 -16 0
-39 -64 -53 0
31 26 -13 0
9 -69 33 0
-28 20 21 0
-5 70 -62 0
19 46 -10 0
49 10 64 0
34 -45 46 0
67 -40 70 0
-67 18 4 0
9 42 -32 0
-3 -57 -28 0
-57 60 25 0
-4 20 -49 0
-26 -25 -8 0
22 -34 -49 0
-15 -13 -36 0
-6 64 36 0
-27 65 -19 0
-1 -37 4 0
47 1 -18 0
-13 -40 -49 0
-35 -54 -55 0
-24 -59 -31 0
-58 39 -52 0
50 -1 -25 0
17 -66 -37 0
23 62 60 0
21 22 26 0
15 12 -6 0
5 -47 -23 0
-3 -18 47 0
65 13 67 0
5 -68 11 0
67 -54 -63 0
54 -50 -53 0
-42 -17 69 0
-45 34 -58 0
-17 22 -20 0
21 -5 -16 0
-46 -51 -29 0
41 65 -70 0
-55 64 -70 0
43 8 -12 0
26 11 60 0
-2 -60 -44 0
20 -61 47 0
-47 -17 20 0
-21 -39 53 0
63 -36 39 0
60 63 -46 0
33 50 -12 0
-3 49 -55 0
-14 5 -39 0
-35 33 10 0
39 15 35 0
17 26 60 0
48 64 -8 0
25 13 61 0
-16 -60 -20 0
-14 -30 19 0
-36 46 -43 0
38 32 33 0
-53 10 44 0
60 36 8 0
-56 -8 -51 0
-2 -65 20 0
-26 -21 -66 0
-36 46 35 0
37 -33 -27 0
-29 -37 -12 0
-65 61 -27 0
-57 -26 33 0
35 69 -27 0
-45 37 50 0
-49 66 38 0
19 28 24 0
-57 -14 18 0
-60 7 -58 0
23 50 -19 0
-1 -3 11 0
55 16 -45 0
-59 -4 3 0
55 13 62 0
69 47 -33 0
48 17 -30 0
-35 -52 11 0
-37 -12 16 0
-35 46 -60 0
-37 3 -53 0
10 45 58 0
39 52 -58 0
41 62 61 0
63 -33 7 0
-25 38 40 0
-35 -60 66 0
29 67 50 0
14 40 -33 0
47 -2 3 0
-67 -22 -57 0
66 -52 -38 0
-45 -39 9 0
65 51 23 0
-28 37 16 0
-45 35 -67 0
-51 56 1 0
55 3 11 0
29 -7 -54 0
10 -23 -45 0
5 -6 -61 0
45 -42 1 0
69 17 -18 0
5 -20 1 0
45 -35 13 0
