c family=3-SAT n=70 instance=8 seed=2573548008 models=6808
c order 7 25 26 59 55 17 66 34 53 56 23 11 58 5 69 67 33 52 49 21 3 60 4 13 48 45 51 38 14 47 61 10 41 70 6 35 18 28 31 68 63 43 2 9 19 37 54 39 27 36 50 20 42 22 24 1 32 30 64 65 44 29 46 16 15 12 8 62 57 40
c order 50 64 25 4 61 47 68 40 63 1 17 34 31 49 39 42 23 69 58 54 5 38 53 28 32 45 36 33 66 8 37 70 55 30 59 35 46 11 15 67 43 12 19 65 3 44 14 21 57 22 60 48 51 62 18 27 13 9 20 41 10 24 29 52 7 16 6 26 56 2
c order 43 46 26 29 14 24 15 38 21 61 7 60 65 48 9 3 69 22 19 50 4 52 18 58 40 20 42 1 8 66 62 34 70 47 31 41 30 12 17 16 25 45 51 23 56 33 37 64 57 36 35 32 55 13 11 63 49 5 6 68 54 28 27 2 39 44 67 10 59 53
c order 48 32 27 28 45 67 39 9 59 13 46 68 54 26 29 1 63 44 70 4 21 31 5 57 50 61 60 64 52 8 22 20 69 42 56 47 51 33 19 40 12 41 7 24 62 36 35 34 23 3 17 25 6 10 53 16 58 65 18 37 43 55 38 30 14 11 2 66 15 49
c order 42 33 62 1 57 56 22 68 53 63 20 69 41 19 10 64 21 66 2 47 70 28 43 59 30 65 58 60 52 36 54 61 26 51 23 6 16 45 27 49 9 8 31 17 13 4 55 12 25 50 39 32 37 15 48 44 24 38 35 67 14 18 46 3 11 7 40 5 34 29
c order 60 37 42 58 52 23 39 62 63 69 17 21 26 18 44 33 22 1 13 14 25 49 7 65 51 15 40 11 36 16 70 6 56 59 66 29 45 8 31 12 46 38 4 27 47 53 34 50 68 54 35 43 30 9 64 20 48 10 3 61 55 19 57 67 5 41 28 24 32 2
c order 14 8 18 25 9 3 58 5 23 61 46 44 21 16 41 64 10 12 42 13 35 65 52 59 47 24 57 67 39 34 62 1 15 50 43 37 7 29 53 26 20 69 28 17 45 63 11 4 49 56 48 33 36 54 70 31 22 55 32 66 27 60 40 19 6 68 2 30 38 51
c order 63 12 24 60 26 50 67 22 44 66 58 3 5 61 70 14 42 48 2 21 40 9 62 25 59 34 47 1 45 10 27 23 33 18 17 13 37 35 7 28 46 51 31 41 57 39 49 30 6 11 64 52 43 38 8 65 4 55 53 16 32 19 69 29 56 20 36 15 54 68
c order 25 37 70 30 11 66 15 44 12 39 67 40 4 23 2 59 61 56 63 21 3 22 38 19 55 20 50 45 60 58 26 34 13 24 62 33 57 27 17 5 69 6 48 7 43 28 10 51 54 29 47 31 35 53 32 46 68 52 64 41 42 14 9 36 49 65 8 1 16 18
c order 38 68 59 64 20 33 22 16 67 55 4 5 51 24 2 48 9 69 53 40 14 21 10 49 26 8 11 34 70 66 37 50 56 30 62 61 43 13 15 29 12 3 63 6 17 36 65 46 47 1 7 58 41 54 57 23 18 27 42 52 45 28 35 39 25 19 32 60 44 31
p cnf 70 294
8 19 -58 0
27 -45 39 0
-63 -44 -32 0
-31 49 -32 0
4 27 -11 0
-27 50 -32 0
-69 -7 51 0
39 -9 22 0
66 -32 59 0
-43 -69 -61 0
37 43 54 0
64 -52 -14 0
53 19 13 0
-51 37 -68 0
-7 25 44 0
-4 -40 23 0
3 -25 -29 0
-25 -35 16 0
-29 48 -39 0
21 62 -54 0
-28 -31 16 0
69 4 -22 0
25 59 58 0
-48 -1 -12 0
-51 68 -57 0
55 -26 -11 0
-40 -57 64 0
11 26 12 0
52 -62 -41 0
51 -7 -48 0
51 -21 -25 0
-4 -55 -7 0
-30 -38 -58 0
-18 54 -43 0
-39 24 -63 0
-47 -53 -3 0
-6 15 8 0
-51 66 -43 0
-41 30 38 0
-3 18 59 0
-37 60 -38 0
57 -20 -14 0
6 -62 -48 0
-9 16 41 0
-15 -12 -31 0
-1 -21 -30 0
6 51 11 0
-43 36 34 0
70 -9 40 0
-19 46 51 0
-22 69 -53 0
17 58 24 0
-16 -65 57 0
69 -31 47 0
-64 27 -12 0
-56 -55 52 0
-36 -65 21 0
37 12 27 0
11 -13 45 0
-42 48 26 0
-8 -31 -43 0
-8 -51 70 0
53 -18 69 0
-34 27 13 0
7 -63 -25 0
5 -65 50 0
56 -43 4 0
-17 -8 6 0
12 -53 -48 0
15 -23 35 0
-53 -5 29 0
-24 -55 -51 0
48 10 -34 0
39 -3 35 0
29 -13 -65 0
-11 17 4 0
16 -40 50 0
63 48 53 0
65 -52 -18 0
-6 57 42 0
-53 25 61 0
43 -21 69 0
62 -46 51 0
-58 28 55 0
-24 -63 -17 0
-24 54 61 0
28 -40 60 0
16 -4 -7 0
48 23 63 0
24 -2 20 0
-63 39 58 0
64 -50 10 0
57 -38 -66 0
-40 -4 -65 0
-23 56 65 0
35 24 21 0
-51 -11 -22 0
51 27 66 0
39 48 -55 0
48 -15 -11 0
-66 -17 -19 0
9 63 17 0
-2 -52 -41 0
-33 -66 -57 0
-17 -49 -18 0
-20 18 3 0
-48 -1 -49 0
38 64 -43 0
47 -31 7 0
14 46 -66 0
69 -9 -37 0
-26 -5 -18 0
40 3 -60 0
22 -9 -66 0
-39 -31 -51 0
-36 25 -17 0
27 -7 -60 0
62 52 -41 0
34 -49 -51 0
-13 -14 -16 0
-70 -37 25 0
-39 -42 -12 0
-62 -34 -49 0
5 -40 16 0
-39 -8 -14 0
-21 58 54 0
-48 3 65 0
8 16 10 0
38 57 69 0
46 30 36 0
-62 43 44 0
5 19 -49 0
-68 23 49 0
52 -32 -31 0
-18 49 2 0
4 63 67 0
46 -13 -15 0
49 -70 -20 0
1 -7 -2 0
41 -34 13 0
-69 -23 5 0
-65 51 -12 0
38 -37 -69 0
62 12 -23 0
47 10 -67 0
10 37 47 0
-31 -28 66 0
-58 1 -18 0
60 30 54 0
-16 23 -18 0
-60 -17 -31 0
-13 12 55 0
49 -7 31 0
-10 1 -46 0
69 4 60 0
-48 46 3 0
-27 -53 -55 0
-30 4 -1 0
-53 -30 -47 0
-45 37 -12 0
-3 -60 44 0
-11 62 -33 0
56 -50 -36 0
-6 8 -42 0
23 -36 -29 0
53 -48 44 0
-16 31 -60 0
69 -37 -66 0
-10 21 56 0
-48 37 19 0
-52 7 -47 0
-24 66 -14 0
36 62 -6 0
10 45 13 0
36 -40 23 0
28 66 19 0
-66 11 -23 0
-6 -29 -39 0
-46 26 -30 0
23 58 -17 0
23 -18 -41 0
67 -68 64 0
-16 -3 61 0
62 -39 -1 0
31 40 35 0
-70 -63 -3 0
-3 -22 15 0
27 18 -52 0
66 -58 5 0
67 -10 50 0
15 -49 -56 0
52 66 24 0
15 -28 -9 0
-1 -17 62 0
-36 40 -48 0
11 12 2 0
6 -27 -39 0
-9 6 35 0
-17 -7 -64 0
-57 55 -46 0
56 65 26 0
-51 -21 3 0
49 53 -45 0
16 -28 65 0
-62 -45 67 0
-47 -65 31 0
26 -42 -23 0
18 34 56 0
53 -16 66 0
21 -8 -41 0
-30 -25 -63 0
64 -39 10 0
8 -7 27 0
1 -45 17 0
-14 -68 -57 0
-49 68 -27 0
-4 -33 25 0
-12 64 -25 0
41 27 -55 0
-51 -13 -49 0
65 29 -37 0
-54 -55 -56 0
62 -65 -54 0
-45 70 57 0
6 -7 -61 0
-44 45 24 0
58 60 33 0
44 -47 -14 0
54 1 68 0
12 -56 10 0
12 25 46 0
2 -4 -10 0
-69 -5 57 0
-14 -39 -36 0
43 57 -33 0
-14 -39 -55 0
65 -58 46 0
23 30 -62 0
-66 48 -20 0
-14 36 50 0
-44 -42 22 0
-70 35 46 0
-2 15 53 0
12 -13 44 0
56 23 -2 0
-45 -57 -52 0
-36 -35 48 0
33 -54 28 0
45 54 25 0
-37 -59 -23 0
-27 31 -39 0
-5 14 50 0
-39 35 -60 0
-47 59 55 0
-49 68 7 0
68 -53 -58 0
12 -10 -43 0
-69 -2 59 0
-65 66 61 0
-15 -36 19 0
12 -19 -34 0
-30 -48 -14 0
53 14 13 0
-34 -4 18 0
53 46 -11 0
-53 -65 -60 0
67 22 -7 0
-26 36 -27 0
53 -19 27 0
-26 -47 -48 0
-68 26 43 0
23 58 -48 0
-19 -67 5 0
-20 -60 -30 0
-48 46 -5 0
-37 39 35 0
5 16 -51 0
40 46 -51 0
42 4 17 0
-15 3 47 0
47 15 -3 0
-63 31 51 0
41 44 4 0
58 69 -27 0
33 -13 -36 0
-22 -66 13 0
63 -48 47 0
-2 66 24 0
-26 -31 51 0
-35 62 36 0
-10 5 25 0
-3 31 -62 0
55 30 14 0
49 62 -60 0
