c family=3-SAT n=70 instance=2 seed=2573548008 models=200
c order 2 13 28 45 1 53 59 31 34 24 10 56 30 65 62 11 9 52 19 40 27 29 49 15 51 23 68 66 48 5 44 61 50 57 43 35 21 14 60 70 39 17 22 25 4 42 69 6 20 46 47 63 54 58 18 32 38 3 12 64 55 41 36 7 26 8 16 37 33 67
c order 7 24 26 5 12 29 69 42 8 34 28 22 30 15 62 53 37 10 59 13 50 14 58 27 70 31 25 32 40 3 36 2 54 16 43 9 23 33 19 52 61 49 44 67 64 47 45 20 1 38 48 56 17 18 66 11 39 51 55 65 60 46 57 6 4 68 35 21 41 63
c order 23 29 21 44 58 50 40 30 49 22 15 46 18 69 56 2 39 67 11 59 43 48 9 5 54 32 27 66 51 3 19 20 34 6 57 8 53 55 64 33 37 61 25 17 68 28 52 1 12 65 62 31 45 4 42 10 63 13 60 36 26 24 7 16 35 41 47 70 38 14
c order 41 18 16 68 29 4 9 21 22 65 55 1 15 64 45 25 47 39 69 20 19 61 27 31 70 50 52 62 5 56 2 28 44 63 60 6 10 54 59 49 14 24 17 53 38 46 26 33 37 51 66 12 7 3 11 67 36 43 42 13 35 32 8 48 40 34 30 58 23 57
c order 45 6 13 16 21 12 32 61 22 30 31 8 63 4 3 1 9 42 39 24 15 10 70 2 36 47 40 56 34 27 35 65 52 33 54 66 67 20 68 51 48 17 53 29 64 14 25 49 7 43 41 59 26 58 62 38 11 69 50 19 44 57 23 5 46 18 37 55 28 60
c order 54 45 25 28 6 9 53 36 65 2 20 48 51 26 60 23 41 46 52 16 18 57 11 31 61 24 27 3 7 47 34 21 33 15 67 32 1 35 13 19 4 10 14 59 49 8 40 38 63 37 66 22 5 44 42 56 12 30 55 68 70 39 69 43 64 62 58 29 17 50
c order 6 63 47 45 67 8 52 69 42 41 31 16 30 29 65 28 25 49 33 58 53 57 20 13 51 59 68 7 27 44 18 4 66 5 32 2 38 1 40 35 36 34 19 17 46 61 21 37 56 70 43 11 24 3 15 62 12 64 14 60 9 39 26 54 55 22 50 48 23 10
c order 32 6 51 26 22 15 27 39 31 43 20 50 29 13 10 64 35 28 44 5 40 8 33 69 25 11 41 65 49 16 58 42 45 53 19 54 70 34 14 56 1 2 60 23 62 12 24 38 63 9 46 61 66 30 59 57 68 55 67 4 18 47 17 7 36 3 48 21 37 52
c order 58 35 32 62 9 63 70 43 15 56 22 1 12 69 34 41 26 65 60 45 20 48 29 19 47 51 6 55 13 24 17 53 31 36 11 18 54 42 68 37 49 16 14 38 27 5 4 23 30 66 44 59 10 46 2 25 57 3 67 21 33 8 7 40 61 52 50 28 64 39
c order 3 26 35 65 19 60 22 21 5 28 31 4 44 33 36 1 51 41 68 37 58 54 29 8 10 34 66 67 25 40 69 47 63 55 42 9 46 49 52 45 6 16 24 13 70 50 17 43 20 12 27 57 15 48 59 14 18 56 7 38 61 11 23 2 39 32 30 64 62 53
p cnf 70 294
-3 -19 -29 0
34 -22 -27 0
66 -45 -12 0
27 -32 4 0
-39 -24 59 0
-46 29 66 0
-15 -60 27 0
49 -51 -25 0
52 49 -5 0
33 -37 29 0
-50 -29 -34 0
-28 53 64 0
-37 21 -50 0
-43 -38 -11 0
-14 1 -12 0
-42 -7 48 0
8 -29 -68 0
40 10 -32 0
64 -16 7 0
59 15 29 0
-1 -51 35 0
-30 51 -41 0
31 -45 -65 0
-42 45 68 0
-31 -8 70 0
17 22 -49 0
-11 15 -1 0
-62 -32 -65 0
21 -43 -55 0
-40 52 27 0
52 14 -10 0
-16 -66 -42 0
33 -28 -3 0
-39 10 40 0
45 66 -23 0
-45 -32 -58 0
-49 24 46 0
-32 50 40 0
38 6 -26 0
66 -25 52 0
-45 48 50 0
45 -43 4 0
41 61 37 0
-29 -2 33 0
21 -20 -55 0
-67 -13 -15 0
-57 -20 -45 0
41 -4 60 0
26 -44 20 0
69 13 -9 0
44 -14 -17 0
-32 18 2 0
-2 -58 37 0
-8 50 -30 0
-30 -41 36 0
-61 -28 -70 0
31 42 -12 0
-5 -45 -40 0
58 -29 -69 0
-20 2 62 0
15 34 42 0
54 47 29 0
30 5 40 0
67 -11 15 0
7 1 -33 0
-55 -13 60 0
-1 20 11 0
15 64 -31 0
38 62 -25 0
-61 56 12 0
-6 65 -5 0
40 -43 -2 0
-27 31 53 0
-68 -41 -45 0
42 -33 34 0
2 -27 -52 0
7 62 -12 0
-51 52 -21 0
48 -33 17 0
53 -14 -39 0
50 41 -9 0
-41 -60 -31 0
-53 -31 -19 0
6 -25 15 0
-13 4 -50 0
25 28 32 0
5 19 56 0
-61 32 31 0
-67 23 35 0
39 -54 -38 0
-49 34 66 0
-30 8 -5 0
66 37 -53 0
5 40 25 0
64 -35 13 0
7 43 -8 0
-23 -18 -11 0
-68 12 69 0
45 -13 32 0
-40 51 -68 0
29 65 -4 0
22 70 58 0
-60 7 13 0
-60 67 -64 0
45 44 1 0
-10 67 -40 0
8 21 45 0
14 34 -62 0
-64 4 28 0
-14 -46 -52 0
-23 -60 -22 0
-54 43 -2 0
7 69 17 0
-8 50 26 0
-14 -21 13 0
-28 45 -6 0
-54 -70 -68 0
14 -40 19 0
9 65 62 0
25 68 10 0
-30 -61 55 0
-47 -61 53 0
58 -4 -9 0
-11 -17 33 0
62 -53 -12 0
-27 3 -13 0
-44 -31 56 0
-62 -51 10 0
-35 10 59 0
69 -22 -20 0
59 50 -61 0
64 69 57 0
-49 -5 18 0
10 18 32 0
-68 40 -60 0
-12 38 35 0
-29 41 49 0
-15 -54 47 0
-21 -34 -27 0
59 -70 -24 0
33 13 -10 0
-44 -12 -63 0
-13 56 4 0
-30 -11 -33 0
19 -34 66 0
16 -26 -4 0
-34 27 -37 0
36 23 -2 0
34 3 -46 0
67 -18 46 0
-32 -2 -55 0
-42 -53 -35 0
65 -25 -30 0
20 -49 37 0
-63 -3 -22 0
-50 33 -21 0
-21 44 57 0
-4 -58 60 0
36 67 -14 0
-42 -15 -64 0
-29 -8 47 0
41 -55 22 0
63 17 62 0
49 -8 21 0
39 4 64 0
-32 -33 52 0
36 -60 56 0
22 17 33 0
-53 -25 -24 0
23 -13 28 0
60 65 -61 0
62 -29 40 0
37 35 29 0
-42 3 32 0
49 -5 -57 0
68 -15 -16 0
62 69 31 0
61 43 -52 0
30 55 51 0
26 18 -53 0
24 -18 53 0
70 -25 32 0
45 6 -48 0
36 -60 -47 0
-66 -15 19 0
-36 -47 8 0
-65 -54 26 0
-46 25 17 0
-5 28 -44 0
-69 51 -41 0
52 3 -61 0
-25 -64 11 0
47 -28 -43 0
31 -38 55 0
26 -40 -16 0
61 -43 13 0
-25 -23 -19 0
-28 -13 -63 0
-3 -63 28 0
62 -21 -64 0
-45 6 -29 0
-52 17 25 0
62 29 -58 0
-53 49 59 0
-49 -5 51 0
-56 -61 67 0
35 52 56 0
-51 13 -38 0
-39 52 -66 0
-62 -10 2 0
3 -14 61 0
-64 63 -2 0
-31 -45 41 0
5 61 -17 0
-1 68 17 0
65 -16 37 0
3 34 -68 0
53 70 -54 0
36 5 -9 0
-35 70 66 0
-9 -16 66 0
41 45 24 0
-19 -34 63 0
-57 63 -31 0
-63 -70 -46 0
-22 -10 -67 0
53 -12 6 0
-65 53 -8 0
37 -13 54 0
23 -43 56 0
-42 26 59 0
32 -2 37 0
-37 -45 70 0
-56 -1 -2 0
60 -50 62 0
-16 -25 -9 0
58 -6 45 0
43 16 25 0
31 -30 56 0
20 6 -50 0
57 50 12 0
-54 11 -1 0
-21 7 -50 0
65 27 -39 0
18 39 -65 0
-34 -66 -9 0
51 29 53 0
-2 31 -68 0
-35 17 36 0
-9 -54 43 0
-47 -20 23 0
-33 37 64 0
28 -32 41 0
-47 -58 1 0
-19 58 -66 0
57 -48 25 0
-70 65 -14 0
-44 -39 -64 0
-48 64 24 0
-49 -13 -39 0
31 -61 -66 0
-49 -5 -50 0
-6 69 -38 0
-50 41 70 0
22 -43 55 0
-12 -6 26 0
47 14 54 0
58 -46 -23 0
44 31 54 0
-66 -9 -13 0
-28 21 17 0
66 7 -13 0
24 6 55 0
27 -48 17 0
-67 -39 54 0
-59 -14 -4 0
5 19 -27 0
41 39 -68 0
-52 3 31 0
-58 24 -47 0
-37 -32 43 0
69 26 -67 0
56 -53 -35 0
56 53 -44 0
31 -69 -50 0
38 25 49 0
70 -2 13 0
17 -62 -43 0
-65 62 -59 0
-53 16 -26 0
-42 50 8 0
44 12 21 0
62 67 -31 0
10 13 -4 0
