c family=3-SAT n=70 instance=3 seed=2573548008 models=1672
c order 59 32 28 48 11 44 33 47 34 61 24 25 65 50 67 30 57 46 54 2 12 8 62 31 18 58 39 69 51 37 52 68 42 17 1 26 45 49 22 40 53 64 16 5 21 15 63 43 7 6 29 60 38 66 70 19 56 35 3 9 10 55 41 20 27 13 4 36 23 14
c order 41 46 69 11 20 13 40 65 53 27 62 38 25 55 39 28 29 59 8 1 49 56 68 3 45 67 50 64 33 52 30 14 44 58 31 19 63 10 35 47 22 66 61 36 21 7 48 12 9 6 17 51 32 42 24 23 16 60 15 57 26 37 34 4 54 2 70 5 18 43
c order 45 57 52 37 30 6 64 56 5 50 60 69 27 23 51 62 49 22 13 36 38 32 19 65 40 4 35 67 61 48 8 12 17 34 41 31 10 58 43 68 42 20 29 63 47 70 59 46 11 53 33 7 15 21 26 9 66 28 3 24 14 54 16 55 39 25 2 18 1 44
c order 5 45 2 26 66 50 21 6 15 40 53 41 10 1 18 61 4 17 46 55 28 24 9 29 19 67 33 23 37 13 39 35 49 27 54 44 57 22 58 51 64 62 31 48 32 60 38 12 34 14 42 69 65 16 70 30 63 20 11 47 68 56 52 7 43 8 3 25 36 59
c order 26 13 31 50 64 35 63 3 38 28 51 65 1 16 14 30 17 4 68 49 47 53 69 43 12 52 45 67 8 18 54 56 6 7 40 15 46 23 60 39 5 34 33 41 55 10 58 11 21 59 24 70 9 19 29 42 20 62 44 32 36 57 2 22 61 37 27 25 48 66
c order 5 59 23 30 56 69 22 62 12 10 35 34 39 67 8 63 42 7 41 68 65 47 57 14 4 70 66 60 29 27 25 61 46 13 51 11 36 15 18 31 52 64 16 17 45 38 21 44 19 49 24 43 28 48 20 2 3 32 6 55 1 26 53 58 50 9 40 54 33 37
c order 50 38 27 39 55 16 40 67 48 41 60 12 33 17 52 4 44 14 26 30 20 57 3 62 25 51 68 63 70 43 36 37 47 23 54 29 2 10 7 34 65 15 64 22 5 45 46 6 61 18 59 21 8 32 31 9 1 35 24 58 53 19 28 11 49 69 66 42 13 56
c order 35 63 16 48 70 30 52 44 46 25 15 69 3 41 10 6 50 57 7 12 29 21 19 62 33 13 60 8 66 20 11 39 28 38 37 56 59 43 49 22 64 55 18 23 68 1 26 31 58 32 4 17 45 27 9 24 65 53 14 47 5 36 34 42 40 61 67 2 54 51
c order 35 48 20 45 69 5 19 56 22 27 13 68 2 47 50 52 18 67 34 57 54 29 58 49 17 10 21 64 60 24 42 65 51 26 39 33 40 14 15 55 70 28 61 62 53 1 8 41 6 25 23 31 59 63 43 46 32 38 9 11 4 36 3 12 30 7 37 16 66 44
c order 7 40 34 64 15 50 47 13 27 60 57 35 9 17 70 53 69 45 48 24 33 52 46 39 65 25 59 2 23 54 68 30 55 28 56 63 20 14 66 4 16 67 22 3 44 58 31 8 21 62 32 1 41 49 51 42 10 18 37 6 5 61 26 36 12 43 38 19 11 29
p cnf 70 294
30 -60 -11 0
-48 -28 -29 0
-68 -40 -54 0
34 -15 -61 0
-24 26 5 0
-27 57 -63 0
60 -24 57 0
-42 66 41 0
22 -45 -35 0
-22 53 69 0
-55 36 29 0
4 48 51 0
33 -48 27 0
-8 -7 -38 0
-25 45 -6 0
26 32 -56 0
-5 24 -30 0
11 -26 -32 0
5 53 -52 0
14 -35 -20 0
-5 58 15 0
-37 -20 -61 0
27 35 -22 0
-44 -15 23 0
-32 70 -60 0
45 64 -55 0
37 3 56 0
4 45 -37 0
53 8 39 0
17 -68 -51 0
-18 -14 70 0
63 -37 70 0
-19 -61 -55 0
38 -8 46 0
58 50 -14 0
15 -65 12 0
-57 -28 51 0
-10 -61 -17 0
38 49 -22 0
52 -28 -15 0
-43 -30 16 0
69 41 -33 0
62 55 9 0
-56 20 15 0
64 42 -27 0
49 39 9 0
-48 44 -24 0
-40 -29 35 0
-57 -36 -43 0
-31 -8 -41 0
-45 -30 56 0
54 -22 -6 0
53 -10 -64 0
-28 49 -40 0
-65 40 -59 0
68 -34 28 0
9 -50 -13 0
-13 -40 25 0
29 -37 -1 0
-39 12 45 0
-37 6 -51 0
-65 55 -17 0
36 -46 -27 0
13 -6 18 0
-46 32 9 0
9 -29 54 0
-24 -21 32 0
-14 -63 9 0
64 -15 43 0
38 -25 -8 0
-51 -53 70 0
64 -33 -68 0
64 -2 -19 0
-4 -2 -1 0
32 -60 48 0
-54 -52 60 0
-11 -53 15 0
28 42 -30 0
-36 -49 62 0
-55 39 -69 0
-28 -65 -43 0
-38 31 -48 0
-62 61 -63 0
-14 62 3 0
-69 42 34 0
6 -11 -2 0
40 -10 -59 0
5 -21 30 0
-3 61 -4 0
-5 65 61 0
-2 42 14 0
-33 55 -18 0
-24 -9 14 0
-49 -61 -53 0
36 -48 -24 0
34 -18 -26 0
27 -44 40 0
45 -18 -48 0
-43 -41 -52 0
20 3 54 0
-49 44 -66 0
-1 38 -34 0
-18 9 -17 0
41 11 -29 0
-32 -24 8 0
48 12 -16 0
52 -44 56 0
-43 -69 44 0
-66 -8 36 0
31 68 48 0
48 46 1 0
30 -4 25 0
46 -36 43 0
48 -47 -57 0
-24 -44 63 0
32 -68 53 0
65 38 62 0
-42 32 31 0
27 -47 -35 0
-30 -22 -24 0
-22 55 -7 0
8 67 -68 0
-55 -47 -61 0
39 53 55 0
21 -22 42 0
-18 70 57 0
-5 6 62 0
-28 -38 -25 0
33 -69 -9 0
-45 27 18 0
46 -37 54 0
11 17 -39 0
-47 70 -30 0
-33 58 67 0
35 63 69 0
21 62 -20 0
-17 -58 11 0
-63 45 19 0
-60 -48 -3 0
1 12 -4 0
42 49 -36 0
-27 -45 -61 0
-35 30 56 0
54 -17 -68 0
24 -30 7 0
-43 69 -60 0
14 -22 -20 0
-46 9 63 0
-66 63 -27 0
68 53 20 0
-41 26 -56 0
42 -19 46 0
15 44 -30 0
64 -47 -6 0
56 -18 63 0
28 -20 -45 0
63 -57 -51 0
46 5 13 0
-28 47 5 0
31 -2 -20 0
-15 3 -16 0
-51 -27 -26 0
18 -46 25 0
28 40 -26 0
-62 -39 -52 0
-24 62 12 0
-10 -52 47 0
-43 -23 -49 0
46 25 -22 0
-68 12 -20 0
30 -24 -62 0
-2 9 26 0
61 -30 -64 0
-20 15 -13 0
11 -66 -8 0
-51 -28 43 0
45 17 7 0
1 -30 -54 0
-16 28 4 0
50 -10 49 0
-47 57 51 0
-31 -41 -57 0
2 64 -43 0
5 54 32 0
-5 -62 -52 0
-57 -68 52 0
44 -34 -16 0
30 57 -15 0
-23 61 -41 0
-8 27 -58 0
65 25 -59 0
-28 70 16 0
-64 -61 65 0
39 61 -29 0
-36 -32 9 0
66 37 -8 0
62 7 -16 0
-5 59 -18 0
-42 51 -1 0
7 -44 -51 0
-45 -65 37 0
24 -26 7 0
21 -38 50 0
-48 -10 15 0
22 13 -70 0
-67 13 59 0
58 -29 -14 0
-56 24 67 0
46 -25 -41 0
-29 -58 -7 0
-4 -70 9 0
-11 -5 -43 0
54 -56 -15 0
-35 69 -24 0
-7 15 28 0
-64 21 -31 0
60 19 -58 0
-62 53 12 0
-35 -29 -38 0
-37 -19 12 0
-14 -68 -4 0
22 19 -46 0
55 5 65 0
40 4 16 0
47 43 -29 0
13 -68 -39 0
-69 70 -10 0
48 16 -19 0
12 -3 54 0
1 -51 -57 0
28 62 -47 0
56 12 -67 0
39 32 -1 0
-45 -40 -10 0
-15 -41 24 0
69 68 29 0
-25 -23 -17 0
29 -27 3 0
-3 43 25 0
-6 39 -22 0
-9 41 66 0
54 -41 -64 0
54 -22 -51 0
-32 -28 65 0
70 47 -68 0
12 1 28 0
68 35 43 0
40 17 -57 0
-45 -61 -69 0
-35 15 32 0
9 -51 66 0
-43 57 22 0
9 -11 -43 0
55 12 -63 0
-47 -3 39 0
59 51 -38 0
28 -21 -18 0
-69 -48 18 0
11 -37 -8 0
-11 -30 64 0
-37 8 58 0
-33 -52 -66 0
-19 -52 -41 0
-22 -23 69 0
-52 33 -35 0
-13 -4 19 0
-39 42 13 0
57 -22 -58 0
-33 -70 -41 0
-54 53 50 0
-56 40 26 0
24 -49 62 0
-48 49 -43 0
-8 -11 51 0
10 -15 -70 0
32 -15 5 0
47 -65 13 0
-43 -57 19 0
-9 -57 70 0
-26 32 2 0
50 -51 -65 0
34 40 -46 0
38 -67 17 0
70 -58 -62 0
2 -66 37 0
3 29 6 0
22 -20 56 0
5 17 -57 0
8 -12 -52 0
35 -33 63 0
61 47 -8 0
-68 -66 -27 0
-12 -36 -49 0
-37 53 -24 0
