c family=3-SAT n=70 instance=9 seed=2573548008 models=31
c order 22 43 23 54 10 65 64 41 44 6 1 26 60 61 21 69 3 48 5 33 63 42 31 56 57 66 52 51 18 70 68 38 55 25 35 59 58 53 24 7 30 16 40 19 20 8 4 29 9 17 36 13 34 47 15 11 39 32 2 28 50 37 49 14 12 46 62 45 27 67
c order 16 28 33 20 45 57 56 65 21 1 5 19 42 30 38 61 70 68 26 12 13 67 10 4 37 15 52 2 51 46 44 36 50 24 66 54 9 69 29 53 8 63 23 59 11 40 17 6 49 39 7 47 43 62 58 35 3 18 34 31 25 64 60 32 22 41 14 55 48 27
c order 11 39 22 48 2 8 69 59 55 38 23 63 54 13 66 15 30 4 33 1 18 43 68 46 9 35 47 34 58 32 67 60 70 12 19 31 56 44 10 21 36 57 29 28 64 45 16 51 25 24 42 62 49 14 50 41 37 6 65 40 17 52 5 7 3 20 26 27 53 61
c order 68 56 26 32 5 52 12 3 29 53 60 61 42 8 66 16 50 67 15 62 35 47 2 55 22 7 21 57 44 4 40 59 31 19 17 27 49 65 70 48 45 38 33 28 64 63 34 43 23 25 11 58 69 6 1 30 9 10 18 37 13 24 46 36 39 41 54 20 51 14
c order 30 3 4 18 29 26 16 41 21 59 57 32 13 31 34 48 23 6 27 49 65 69 53 64 37 55 12 19 15 11 8 47 39 54 10 2 24 25 36 45 70 67 5 68 35 33 28 42 51 14 63 66 52 56 7 38 22 58 20 1 46 50 17 44 61 9 40 60 43 62
c order 68 10 13 6 22 14 3 30 55 26 48 58 33 25 5 65 46 42 47 24 61 32 44 38 12 23 40 39 7 17 45 28 27 34 62 4 16 60 35 67 31 43 66 19 57 11 64 54 70 63 37 50 1 8 9 21 52 41 2 15 59 49 18 51 29 69 20 53 56 36
c order 69 34 61 26 36 28 70 2 59 43 37 48 50 54 56 13 65 11 6 67 41 7 39 31 16 12 3 20 17 42 38 29 10 62 4 5 30 35 46 63 15 21 68 47 9 14 45 33 53 1 52 8 64 57 40 32 51 19 25 66 22 44 18 55 49 24 27 60 58 23
c order 44 54 45 48 52 38 9 35 1 30 65 8 26 62 5 57 59 55 23 49 51 14 16 17 32 4 33 2 61 6 68 56 3 47 12 69 18 24 66 37 70 13 39 46 60 29 10 25 67 19 36 63 42 53 41 64 50 43 21 27 40 20 58 34 31 15 22 11 28 7
c order 21 30 42 54 56 27 5 3 15 50 28 49 61 35 2 44 29 70 24 37 67 52 64 26 62 25 55 7 20 57 11 46 31 10 65 63 33 14 1 36 12 16 22 69 38 58 23 34 13 8 43 19 17 40 66 45 39 6 68 53 41 47 59 18 32 60 51 9 48 4
c order 67 64 8 57 63 2 61 51 1 66 40 9 36 68 11 70 42 45 6 17 49 13 48 16 37 15 7 28 60 47 18 14 5 69 55 31 21 25 53 41 50 54 3 4 65 38 33 19 22 29 32 44 34 56 23 26 12 59 62 24 39 30 43 35 10 46 58 52 27 20
p cnf 70 294
-64 56 -37 0
45 7 34 0
-58 24 -57 0
49 47 64 0
-43 -14 -53 0
41 -62 -3 0
21 -33 -1 0
69 67 -7 0
17 -5 -2 0
-49 -22 56 0
-66 49 -55 0
31 -15 -10 0
-23 -18 -37 0
10 19 58 0
-56 65 5 0
69 18 56 0
-59 20 -34 0
-63 60 -22 0
41 -51 68 0
-61 -30 18 0
11 45 47 0
44 36 4 0
-28 25 24 0
2 7 -63 0
-60 -28 -20 0
20 -15 14 0
59 67 2 0
-46 -58 -38 0
55 39 34 0
-23 -62 34 0
-30 -58 53 0
25 4 43 0
31 32 43 0
-35 66 29 0
-38 14 -22 0
29 -34 18 0
56 36 -63 0
-58 -33 -44 0
43 -3 -47 0
-58 -9 39 0
49 48 -64 0
-61 -1 -31 0
52 56 59 0
-14 -38 -4 0
-68 -6 -27 0
-25 69 17 0
-1 34 -53 0
-9 -8 36 0
6 22 -37 0
56 -33 -42 0
-31 -52 -8 0
67 46 49 0
-32 63 64 0
22 -46 11 0
-30 -67 -5 0
35 -37 -65 0
-6 -4 -63 0
-41 39 -4 0
-27 60 -5 0
7 -37 -26 0
-9 -1 33 0
12 -13 -32 0
48 -22 -21 0
14 4 -3 0
15 -60 63 0
58 -61 53 0
52 58 -8 0
-45 -5 18 0
-42 55 -48 0
13 -9 -47 0
-32 55 49 0
-51 3 12 0
-58 -40 34 0
-23 -54 48 0
62 43 -49 0
57 -42 -44 0
55 -70 -32 0
-46 53 -48 0
19 -46 -20 0
-24 -53 54 0
-60 24 -9 0
-43 -17 55 0
-36 26 22 0
17 -60 13 0
-29 -6 -2 0
29 -6 70 0
30 -66 -51 0
-1 17 -66 0
19 -48 33 0
69 -10 -63 0
-18 -39 -35 0
51 -40 -33 0
65 -43 37 0
-61 11 -39 0
40 -66 -1 0
-31 52 46 0
-36 68 8 0
-65 67 -7 0
-36 37 7 0
-46 -64 7 0
60 -6 66 0
18 29 -19 0
19 -25 12 0
-15 31 18 0
65 -23 -30 0
-37 22 61 0
13 -50 -34 0
-37 26 36 0
30 -70 -14 0
38 3 47 0
40 56 4 0
47 15 54 0
26 -36 -63 0
58 -38 -50 0
19 -41 57 0
-9 48 -62 0
-11 4 49 0
21 62 52 0
-66 -55 67 0
40 -52 -37 0
41 -48 26 0
-5 -29 -11 0
-12 -47 6 0
22 -10 -23 0
-9 61 49 0
-17 66 -19 0
8 -23 -17 0
48 66 11 0
-19 -4 8 0
48 61 3 0
-50 44 7 0
-45 -64 -70 0
2 -58 -65 0
-70 -25 12 0
-65 8 67 0
45 -35 -46 0
-67 -39 37 0
26 49 64 0
-1 52 63 0
12 32 -39 0
-27 3 -46 0
-29 -3 -11 0
70 -40 -41 0
25 -61 -8 0
-50 7 -11 0
62 -53 70 0
32 -12 -58 0
44 49 -51 0
23 38 -22 0
7 33 22 0
53 35 -26 0
-22 46 19 0
15 39 -26 0
11 -6 -49 0
-66 -15 42 0
31 37 42 0
36 -35 -46 0
47 -21 48 0
49 -62 57 0
18 4 -48 0
-47 30 19 0
-5 2 68 0
-34 57 24 0
53 -1 -50 0
9 6 -12 0
-1 -41 5 0
-33 32 12 0
-60 23 -12 0
-17 -25 15 0
-18 -1 10 0
-65 31 -2 0
56 -18 -8 0
-57 37 67 0
-21 48 -42 0
22 11 17 0
-7 -66 -2 0
-16 -64 55 0
-59 -69 39 0
30 -29 66 0
14 -56 -61 0
5 -68 -31 0
37 15 55 0
28 -3 -50 0
-37 -7 -28 0
-51 64 47 0
18 -5 36 0
-13 -61 -55 0
8 19 34 0
27 -49 -33 0
50 38 61 0
-58 -62 20 0
42 -13 -22 0
-11 19 18 0
-16 -28 -43 0
45 35 48 0
33 59 -17 0
-41 50 29 0
12 -55 -11 0
-45 11 -25 0
-54 39 20 0
-1 -37 -55 0
-26 58 -2 0
-19 -54 -65 0
47 -9 -58 0
15 31 51 0
-22 -56 -48 0
48 20 11 0
51 -25 36 0
45 -6 54 0
-70 62 59 0
43 -12 33 0
-3 -22 -69 0
30 -44 -25 0
28 70 -63 0
-29 48 -66 0
8 9 61 0
16 -48 69 0
-11 -13 25 0
34 41 -25 0
-16 42 55 0
-53 69 65 0
28 12 30 0
54 40 -42 0
51 -24 -26 0
51 -70 37 0
42 -60 63 0
7 -59 -47 0
15 57 -63 0
-3 -10 -60 0
15 65 -48 0
55 -32 54 0
-34 -60 -45 0
-11 21 58 0
-8 12 67 0
50 29 -48 0
2 -56 -24 0
-35 22 -44 0
60 -41 -67 0
65 37 17 0
25 -62 -18 0
58 -2 56 0
47 8 6 0
70 66 -21 0
33 -40 13 0
-39 -15 -31 0
-36 -25 -56 0
-2 18 -61 0
38 37 49 0
-70 -38 29 0
19 -47 -46 0
-68 -43 -5 0
-34 -4 -50 0
10 69 36 0
40 35 -42 0
-59 57 -19 0
19 45 -27 0
-19 10 -52 0
5 36 -11 0
-50 -70 59 0
64 69 59 0
40 38 41 0
47 -4 -17 0
32 4 64 0
-26 70 13 0
-25 3 59 0
15 -9 27 0
21 -52 -8 0
25 -49 -63 0
-49 -67 -59 0
61 -49 -23 0
-9 65 57 0
-70 -35 57 0
-46 -14 -26 0
38 33 -68 0
-2 69 -18 0
20 15 -70 0
3 -55 -31 0
48 -28 -56 0
-70 51 7 0
-41 -18 35 0
-18 60 -13 0
-30 62 45 0
40 44 -54 0
-21 66 3 0
-61 -59 -22 0
64 -44 -24 0
19 -23 -53 0
-66 40 -27 0
45 42 2 0
-62 -54 36 0
-28 -30 10 0
-52 7 40 0
-70 25 37 0
2 -59 -9 0
