c family=3-SAT n=70 instance=7 seed=2573548008 models=2920
c order 38 3 57 22 56 53 17 46 42 55 25 6 41 37 32 66 11 48 68 44 45 60 33 64 39 43 36 67 59 70 8 63 51 23 9 40 5 34 58 30 15 10 7 19 24 49 61 27 4 31 16 13 50 2 69 62 54 14 35 52 21 1 26 29 28 20 65 12 47 18
c order 8 2 23 50 60 65 42 37 14 38 52 47 53 58 20 9 61 67 22 4 66 54 45 6 43 15 44 19 10 5 13 26 30 36 40 12 64 28 57 24 63 68 41 35 34 46 17 31 29 1 32 49 16 18 56 7 25 11 59 69 3 33 62 70 51 27 39 48 21 55
c order 25 22 29 2 40 9 33 52 36 15 24 39 8 51 41 5 32 60 4 56 28 68 17 35 27 20 45 43 13 46 6 26 53 11 66 50 42 10 12 55 31 57 69 16 1 44 49 67 14 61 47 58 65 18 34 21 38 62 48 70 64 3 37 63 54 23 59 7 19 30
c order 37 33 5 60 17 22 50 56 47 41 35 69 15 21 14 28 20 65 52 51 36 53 3 2 46 48 55 27 12 7 11 70 13 26 25 63 49 23 18 30 40 42 9 64 66 57 16 38 43 54 62 32 6 61 8 59 45 1 44 39 67 19 29 34 31 24 68 10 58 4
c order 7 53 58 29 34 65 5 36 15 4 31 16 51 6 44 37 63 27 32 21 35 46 52 45 11 69 25 8 57 68 33 62 56 10 23 18 66 19 59 47 24 67 60 54 30 48 39 9 38 1 40 61 2 14 42 3 28 50 12 22 55 41 49 17 43 26 20 64 13 70
c order 38 28 10 52 15 51 36 32 18 59 63 49 13 33 64 25 35 60 42 62 9 6 50 61 55 22 24 1 16 27 7 20 2 19 68 39 70 58 4 12 53 11 26 48 67 31 40 30 23 5 8 54 46 69 56 34 65 14 44 17 43 21 66 47 41 37 45 29 57 3
c order 57 30 16 63 64 45 3 9 24 26 60 7 14 40 17 36 34 44 27 59 18 4 51 37 21 2 35 68 8 33 28 10 69 23 65 42 56 5 54 61 32 70 12 49 43 38 20 55 67 50 39 46 62 25 15 66 13 6 52 29 1 31 47 22 53 19 58 48 11 41
c order 70 69 38 32 27 6 29 4 67 19 34 3 31 46 40 64 23 65 18 59 50 21 28 56 48 44 20 1 66 35 39 5 25 16 57 55 11 47 54 30 7 9 14 51 24 37 15 8 41 52 17 33 45 63 62 10 49 42 13 68 58 36 60 2 22 61 43 26 53 12
c order 52 46 6 44 30 53 9 10 59 23 19 5 60 45 33 70 39 21 41 28 65 17 61 49 54 56 62 2 64 15 16 14 25 67 38 3 57 1 27 42 31 63 32 69 29 35 24 66 7 51 13 68 11 22 50 12 26 18 40 37 58 47 36 34 20 8 43 4 55 48
c order 44 65 59 36 67 37 14 2 18 47 25 13 9 26 38 23 43 7 40 27 22 10 60 4 58 54 62 39 51 11 64 69 20 28 19 35 41 48 33 46 50 6 70 42 31 5 63 34 56 66 68 55 61 57 29 16 1 3 49 45 12 15 24 21 17 8 32 53 52 30
p cnf 70 294
33 59 30 0
-36 -60 50 0
68 41 1 0
44 -57 45 0
-6 14 47 0
64 -58 -51 0
-60 45 -44 0
61 58 -43 0
-9 -69 56 0
-42 13 69 0
-48 57 -69 0
-55 59 -64 0
18 9 32 0
49 68 62 0
10 -48 3 0
-20 -62 -53 0
26 -15 -37 0
-54 -53 10 0
31 27 -57 0
31 30 -36 0
64 -28 -3 0
16 -4 68 0
69 27 -6 0
2 40 28 0
65 15 -20 0
-4 46 -24 0
-64 56 -41 0
-47 -24 46 0
-22 -19 33 0
63 -59 22 0
10 64 68 0
-41 17 38 0
-4 -7 -63 0
46 65 -24 0
-26 -3 29 0
-63 -46 23 0
-62 -27 -10 0
46 -26 25 0
52 42 64 0
51 44 41 0
54 68 -66 0
-55 58 23 0
26 56 33 0
-37 24 25 0
-17 40 21 0
5 -21 -34 0
-52 51 42 0
-57 14 -24 0
-40 -17 58 0
-66 -18 -60 0
-28 -51 -63 0
-67 -50 1 0
-53 -21 45 0
-4 -20 -61 0
19 -24 39 0
-25 29 13 0
28 60 11 0
42 21 69 0
-64 28 -32 0
10 4 -33 0
-58 36 -39 0
-58 3 70 0
58 32 16 0
24 22 -47 0
-33 17 55 0
-29 -45 -20 0
-24 -64 -47 0
-57 -52 -12 0
-63 52 -25 0
-28 -1 -58 0
51 -3 -39 0
14 -64 -25 0
-1 -42 38 0
3 -22 -24 0
48 -51 5 0
67 -1 -38 0
9 58 53 0
-39 8 53 0
44 -66 39 0
-53 -59 -70 0
-56 -41 -61 0
18 2 -42 0
26 64 39 0
-68 -28 -38 0
8 -69 28 0
-64 -70 26 0
-60 46 -27 0
27 53 56 0
6 48 9 0
-66 34 -56 0
5 -14 52 0
-59 -69 29 0
4 -22 21 0
-28 7 -43 0
66 -29 24 0
-25 -67 -34 0
-46 -47 -9 0
-5 60 19 0
-27 11 -3 0
31 14 7 0
-1 -53 45 0
2 -68 -65 0
-66 28 5 0
18 5 2 0
4 -53 -9 0
52 -69 68 0
-5 6 -54 0
-59 51 -48 0
58 68 -22 0
-42 -13 37 0
19 -38 -30 0
-46 12 37 0
-65 11 -12 0
51 -35 58 0
51 -12 -67 0
-36 52 -39 0
8 -7 -30 0
13 17 -9 0
69 18 -67 0
15 33 -45 0
-32 -16 -44 0
41 -45 -17 0
-48 65 -45 0
-6 60 19 0
64 -41 -45 0
50 -3 30 0
-18 36 -56 0
36 -18 -3 0
21 -70 -64 0
-33 -12 26 0
5 -32 62 0
-64 31 -57 0
12 39 -54 0
22 -23 8 0
-45 52 53 0
-17 -6 -45 0
34 -48 8 0
51 46 -4 0
-70 59 12 0
-36 55 64 0
-38 69 -29 0
43 51 -14 0
-49 19 -8 0
59 46 -34 0
-34 -63 -20 0
36 66 1 0
68 -36 16 0
-20 8 38 0
22 -11 -38 0
-3 60 33 0
10 19 -7 0
-53 -34 64 0
42 -25 -27 0
-55 66 30 0
31 39 5 0
58 41 20 0
21 -1 -25 0
-33 70 26 0
1 -13 -67 0
-27 58 56 0
53 37 41 0
66 48 61 0
-6 -70 5 0
29 -1 9 0
-60 -40 59 0
-70 -61 -52 0
-28 -57 26 0
-33 -2 -45 0
8 -20 29 0
49 -62 -43 0
55 -15 1 0
-47 -28 7 0
28 66 -9 0
35 -59 33 0
-51 12 53 0
50 37 67 0
50 -24 -38 0
-18 6 -42 0
-65 54 34 0
40 -51 23 0
-31 -44 20 0
-29 24 34 0
-15 -39 3 0
37 -7 50 0
65 47 39 0
58 -29 -70 0
29 -63 20 0
27 -44 -55 0
-56 -17 -18 0
48 43 -38 0
23 59 -5 0
22 -35 24 0
-25 37 16 0
-6 58 32 0
-18 -32 10 0
-27 -47 64 0
54 46 -58 0
5 -16 61 0
-9 -54 -41 0
-16 23 -25 0
17 -46 5 0
-10 57 -45 0
35 -10 -43 0
23 19 -8 0
-34 62 -49 0
-22 -38 67 0
11 -3 7 0
57 10 -32 0
34 -65 -56 0
-69 21 -1 0
27 59 49 0
33 -57 -35 0
-3 34 8 0
53 69 -26 0
69 -40 -3 0
49 20 -4 0
38 30 32 0
-11 -6 -32 0
-47 26 64 0
-60 -59 -44 0
-31 1 -19 0
-3 61 47 0
-11 -49 50 0
67 -40 17 0
23 -42 60 0
-63 39 58 0
-33 58 24 0
42 -51 67 0
-26 36 -15 0
45 -36 -20 0
-35 -63 -22 0
-2 -28 -52 0
-9 -43 68 0
-29 8 -65 0
69 16 -25 0
-59 67 -30 0
21 -24 7 0
53 69 11 0
17 29 -53 0
5 53 -64 0
39 43 17 0
35 -1 30 0
25 -48 31 0
13 -69 -58 0
21 -7 -11 0
-54 -6 -65 0
-46 32 -44 0
-42 33 -54 0
-36 42 35 0
-48 -10 15 0
36 -59 -1 0
-69 -63 -35 0
36 -5 -26 0
-31 12 -9 0
19 18 17 0
-55 7 -1 0
70 -26 -37 0
43 32 -47 0
28 -8 68 0
-58 25 5 0
-62 20 2 0
4 16 -35 0
69 57 15 0
-59 64 70 0
3 26 -22 0
-7 21 -50 0
7 58 -8 0
-62 -63 28 0
55 -34 -58 0
-46 62 -17 0
-15 10 -2 0
46 -53 -58 0
-9 -69 4 0
34 -65 7 0
14 50 -62 0
-29 28 20 0
-70 -27 -20 0
-58 61 55 0
38 -11 35 0
-56 21 -40 0
19 61 59 0
-55 -44 -66 0
58 36 -19 0
60 56 -45 0
21 -13 -39 0
14 9 -27 0
-4 3 -37 0
-15 9 47 0
62 -39 -44 0
-10 39 -63 0
12 61 14 0
-51 39 -32 0
-44 29 -46 0
65 -55 -8 0
