c family=3-SAT n=70 instance=6 seed=2573548008 models=192
c order 32 62 37 39 13 34 68 28 29 19 9 4 44 1 53 25 49 30 2 55 3 14 38 45 12 17 59 21 10 61 43 52 57 46 33 16 51 70 11 42 8 60 36 6 15 63 48 54 35 50 58 23 66 20 24 65 31 56 41 27 64 18 40 26 7 69 47 5 67 22
c order 14 42 29 54 31 7 46 13 3 39 63 32 4 44 58 47 49 24 61 41 17 11 38 48 27 69 62 26 67 2 60 6 56 36 30 34 66 9 12 68 23 40 64 16 25 50 18 5 10 59 53 65 51 22 28 35 52 57 43 70 8 55 19 37 20 45 1 33 15 21
c order 48 46 69 57 10 11 2 58 32 20 70 56 64 39 31 27 5 54 44 40 22 18 36 12 60 67 49 61 59 16 62 51 41 66 30 29 47 37 1 24 63 13 55 9 6 65 19 33 35 38 28 25 43 42 53 23 8 45 52 17 26 34 15 50 4 68 3 21 14 7
c order 8 65 57 70 36 9 34 27 63 66 44 25 50 37 14 58 31 67 56 62 20 15 61 7 3 13 24 42 16 11 69 51 43 29 64 32 21 33 46 60 28 53 6 5 39 22 2 47 35 30 59 19 54 23 38 10 40 45 41 18 52 12 1 17 49 26 68 48 4 55
c order 42 53 44 1 24 8 18 46 56 27 33 17 3 54 50 51 41 55 25 11 19 21 45 14 47 36 40 62 60 65 4 52 43 7 34 35 23 59 48 30 37 58 9 10 5 26 32 22 68 49 39 13 57 6 38 66 67 12 15 31 28 61 29 2 70 16 20 69 63 64
c order 44 34 45 68 52 56 9 6 26 60 63 66 31 36 67 39 37 35 23 54 20 18 62 51 3 16 21 4 38 59 7 69 70 24 47 58 5 32 27 42 50 19 28 53 13 17 41 2 43 25 12 11 61 10 15 22 29 55 49 30 64 1 14 46 57 40 33 8 48 65
c order 15 48 53 5 14 9 38 50 37 39 33 34 60 67 4 42 43 19 20 2 30 3 49 27 18 54 21 8 16 55 1 31 29 6 58 61 32 63 22 64 13 45 40 70 44 65 25 17 12 26 59 62 23 35 66 57 52 69 56 36 68 28 10 51 11 46 41 47 24 7
c order 53 62 4 9 46 64 33 52 59 63 55 39 3 28 32 22 44 70 30 50 16 23 40 56 26 45 41 15 69 48 57 5 29 20 14 58 2 36 17 19 27 24 49 68 35 31 21 65 11 25 1 42 60 54 6 34 7 43 47 13 12 38 10 66 8 51 18 37 67 61
c order 2 53 28 51 58 60 20 45 54 50 4 24 65 48 56 31 15 49 19 7 63 27 12 67 57 41 70 52 18 17 1 25 43 14 38 34 40 66 26 23 3 5 33 61 6 44 22 62 64 11 10 30 29 69 9 42 21 46 68 13 8 37 35 36 59 32 55 47 16 39
c order 19 25 24 70 21 22 43 62 48 10 60 37 26 61 27 32 39 11 68 29 14 33 23 51 55 67 53 58 40 12 28 35 34 17 38 56 18 6 57 5 16 7 52 1 44 54 15 3 2 4 63 65 42 31 47 30 59 20 64 69 41 50 66 36 45 49 13 9 8 46
p cnf 70 294
-36 70 7 0
35 -5 -13 0
44 -59 19 0
-7 11 -39 0
36 -54 48 0
28 -67 61 0
-23 -12 -21 0
2 30 -19 0
-22 43 -37 0
20 45 65 0
-17 -40 -16 0
-21 9 48 0
-16 58 -54 0
-6 -24 35 0
7 -69 23 0
62 18 21 0
47 -69 -29 0
70 2 5 0
-49 -9 -38 0
28 -43 46 0
9 -46 -50 0
-67 -48 -53 0
55 -61 5 0
11 41 -18 0
-2 -54 49 0
59 -4 17 0
24 -16 20 0
50 29 -54 0
48 -57 -10 0
10 -2 -24 0
-53 -36 -54 0
-54 48 8 0
34 47 -33 0
43 10 -35 0
-24 47 -4 0
-66 44 -64 0
13 12 -32 0
-7 17 -35 0
46 19 -22 0
-35 31 62 0
-3 52 12 0
-4 14 56 0
-33 -23 -28 0
65 -2 -70 0
41 -61 -52 0
-51 64 -31 0
-19 51 42 0
-69 16 -29 0
-5 -6 -34 0
24 -42 -6 0
63 12 68 0
70 12 2 0
47 -65 11 0
-27 35 -31 0
-11 23 16 0
-25 -52 -10 0
64 25 -49 0
-20 -49 -31 0
28 -56 -3 0
53 -13 35 0
69 15 53 0
-14 -27 39 0
-4 17 -18 0
23 8 26 0
58 26 -29 0
5 3 16 0
-63 -14 42 0
-26 55 -13 0
24 -59 4 0
9 -52 -7 0
-64 24 18 0
-38 -44 -60 0
25 67 -53 0
48 11 -54 0
27 17 42 0
-8 1 -51 0
-34 -61 -9 0
-66 -70 -50 0
19 42 -8 0
-58 -6 -10 0
21 -30 -44 0
46 21 16 0
15 18 -45 0
-51 -13 39 0
19 -61 5 0
-1 -45 51 0
36 -47 2 0
2 30 -69 0
-55 -15 -38 0
37 -54 38 0
-63 5 -67 0
20 15 44 0
47 15 -16 0
4 -13 -40 0
-25 -8 -1 0
6 -56 55 0
-53 52 56 0
-58 -4 13 0
37 -50 2 0
47 11 -44 0
-21 11 20 0
-38 -27 -61 0
-26 46 54 0
42 -49 -41 0
-58 70 -53 0
-51 -26 20 0
-11 -70 -32 0
19 -17 -26 0
43 -40 -18 0
-66 19 -65 0
54 50 -29 0
65 -20 -37 0
-57 -64 -52 0
67 -63 2 0
-33 66 63 0
-21 -55 39 0
43 -41 6 0
-1 16 -5 0
32 -24 39 0
-43 -18 65 0
-13 23 16 0
34 -49 -40 0
-22 1 6 0
42 32 45 0
-32 16 -26 0
-64 -42 -36 0
-15 3 -53 0
46 67 11 0
17 3 27 0
6 -54 67 0
50 -52 -63 0
63 18 -66 0
59 3 4 0
-40 -59 -49 0
-63 -5 -42 0
-19 -24 -63 0
13 -15 -29 0
17 66 -46 0
-29 70 2 0
14 -56 33 0
13 51 58 0
43 54 18 0
-40 58 9 0
31 38 -24 0
51 48 -29 0
-33 50 -23 0
8 -40 12 0
-20 16 -22 0
-4 14 -50 0
-1 -8 32 0
44 19 17 0
-46 -43 -47 0
68 -35 -61 0
3 -27 55 0
14 -18 19 0
58 -44 22 0
-28 -59 -45 0
-27 -38 10 0
50 -37 -5 0
62 -25 -59 0
-32 -24 -10 0
12 57 -65 0
40 -37 43 0
-41 -70 -68 0
37 -38 -45 0
15 -55 -32 0
60 55 4 0
-34 37 -11 0
-27 -15 -7 0
38 -11 55 0
43 21 -11 0
10 70 40 0
17 14 -67 0
-46 61 -7 0
-11 19 64 0
63 -12 -3 0
-24 -7 61 0
7 -9 -40 0
40 -38 -30 0
65 21 49 0
-53 22 -54 0
-3 56 52 0
7 -44 17 0
36 53 -19 0
-44 55 -47 0
36 -16 -11 0
62 -49 -68 0
59 60 -32 0
-47 -25 -24 0
-19 32 -44 0
42 38 -35 0
33 52 56 0
-65 -59 -48 0
21 -51 -8 0
25 -38 64 0
-29 -38 -2 0
55 56 61 0
-59 -54 -53 0
-3 -64 57 0
-48 2 -63 0
23 37 -58 0
-43 -10 -45 0
-44 -63 23 0
46 -69 2 0
-52 -19 -3 0
15 2 1 0
-10 60 30 0
44 29 60 0
17 9 -27 0
-22 -56 -13 0
-29 32 52 0
60 -55 -24 0
-38 2 -43 0
46 -55 -49 0
-54 49 -8 0
54 -41 39 0
-8 17 -10 0
-14 2 49 0
37 -16 -57 0
-34 -5 50 0
-66 -12 6 0
17 -10 16 0
-40 -37 -42 0
-57 -53 -9 0
-18 46 -31 0
67 -70 22 0
-23 -29 -58 0
-50 -16 -51 0
-42 -63 33 0
38 18 64 0
-14 -69 60 0
41 -16 -67 0
-3 43 -29 0
-14 12 -66 0
14 67 -45 0
-60 -2 13 0
-67 -14 48 0
55 62 -8 0
45 -57 38 0
47 -46 -5 0
-28 -68 -55 0
-39 48 -28 0
-12 21 -57 0
28 26 67 0
-8 -22 28 0
5 -8 -66 0
-36 -2 -70 0
-30 45 44 0
51 48 30 0
12 -9 53 0
61 29 15 0
46 65 -23 0
-67 -39 -7 0
14 21 -15 0
-2 67 -31 0
-26 41 46 0
-38 -44 22 0
49 -12 58 0
-10 -32 -3 0
-15 7 36 0
-55 12 -42 0
1 -34 39 0
-22 -61 45 0
11 56 -49 0
-49 -47 16 0
-60 -20 23 0
-28 19 -57 0
-2 34 60 0
22 60 54 0
50 27 -33 0
-56 -58 -13 0
-43 6 -62 0
36 41 59 0
-60 -10 -61 0
64 -43 -60 0
-63 -3 -26 0
29 68 -17 0
-47 1 -4 0
16 59 -32 0
17 -35 32 0
50 -68 -41 0
-66 23 -11 0
3 -15 58 0
8 -10 -30 0
-66 -67 -48 0
18 -37 7 0
-37 -20 55 0
-30 -54 56 0
2 25 -62 0
24 -9 66 0
-62 1 -30 0
-19 -13 -10 0
29 18 -62 0
-15 -21 -24 0
