c family=3-SAT n=80 instance=2 seed=2573548008 models=16500
c order 73 17 14 31 47 76 41 54 22 3 74 80 75 11 16 63 21 79 66 44 13 7 69 12 77 67 24 19 2 25 55 4 28 35 5 48 51 43 6 20 34 15 46 8 36 33 23 64 65 30 58 29 60 72 50 70 52 62 42 10 56 1 61 78 53 57 40 39 59 26 27 32 45 68 71 49 37 38 9 18
c order 59 80 1 44 34 23 69 9 45 31 63 37 11 53 29 52 50 62 30 78 10 8 3 56 25 26 32 61 73 51 14 41 42 36 48 68 67 4 58 77 13 57 28 39 33 46 66 75 20 43 5 40 15 24 76 21 74 27 6 64 49 35 17 79 18 71 72 38 70 54 65 16 22 55 47 7 60 2 19 12
c order 3 60 8 20 22 78 6 14 77 11 58 24 31 38 68 62 40 43 66 17 65 72 9 36 37 64 44 12 30 49 26 50 76 27 21 59 53 2 48 1 15 80 35 28 75 46 57 73 54 23 61 67 47 13 18 5 16 56 7 41 52 74 69 4 71 63 42 51 55 29 39 32 33 45 79 10 19 70 25 34
c order 42 63 78 55 35 4 20 79 69 17 70 3 36 80 53 23 6 22 18 8 73 46 65 57 19 11 49 32 51 29 77 39 71 52 45 61 50 1 40 2 31 67 13 44 12 21 75 5 9 25 60 14 56 76 37 16 10 30 66 68 41 54 15 28 38 47 26 72 33 43 64 74 62 34 7 59 24 27 58 48
c order 1 41 77 17 72 42 60 50 51 45 70 78 61 75 71 79 28 26 25 53 30 7 46 3 4 29 58 10 64 2 65 14 63 39 49 54 80 20 24 44 18 55 62 37 32 52 27 31 40 33 73 74 36 5 13 38 47 34 9 66 56 68 6 16 67 69 43 21 23 35 48 76 11 57 59 19 22 15 8 12
c order 36 3 16 63 9 52 70 64 53 65 29 18 33 44 51 12 5 73 38 20 43 77 23 25 54 10 69 80 13 37 76 66 17 22 48 2 68 49 62 71 58 27 45 4 57 8 46 41 59 74 42 24 15 30 40 11 79 47 19 7 31 39 67 50 60 35 21 1 75 61 26 6 14 56 78 72 55 32 28 34
c order 30 44 46 11 31 10 2 23 38 72 6 79 80 39 52 78 69 48 51 56 27 59 13 63 5 58 57 9 12 19 62 29 45 35 73 54 76 16 3 18 14 7 1 25 75 32 20 49 4 61 21 77 74 70 28 8 34 64 40 55 71 43 15 22 42 67 47 37 17 36 33 24 26 68 65 60 66 50 53 41
c order 31 16 80 65 30 35 69 26 21 17 32 24 62 7 45 50 49 47 57 39 73 79 41 40 76 20 43 51 59 4 66 74 14 63 13 70 33 68 55 77 28 8 42 36 37 27 11 46 29 19 9 15 3 38 48 18 78 56 64 72 1 10 22 58 5 2 34 25 52 71 60 67 44 54 53 6 12 23 61 75
c order 27 62 5 26 30 1 56 13 12 75 44 76 48 67 61 63 14 41 34 60 57 18 37 21 74 28 25 23 53 36 3 8 59 9 47 15 52 32 78 69 6 10 31 66 70 79 77 65 68 51 80 35 4 39 22 7 71 29 11 50 55 45 24 16 42 40 19 2 43 38 17 33 72 54 58 64 46 20 49 73
c order 36 30 63 8 1 33 18 37 51 45 46 20 39 74 5 38 6 73 72 25 61 26 32 69 44 3 7 27 53 28 67 50 79 34 17 41 60 42 19 80 76 78 2 35 58 47 22 11 54 59 68 52 29 15 43 14 16 23 56 65 77 13 64 66 12 24 31 10 48 49 40 57 4 21 70 55 9 62 75 71
p cnf 80 336
76 -74 -7 0
-62 -55 -72 0
2 47 60 0
-47 -27 -76 0
47 69 -54 0
-38 -16 74 0
-24 46 -54 0
3 -13 -56 0
-11 44 -48 0
39 9 33 0
57 12 -61 0
34 -77 -15 0
28 -8 21 0
8 -69 3 0
67 -70 -18 0
44 -8 -71 0
32 -13 -34 0
-15 9 -61 0
14 57 30 0
-61 65 -42 0
80 -39 -21 0
-78 76 -79 0
-8 52 -25 0
54 -73 -56 0
32 -18 -39 0
-43 58 -64 0
-31 -44 -58 0
60 33 44 0
8 15 -28 0
25 -54 -55 0
-74 -10 -17 0
-21 65 30 0
33 -32 77 0
4 -7 63 0
1 29 -10 0
66 -40 -19 0
48 36 60 0
-51 -33 -37 0
-65 -77 60 0
-4 -70 16 0
54 55 40 0
-64 -10 19 0
-37 -65 49 0
60 -66 -16 0
-76 46 35 0
12 -62 61 0
79 -45 -68 0
52 36 -19 0
35 58 25 0
-54 -14 -57 0
-35 -23 -52 0
-44 -54 -13 0
-12 -6 27 0
51 50 -59 0
43 24 -80 0
-9 30 -36 0
-20 -28 -16 0
19 76 42 0
73 12 -38 0
78 -36 -16 0
-41 -77 76 0
14 -10 -78 0
31 11 2 0
-14 -74 27 0
47 27 34 0
26 42 54 0
-6 2 20 0
9 51 23 0
11 -28 -24 0
71 78 -10 0
-55 -20 -78 0
-59 -80 68 0
80 -73 -66 0
21 56 1 0
-35 23 -49 0
58 63 -31 0
14 79 -5 0
-28 -80 42 0
-5 -32 54 0
-44 -14 -52 0
77 -16 45 0
28 -72 -77 0
-72 -44 -29 0
4 -9 -25 0
12 25 -47 0
13 -57 -45 0
-71 67 -2 0
49 43 45 0
-37 -76 -42 0
-67 -27 77 0
13 17 32 0
76 42 33 0
51 2 -8 0
-3 -21 6 0
58 -18 -35 0
9 -28 -57 0
55 39 -15 0
-41 62 3 0
-16 -52 12 0
-74 78 -21 0
-28 -47 -11 0
35 1 59 0
41 22 57 0
13 45 -38 0
-10 -47 -66 0
-16 -78 26 0
52 -79 -51 0
-25 -21 -18 0
-19 40 71 0
6 -9 21 0
-28 9 -59 0
52 -73 -72 0
72 -49 29 0
62 -49 -36 0
27 -24 38 0
-46 2 -7 0
-43 -25 -45 0
-65 16 79 0
-25 -20 -8 0
25 6 50 0
-55 64 -6 0
49 36 16 0
16 -41 -11 0
-20 73 -44 0
-53 46 -79 0
36 73 -8 0
-61 -45 69 0
-1 -27 -46 0
71 -22 73 0
-51 37 -80 0
-57 19 63 0
46 -79 -31 0
46 12 36 0
79 -61 -46 0
78 43 22 0
-11 -10 12 0
40 57 49 0
-59 -64 -67 0
-76 79 10 0
-3 22 -13 0
13 -71 51 0
-42 28 -48 0
-41 -37 -74 0
28 61 22 0
-19 -54 14 0
-43 -16 -69 0
22 -39 -49 0
-18 62 -45 0
56 -67 -17 0
-77 -59 -14 0
-3 -48 -64 0
40 31 -39 0
-15 22 24 0
-28 12 69 0
59 11 -15 0
-45 -4 50 0
23 15 -76 0
-47 -67 34 0
-42 -44 3 0
-42 46 -62 0
17 -15 -61 0
64 -40 39 0
-37 57 -10 0
79 -13 34 0
-58 24 -61 0
67 -3 27 0
9 57 6 0
-32 -1 -34 0
-74 -56 21 0
-10 34 5 0
-14 -8 77 0
-34 -66 50 0
-72 -12 3 0
30 73 -33 0
-33 -37 -42 0
-2 -26 9 0
-47 -70 -27 0
5 23 -60 0
-27 77 66 0
40 -18 54 0
-59 65 -9 0
76 -63 19 0
-8 -43 65 0
1 73 -23 0
63 -54 -43 0
-5 -20 -23 0
78 43 56 0
-11 73 56 0
-58 -68 -36 0
74 80 5 0
-48 71 -26 0
-36 35 57 0
74 50 3 0
46 52 78 0
4 12 41 0
50 5 -48 0
-10 -49 19 0
-14 57 -3 0
-4 -71 67 0
51 17 75 0
-78 46 -72 0
-50 -17 -11 0
56 65 -47 0
-43 -79 -29 0
-44 73 13 0
-28 50 36 0
71 -3 -37 0
60 41 -78 0
-79 -18 -65 0
63 76 -24 0
-32 23 3 0
-74 -31 -65 0
-72 70 -13 0
-6 -75 39 0
15 13 -75 0
-75 50 -31 0
74 56 70 0
-9 27 -6 0
9 21 67 0
77 -32 -27 0
55 -2 35 0
-33 77 -11 0
69 13 -48 0
69 61 33 0
-10 30 -37 0
69 16 -45 0
-69 -19 54 0
58 -76 61 0
-25 71 34 0
-62 -67 68 0
40 -66 -7 0
19 -56 -6 0
18 -12 -78 0
-6 79 -3 0
34 -18 -15 0
34 54 47 0
60 32 19 0
19 78 75 0
39 -19 -26 0
-56 -21 -78 0
-22 -14 -6 0
3 73 60 0
-24 -49 -21 0
19 75 -48 0
31 35 -3 0
66 -59 40 0
-3 65 45 0
-45 7 -39 0
-46 47 -58 0
-48 -15 -66 0
-29 7 -30 0
65 -55 -58 0
-47 56 -14 0
-36 -64 18 0
39 -73 -21 0
-38 59 65 0
-37 -69 10 0
-2 80 12 0
-16 38 -28 0
30 44 73 0
17 61 65 0
30 7 67 0
72 -37 12 0
58 28 -61 0
37 -10 50 0
-12 -75 9 0
35 -27 -68 0
52 37 -14 0
68 -41 -25 0
-56 -6 34 0
-44 -77 75 0
14 -28 21 0
-63 -13 -60 0
21 5 -76 0
-3 -8 39 0
-73 66 -46 0
-69 -52 24 0
-16 -64 -10 0
35 -32 -4 0
-77 18 -20 0
70 -76 -30 0
-43 79 -16 0
-29 -2 -56 0
22 28 60 0
-64 45 23 0
-3 76 78 0
-76 25 -75 0
6 -67 17 0
59 -36 41 0
7 31 -25 0
23 -29 -54 0
-71 22 10 0
-15 31 48 0
-66 68 10 0
60 -75 32 0
38 -58 -32 0
-43 -72 38 0
-76 -45 29 0
20 -71 27 0
-74 -65 22 0
-15 -64 60 0
-80 25 76 0
69 -21 -20 0
5 13 -65 0
28 -36 -57 0
-11 -45 24 0
29 -39 74 0
-39 50 -23 0
25 -14 45 0
-33 -15 7 0
45 -42 23 0
-11 33 -79 0
-8 -58 18 0
-30 -2 -26 0
73 -47 19 0
-6 78 -17 0
-71 -80 -12 0
-76 -13 11 0
71 76 -1 0
19 8 -45 0
-52 14 -74 0
-36 -52 -49 0
-38 73 47 0
75 -65 -40 0
32 29 -36 0
-13 20 -62 0
-4 -41 -26 0
-74 -41 -24 0
-72 47 75 0
20 -72 61 0
-80 32 60 0
12 29 -47 0
35 -2 46 0
76 -10 -23 0
-10 17 35 0
62 -55 -69 0
