c family=3-SAT n=80 instance=4 seed=2573548008 models=128
c order 24 26 52 19 54 23 33 5 50 59 57 69 74 28 35 25 31 78 20 8 10 68 15 60 41 29 61 13 14 75 67 64 66 48 7 12 37 18 76 38 65 34 49 2 70 46 30 40 63 73 47 21 1 22 16 43 56 71 72 53 39 3 36 17 51 58 44 42 77 32 45 27 55 79 62 4 9 6 11 80
c order 78 19 29 18 28 56 42 77 69 23 49 10 7 80 15 71 53 2 67 62 73 50 75 26 20 60 52 63 74 31 76 64 58 9 79 6 46 27 44 55 3 35 4 14 34 12 16 5 21 72 47 61 65 70 57 24 1 48 43 59 41 30 66 54 17 32 8 37 40 45 39 33 13 36 11 22 25 38 68 51
c order 75 48 13 60 28 15 74 12 55 32 57 54 2 6 63 37 3 35 9 51 66 52 69 30 16 58 40 24 64 34 36 61 42 44 59 8 26 38 41 65 25 19 56 46 78 1 43 71 49 21 50 80 5 73 70 53 31 76 4 23 62 20 68 77 33 79 14 47 17 29 72 27 22 7 67 11 39 18 10 45
c order 43 29 26 46 70 8 22 65 13 71 10 5 56 27 9 67 41 24 23 57 47 32 34 36 40 19 74 16 44 12 42 18 62 52 37 28 80 77 3 20 64 25 63 53 61 30 76 60 7 1 50 48 11 58 73 79 4 68 51 49 2 15 45 59 66 17 6 33 14 35 72 54 78 55 39 31 69 75 21 38
c order 55 44 65 13 11 51 33 45 62 4 24 20 73 12 43 48 1 7 17 75 77 47 40 21 41 69 54 22 64 78 23 49 68 37 58 35 79 26 3 38 70 63 14 10 39 59 18 42 8 28 67 74 6 34 30 50 32 66 60 76 5 19 46 53 52 16 56 9 31 57 25 80 2 27 71 29 61 72 36 15
c order 56 42 60 52 1 16 2 49 25 45 33 71 35 50 3 10 7 23 74 54 48 73 68 20 58 75 12 31 38 76 66 5 14 46 69 65 72 63 27 4 8 79 30 18 67 55 39 13 70 11 77 43 28 80 57 21 19 34 37 9 6 26 29 15 36 53 17 32 78 24 41 44 40 61 47 64 59 22 51 62
c order 62 53 37 40 75 41 65 20 59 39 73 68 42 18 74 71 22 46 35 79 6 44 78 14 34 15 57 21 69 76 32 64 1 17 33 30 13 12 45 54 51 24 19 27 72 60 77 26 80 43 50 61 4 8 31 70 25 9 7 23 49 10 63 5 28 48 56 11 36 55 47 66 58 16 3 2 38 29 52 67
c order 23 6 68 4 17 77 24 46 56 20 34 70 5 67 43 57 51 48 55 8 66 36 13 40 35 32 50 47 22 69 31 80 59 52 75 33 37 11 41 16 72 12 71 49 9 44 10 42 39 65 38 21 19 62 79 54 61 2 7 76 18 26 58 74 73 28 3 63 30 78 53 15 45 64 60 25 29 1 14 27
c order 25 80 58 40 18 67 63 57 16 23 46 2 49 5 34 51 20 7 41 66 14 79 38 70 28 31 52 74 77 48 39 42 30 65 59 55 26 19 54 15 69 78 45 53 60 8 17 35 76 62 27 75 73 32 11 72 68 12 33 36 24 22 10 43 6 9 37 71 4 56 13 61 44 29 3 1 21 64 47 50
c order 71 61 59 7 69 51 55 48 12 36 75 19 40 20 29 37 41 1 16 67 73 54 27 46 49 52 6 3 2 38 42 62 28 65 9 39 25 5 68 74 63 79 78 70 10 35 57 56 26 15 60 22 23 34 77 11 50 30 64 18 32 53 47 44 33 58 24 45 66 21 76 8 80 31 4 14 72 17 13 43
p cnf 80 336
65 30 42 0
-75 32 44 0
-58 -21 43 0
-12 -57 -74 0
-4 -71 -61 0
-21 57 13 0
-77 63 37 0
59 57 32 0
-29 -6 -53 0
5 -68 40 0
75 -31 -9 0
-5 -49 -30 0
-11 50 72 0
-61 26 -50 0
25 -48 68 0
67 -9 -50 0
-59 38 21 0
-70 59 -34 0
-2 -66 39 0
66 79 27 0
57 5 21 0
-49 37 -74 0
75 -21 78 0
-43 38 42 0
38 -55 -57 0
-19 -16 -49 0
16 35 -60 0
-73 66 -39 0
-25 39 -27 0
-10 -39 56 0
19 29 46 0
-76 -9 80 0
47 23 68 0
56 -26 78 0
-77 -52 47 0
43 -4 27 0
-2 -18 -76 0
68 -55 12 0
61 -20 -18 0
-2 -43 6 0
58 -77 54 0
-70 -30 50 0
11 5 -71 0
53 43 41 0
15 49 13 0
16 -62 -72 0
65 60 -38 0
26 75 57 0
-77 51 -76 0
22 -60 51 0
11 -33 -58 0
-73 20 37 0
-43 4 36 0
-10 2 -42 0
18 37 -43 0
5 12 47 0
-69 47 -7 0
-39 31 -18 0
-20 44 -39 0
-39 30 -48 0
-3 -61 -72 0
-55 37 3 0
-27 -34 -63 0
26 69 -72 0
36 73 68 0
-50 6 -21 0
-15 -31 -33 0
-26 29 23 0
-53 -45 37 0
-61 -17 24 0
47 -58 -70 0
-11 -6 -12 0
68 -54 -56 0
-28 65 -56 0
70 44 -73 0
78 -14 -36 0
-6 27 79 0
38 -23 -55 0
-2 -7 77 0
-6 69 30 0
-57 65 15 0
56 -22 -16 0
-25 29 37 0
-74 -43 57 0
51 39 -16 0
-72 -26 9 0
-5 -30 -77 0
-71 -48 75 0
19 -18 30 0
-29 -3 -25 0
-42 -23 -41 0
75 -32 -69 0
-67 42 -22 0
49 -75 2 0
-57 4 -62 0
-72 29 -2 0
19 -1 -29 0
25 5 -4 0
-16 66 -63 0
78 63 -79 0
-54 -27 -71 0
-27 -58 48 0
7 47 -72 0
-1 -35 5 0
-33 63 68 0
64 36 5 0
79 -52 70 0
67 -14 -29 0
-70 18 -30 0
-58 -44 -1 0
6 -31 -80 0
-27 4 -66 0
77 -3 70 0
66 36 17 0
-43 61 60 0
78 -49 69 0
53 -30 63 0
25 -11 33 0
50 -69 -16 0
-5 -72 77 0
71 32 16 0
71 -51 -57 0
-58 -18 -64 0
58 70 -37 0
-59 47 -27 0
-31 -47 56 0
58 -62 10 0
-74 -37 52 0
23 21 75 0
12 25 55 0
23 45 -56 0
70 -48 31 0
5 -35 8 0
-24 14 11 0
-27 7 -21 0
-21 75 -31 0
2 -44 -52 0
22 -73 -67 0
73 39 -25 0
-41 35 58 0
7 59 -74 0
-11 65 -9 0
74 12 31 0
19 49 68 0
-28 -62 55 0
-66 50 -57 0
-66 -54 -39 0
-60 54 20 0
14 -36 -34 0
78 38 22 0
-73 48 70 0
23 38 -60 0
11 -62 -28 0
-57 27 54 0
-66 32 79 0
3 -8 -31 0
-33 -65 29 0
-27 -73 -54 0
49 59 -51 0
-3 -57 -29 0
31 -6 58 0
-20 -27 58 0
7 -29 -25 0
-44 -27 -30 0
-71 77 26 0
71 44 -62 0
-45 -21 68 0
-18 -30 -73 0
-26 -42 66 0
15 24 34 0
69 -62 21 0
-52 -16 -3 0
-52 34 -35 0
-43 -23 -60 0
42 -54 39 0
-66 11 -1 0
-61 55 56 0
-13 16 -43 0
-3 32 -79 0
60 -36 -52 0
-70 -64 -13 0
7 17 -34 0
2 -67 14 0
-30 -71 6 0
-10 12 -23 0
-13 23 -70 0
69 -59 -14 0
2 -64 -30 0
70 49 46 0
63 39 -52 0
50 28 75 0
-13 -2 76 0
-13 56 6 0
69 25 -57 0
42 25 80 0
-71 -59 56 0
12 48 -18 0
-38 33 6 0
-54 37 -77 0
-27 8 60 0
-57 38 14 0
-25 29 26 0
50 41 -69 0
-62 66 35 0
30 3 -65 0
-56 47 44 0
10 47 -61 0
78 -73 20 0
50 -31 -11 0
15 63 50 0
-5 70 -78 0
-55 57 -9 0
17 28 -8 0
-50 61 80 0
50 44 73 0
56 -18 27 0
-55 -56 36 0
57 -61 1 0
-15 -27 -34 0
37 55 -11 0
-28 -31 -60 0
60 -55 61 0
57 27 -48 0
79 -47 -75 0
35 -50 14 0
72 -6 -27 0
38 59 -76 0
-73 44 -79 0
-58 44 43 0
-22 -60 -79 0
31 -32 42 0
21 13 -4 0
-76 65 57 0
-70 -28 -42 0
63 3 -27 0
45 78 -13 0
-79 14 -19 0
63 -22 -65 0
-17 76 -1 0
2 20 13 0
-14 4 42 0
70 -76 -62 0
-4 -5 -28 0
-11 52 23 0
63 41 27 0
-20 -60 4 0
80 -54 60 0
-52 26 80 0
-67 -19 -50 0
46 -23 8 0
78 -31 49 0
71 42 -33 0
-80 18 60 0
-62 -53 57 0
-69 9 17 0
14 -31 -27 0
-22 -24 -5 0
-59 56 -77 0
-48 -49 -51 0
46 59 55 0
23 -34 31 0
-25 38 -6 0
-33 -79 67 0
-77 -67 43 0
-72 3 8 0
4 -5 30 0
-39 -52 54 0
-77 -47 -44 0
14 -28 42 0
-30 -62 5 0
-3 -12 -60 0
72 -12 24 0
14 -22 39 0
33 5 -45 0
-73 -17 61 0
53 45 -3 0
-40 27 -53 0
80 -73 22 0
-63 66 -5 0
-69 53 -22 0
-4 -31 -46 0
76 78 4 0
-58 3 55 0
77 15 -26 0
36 31 -56 0
19 -65 3 0
-62 24 42 0
28 -11 -52 0
48 7 27 0
-14 76 -47 0
-67 25 -47 0
31 37 -65 0
-56 1 -16 0
30 3 68 0
59 -61 -41 0
69 39 14 0
45 -57 8 0
42 -3 -6 0
49 72 47 0
25 26 -32 0
29 -21 -45 0
-53 7 -19 0
63 -66 -76 0
77 26 -61 0
-33 -64 3 0
-13 -38 80 0
-77 18 7 0
12 -5 71 0
76 67 -23 0
76 1 31 0
-51 -15 -3 0
-71 -45 -69 0
29 53 2 0
9 80 33 0
-22 -18 -6 0
40 37 52 0
74 -39 -54 0
-76 -42 11 0
-53 -3 1 0
-61 60 -35 0
-47 -26 -60 0
27 -37 -15 0
-48 -57 51 0
20 68 -26 0
21 65 63 0
-58 59 27 0
-54 70 22 0
4 -2 55 0
-16 -4 -71 0
-74 59 -52 0
-29 12 -7 0
-12 19 77 0
70 -40 21 0
-27 -29 -43 0
57 -79 -48 0
-74 -58 66 0
