c family=3-SAT n=80 instance=7 seed=2573548008 models=764
c order 34 14 75 66 21 53 79 78 27 42 1 55 17 13 28 35 32 12 37 30 45 9 25 24 58 62 50 72 44 40 15 77 4 2 65 7 22 20 73 68 8 71 61 23 57 19 74 36 51 46 60 69 38 18 70 76 59 47 80 3 49 6 67 29 56 64 10 33 54 39 63 11 31 16 5 43 26 41 52 48
c order 37 17 44 51 49 43 33 30 50 62 26 20 59 21 5 61 75 78 55 45 56 64 67 80 73 1 41 54 77 36 11 76 15 71 13 42 22 9 35 8 16 66 53 65 46 40 24 14 12 2 19 31 60 74 72 69 29 47 70 28 23 68 38 79 7 4 63 58 27 32 6 34 52 48 25 39 10 18 57 3
c order 59 30 42 16 15 8 79 53 21 69 4 35 70 39 46 74 61 22 13 47 14 78 55 43 45 3 72 77 63 60 68 73 66 80 65 36 31 50 34 26 29 28 71 23 48 17 25 27 58 11 62 12 38 6 19 18 24 64 44 76 41 56 52 9 20 1 54 7 51 57 49 75 2 10 67 40 32 5 37 33
c order 21 76 70 55 39 22 63 13 53 77 57 79 59 62 2 30 67 60 27 23 42 54 26 47 58 44 66 14 80 56 12 7 16 18 43 29 50 28 24 31 78 20 3 4 32 5 34 40 15 19 35 65 37 73 52 10 45 8 17 33 36 46 41 1 75 72 38 48 69 64 51 74 6 49 61 68 25 11 9 71
c order 43 30 18 40 31 77 59 50 4 52 35 22 34 16 70 60 55 45 49 61 39 26 46 10 7 36 37 64 24 47 54 25 13 73 5 9 33 78 8 69 14 12 74 79 20 6 27 80 48 32 2 38 58 67 65 63 1 17 68 66 3 15 71 19 51 21 53 23 72 62 11 29 41 57 28 42 76 56 75 44
c order 76 72 54 55 41 49 7 19 74 3 51 25 16 39 47 34 48 42 26 60 32 18 9 17 77 33 68 11 45 30 69 62 13 70 43 20 61 35 24 10 8 12 59 71 21 36 52 63 64 53 5 44 46 1 58 27 38 65 37 15 67 28 14 66 4 56 79 23 29 40 2 80 22 50 73 75 78 31 6 57
c order 9 44 46 32 24 26 33 64 37 19 53 18 55 70 47 25 60 43 48 16 42 50 54 27 65 3 23 31 22 69 59 38 56 15 49 58 41 40 72 36 1 45 52 7 21 67 34 51 12 17 5 20 14 4 28 35 66 80 30 61 76 29 39 77 57 10 68 79 6 13 62 73 63 11 74 75 71 78 8 2
c order 7 61 23 50 46 54 20 29 52 17 70 3 26 80 73 76 1 55 13 42 58 27 36 35 28 6 41 11 69 25 30 68 79 63 2 60 78 67 39 57 75 71 40 32 66 4 44 59 74 8 53 43 5 12 62 9 10 49 65 15 77 56 33 16 48 72 47 31 18 34 24 21 64 51 22 38 45 37 19 14
c order 63 24 50 5 3 32 57 35 53 76 68 6 70 14 9 56 25 34 69 80 31 17 43 15 41 36 30 37 75 71 20 49 29 26 67 8 38 61 51 44 66 11 42 10 62 48 2 73 19 12 16 78 28 33 13 52 4 72 27 79 58 18 54 39 65 23 7 77 22 74 46 21 1 64 55 60 40 47 45 59
c order 63 13 36 74 62 56 34 45 58 12 59 54 65 1 55 39 61 52 40 57 42 44 71 14 48 27 15 2 3 5 79 43 75 38 30 22 53 51 25 80 19 4 73 49 41 68 9 69 7 78 6 67 72 50 64 16 66 26 32 76 46 70 31 8 29 47 28 10 11 20 60 23 21 33 24 18 77 37 35 17
p cnf 80 336
30 -42 -28 0
-55 -62 -50 0
-61 57 49 0
-18 -13 -67 0
-79 31 -29 0
11 -14 20 0
-38 -66 25 0
12 -69 77 0
73 27 56 0
16 47 -18 0
63 45 44 0
5 -9 16 0
15 72 -68 0
37 -80 11 0
-53 -23 -79 0
-69 -37 -17 0
-41 75 34 0
12 59 66 0
-77 66 -34 0
21 -44 75 0
74 57 73 0
-50 48 44 0
68 67 -78 0
-63 -47 -62 0
-41 26 9 0
12 -13 -79 0
55 -44 31 0
-3 -79 40 0
59 24 -56 0
64 66 75 0
5 -10 20 0
21 -76 36 0
-57 -10 9 0
51 -38 35 0
45 -65 -26 0
28 -80 23 0
-53 27 -80 0
24 47 -34 0
-13 49 42 0
30 1 49 0
29 -8 -68 0
-27 35 68 0
26 -70 22 0
12 13 68 0
5 66 -3 0
-23 66 -69 0
-51 -63 18 0
38 -78 -11 0
50 71 -18 0
-33 12 -22 0
-75 -39 -62 0
-40 -49 75 0
53 -1 4 0
28 -35 29 0
4 62 -20 0
18 28 -27 0
26 -67 -6 0
-11 70 -42 0
47 24 -76 0
-63 -61 -10 0
65 -63 17 0
-5 -35 -58 0
35 25 79 0
31 -80 63 0
-28 -14 49 0
-39 -13 33 0
-46 -66 -41 0
-8 13 26 0
74 -58 -14 0
40 60 -15 0
68 59 13 0
-10 31 -32 0
-8 68 -2 0
-1 78 -36 0
-32 26 14 0
-38 -60 -62 0
-47 -55 -60 0
-79 -50 45 0
-61 53 -20 0
14 32 -53 0
31 36 -50 0
-61 -66 -71 0
-22 -73 -54 0
38 -45 -79 0
73 14 -12 0
1 4 -48 0
-49 -80 -22 0
16 66 80 0
51 -1 77 0
12 24 -75 0
19 -10 -11 0
61 -80 31 0
45 55 -43 0
-32 39 -21 0
6 -23 -80 0
72 -80 3 0
-62 74 -29 0
-4 15 70 0
-18 -7 54 0
-50 -75 -40 0
-42 -74 34 0
8 6 -33 0
-25 14 15 0
52 23 38 0
39 49 -3 0
-77 -48 -70 0
-8 -6 -67 0
-17 -69 -19 0
52 51 78 0
54 75 57 0
-28 67 11 0
37 40 -50 0
-59 -46 74 0
49 -46 -51 0
-7 -11 -5 0
63 -50 -73 0
-59 46 -54 0
78 26 -51 0
-15 -50 5 0
41 1 31 0
-44 11 -66 0
-79 -59 68 0
54 16 56 0
1 -39 -34 0
-26 -57 -17 0
11 8 -6 0
-26 9 79 0
60 -1 24 0
-45 75 52 0
36 66 39 0
-67 28 -23 0
-46 -34 -18 0
3 -32 -38 0
12 -18 -77 0
-17 -3 69 0
-16 21 -70 0
-34 -36 -5 0
71 -8 1 0
-56 6 -62 0
11 -1 -56 0
17 27 31 0
40 -63 4 0
78 29 -79 0
75 25 -31 0
70 79 -20 0
-45 -64 65 0
79 -62 9 0
-73 71 -44 0
7 -37 54 0
-12 3 -8 0
60 -24 63 0
52 -75 22 0
-50 71 73 0
-78 15 7 0
-48 62 -13 0
64 42 12 0
24 -42 -63 0
-57 39 11 0
-6 5 66 0
-24 -69 30 0
-4 48 7 0
27 -11 44 0
67 34 68 0
44 27 40 0
72 63 67 0
4 -30 -5 0
-39 8 -24 0
-78 24 -5 0
-24 -59 -36 0
16 -29 -53 0
77 -70 -55 0
55 -78 -56 0
6 5 40 0
14 80 20 0
71 -32 -65 0
-11 34 29 0
-48 -39 -77 0
-65 -49 -73 0
-36 -31 7 0
-70 68 -71 0
-5 -29 -56 0
-36 -64 -51 0
41 14 31 0
18 -8 -44 0
-61 24 5 0
-16 11 -59 0
77 33 -31 0
56 -71 41 0
-53 -7 40 0
5 22 69 0
30 12 39 0
51 13 -64 0
58 44 -78 0
68 76 69 0
-56 -47 67 0
-6 -51 37 0
-60 49 -50 0
-58 -43 -35 0
67 -25 11 0
-29 75 -44 0
-71 37 48 0
4 73 -30 0
-9 40 -7 0
-22 77 -13 0
16 -32 -78 0
30 -72 -59 0
17 63 9 0
-49 -56 14 0
16 27 80 0
6 78 -55 0
36 2 -65 0
-27 54 30 0
-11 69 75 0
-73 21 30 0
-75 -39 -53 0
78 31 59 0
-63 -72 -76 0
-44 14 40 0
61 80 -12 0
80 27 -22 0
-2 -42 72 0
35 50 -58 0
73 -5 50 0
16 -26 -59 0
71 49 -13 0
24 -8 -55 0
-63 60 -78 0
-16 -71 -8 0
35 -32 18 0
-31 21 -14 0
40 25 77 0
58 -3 22 0
-15 25 26 0
41 -67 15 0
64 51 -39 0
-25 65 -66 0
30 78 66 0
-53 33 38 0
36 2 16 0
74 75 10 0
51 -57 -25 0
19 -69 60 0
-16 -49 -27 0
-58 19 63 0
10 78 16 0
-71 -44 77 0
80 -59 58 0
39 -30 -62 0
-29 64 -62 0
35 -42 4 0
-16 12 52 0
47 -57 -33 0
12 3 35 0
60 -44 10 0
-8 7 57 0
55 64 -71 0
-66 4 22 0
72 -56 4 0
-21 -69 -6 0
8 -61 67 0
-58 -33 70 0
69 -10 -70 0
-5 10 27 0
-79 80 58 0
25 27 80 0
79 44 19 0
8 35 -1 0
55 3 -1 0
69 -5 -21 0
32 -68 12 0
-43 -8 -35 0
32 20 78 0
-59 -20 -68 0
19 4 -33 0
7 -69 -79 0
22 72 -77 0
73 53 -24 0
71 70 -77 0
74 52 26 0
17 10 -4 0
-67 -11 -6 0
27 9 -48 0
-15 71 24 0
2 -68 56 0
40 31 -7 0
38 26 29 0
-29 -47 -50 0
6 -50 -5 0
-13 15 7 0
-63 -9 25 0
60 -31 54 0
36 -57 -52 0
55 -24 32 0
3 -19 50 0
30 -45 -27 0
-30 46 53 0
79 46 -6 0
-42 36 68 0
65 -3 49 0
70 36 -49 0
68 55 71 0
-29 -67 51 0
-72 36 68 0
51 -80 -37 0
58 -47 -31 0
-30 -8 17 0
5 -40 -21 0
36 -79 39 0
60 72 -62 0
-19 48 -22 0
-55 -30 -31 0
68 -44 -77 0
-20 68 43 0
-77 -12 38 0
5 69 -43 0
6 -47 -34 0
73 -68 -60 0
19 -47 -55 0
-33 53 -2 0
-40 24 -17 0
-8 -36 45 0
-70 77 17 0
-72 -14 -11 0
-75 6 14 0
-61 -33 9 0
50 -74 60 0
-5 4 72 0
-14 50 -26 0
-38 -79 60 0
39 36 43 0
8 43 -78 0
-78 71 27 0
-70 -46 38 0
21 -78 42 0
-33 -1 41 0
50 79 31 0
