c family=3-SAT n=80 instance=6 seed=2573548008 models=2448
c order 56 3 6 60 66 62 59 2 9 72 44 31 16 18 1 71 69 36 10 51 39 78 29 58 23 33 67 46 4 15 21 38 49 52 28 61 77 79 53 45 47 14 70 35 37 40 22 65 64 55 76 24 41 26 43 57 27 73 30 25 80 63 32 19 20 75 50 13 17 34 48 42 12 68 5 8 11 54 7 74
c order 47 56 6 53 38 49 44 72 21 28 48 69 51 60 16 52 12 5 71 1 74 65 70 64 66 17 68 23 11 62 10 45 46 30 18 73 37 76 41 34 40 25 77 42 3 4 33 57 43 14 80 13 8 59 39 2 55 9 75 7 63 20 35 29 79 36 31 61 15 22 24 67 27 26 19 78 32 50 54 58
c order 52 79 41 44 10 31 13 9 32 17 73 42 16 1 80 56 70 58 8 65 18 4 53 68 62 66 40 54 59 46 67 2 50 76 37 30 77 29 23 47 27 34 74 48 14 26 69 72 15 22 49 55 78 43 7 63 38 21 28 61 39 36 51 5 71 19 64 33 35 75 24 11 25 20 60 57 12 3 6 45
c order 3 80 57 18 61 17 23 38 53 54 55 9 65 39 24 48 5 28 66 69 42 35 19 33 36 44 77 72 78 43 26 52 37 50 76 7 71 79 32 68 59 29 74 47 56 21 8 46 25 16 63 10 1 30 49 31 73 12 22 64 75 6 62 60 41 14 15 70 34 67 11 45 58 40 13 27 4 2 20 51
c order 66 71 28 7 19 12 6 48 38 62 56 18 78 44 30 2 68 76 55 14 57 37 8 36 69 59 72 58 32 17 64 49 77 23 34 75 46 5 25 53 43 27 80 13 35 1 47 73 21 26 41 42 45 79 3 22 50 20 52 39 31 33 54 67 60 11 9 16 65 4 70 40 61 24 63 51 10 29 74 15
c order 55 66 48 69 28 60 42 11 52 2 4 76 29 27 19 68 23 8 16 44 64 74 6 38 79 41 5 43 17 14 50 57 75 35 77 71 13 24 80 46 61 18 33 25 70 12 37 31 40 20 72 54 58 30 59 67 34 15 65 1 32 47 21 9 3 49 62 10 53 73 36 51 63 45 78 7 26 56 22 39
c order 17 4 60 55 11 30 2 65 12 3 39 16 41 25 71 21 9 23 79 7 8 56 69 80 75 54 58 6 76 27 52 53 63 37 43 1 14 26 20 66 5 34 77 74 18 73 10 62 59 28 57 49 13 70 38 64 33 36 35 32 47 46 15 67 19 24 68 48 61 22 72 51 31 78 50 45 42 44 29 40
c order 30 65 17 43 73 36 6 77 72 45 60 56 40 3 44 5 14 35 69 32 80 75 37 62 79 53 58 12 55 27 66 21 54 41 52 18 29 23 19 49 33 25 15 34 2 46 68 50 47 28 51 76 22 26 9 64 10 59 24 42 57 38 7 16 78 48 20 39 31 4 8 61 13 63 71 11 67 1 70 74
c order 38 18 53 31 66 13 74 40 59 61 26 67 72 1 42 51 15 62 21 41 77 9 24 23 63 39 54 56 14 47 73 3 19 52 25 80 32 34 50 29 17 76 78 27 43 33 75 37 30 64 65 28 46 12 22 70 6 44 20 58 7 45 49 60 8 5 79 69 2 36 57 4 68 10 35 71 55 16 48 11
c order 32 69 5 22 52 46 40 25 10 44 11 54 68 58 26 48 71 4 6 67 15 1 7 64 27 75 17 65 14 13 72 33 39 28 42 36 51 34 77 50 62 16 60 79 45 59 57 19 37 43 38 49 66 23 9 78 55 63 31 76 24 35 73 2 21 20 12 70 74 47 41 29 30 8 3 56 61 18 53 80
p cnf 80 336
53 -50 59 0
-60 -7 50 0
22 -54 -78 0
65 -67 36 0
53 47 -2 0
-12 -1 56 0
60 3 -53 0
68 53 -28 0
-19 -56 14 0
-26 51 -48 0
72 67 -43 0
64 35 -23 0
70 -42 -41 0
-7 56 15 0
-6 -19 80 0
31 -53 28 0
-43 79 72 0
13 31 -2 0
29 -18 63 0
-71 22 2 0
34 -77 71 0
-78 -80 28 0
66 35 43 0
-63 -42 -22 0
46 -45 13 0
-39 -4 25 0
-16 27 60 0
-59 -8 -77 0
27 75 -10 0
-5 13 72 0
-74 9 -62 0
-10 -62 -79 0
36 -13 -63 0
30 4 -75 0
-74 -1 7 0
-18 -44 66 0
-9 -10 58 0
-74 -6 -33 0
28 47 -27 0
-68 -22 -52 0
-42 -65 -76 0
-24 -29 -31 0
79 -70 1 0
33 -24 21 0
-28 36 12 0
66 -33 -43 0
1 29 3 0
-13 -46 58 0
15 -7 77 0
25 13 28 0
-13 39 -61 0
-34 69 -60 0
-19 -75 -74 0
48 -20 24 0
35 50 -71 0
23 -64 -70 0
-4 19 35 0
-49 -24 5 0
-59 -55 -34 0
64 -48 32 0
3 -60 14 0
-12 71 -58 0
23 61 57 0
-21 -78 -51 0
-41 -64 -46 0
22 29 -3 0
-52 26 72 0
-27 -21 -30 0
16 6 29 0
72 -70 76 0
29 -24 -8 0
-52 -59 -11 0
46 -48 -73 0
-40 -5 -54 0
-54 57 -51 0
-26 7 67 0
57 31 2 0
-48 -6 -70 0
21 -20 67 0
23 1 -18 0
-14 -1 72 0
-31 -80 78 0
24 -7 -64 0
25 64 22 0
31 23 78 0
-56 47 20 0
48 -40 72 0
50 -72 28 0
-77 17 -53 0
19 8 65 0
12 -71 79 0
-74 -52 -63 0
-27 -4 17 0
50 -58 -80 0
36 -61 -72 0
43 50 9 0
5 -67 11 0
-6 34 -66 0
37 62 -8 0
42 43 47 0
18 -20 -76 0
24 71 -19 0
9 -46 13 0
-78 -37 -64 0
-63 20 -70 0
28 58 -20 0
55 -70 44 0
-18 -30 -38 0
7 34 51 0
-10 66 -80 0
-78 25 37 0
-29 2 -40 0
-38 -49 54 0
-27 14 -34 0
31 -44 -10 0
67 -37 -22 0
-31 -70 -28 0
-52 -61 -27 0
34 -49 -62 0
-5 36 -74 0
-75 -73 -26 0
16 52 -61 0
-29 -55 50 0
-52 -32 31 0
-33 -77 18 0
-63 -30 32 0
-15 6 -2 0
-33 46 56 0
-22 -31 -26 0
-51 -13 -62 0
10 -69 34 0
-20 -23 -50 0
59 -46 68 0
-50 -52 -63 0
-27 -35 5 0
-80 40 -73 0
-3 -43 32 0
-69 -15 19 0
60 -75 40 0
15 20 18 0
24 16 -33 0
-74 -18 -31 0
-23 50 28 0
42 32 -29 0
2 -77 -67 0
24 -58 66 0
33 18 -49 0
57 -38 -62 0
-64 30 14 0
-44 70 72 0
68 54 -16 0
10 66 -58 0
43 -64 -78 0
64 55 -46 0
-30 42 8 0
-17 42 -55 0
41 47 -66 0
65 51 -3 0
-27 67 36 0
-71 -49 26 0
66 33 -31 0
5 -55 -33 0
70 56 45 0
36 -59 -31 0
52 -30 -58 0
-13 79 52 0
56 58 76 0
-66 -67 3 0
78 -13 -10 0
50 54 74 0
77 28 4 0
-24 17 44 0
-6 28 -48 0
-39 -21 77 0
-12 -58 -56 0
76 -79 -3 0
-75 -25 53 0
53 -4 -70 0
16 -76 -44 0
46 -44 1 0
-79 -36 -59 0
14 -42 32 0
3 9 -7 0
-64 -77 29 0
-23 49 75 0
-60 -7 59 0
14 -6 66 0
-57 67 -26 0
21 -32 51 0
5 -26 78 0
6 3 -48 0
63 -31 -78 0
-18 -33 35 0
-7 -35 -60 0
70 -42 30 0
-36 -20 -80 0
-48 -11 80 0
-60 -54 52 0
-32 -64 -2 0
-19 -26 79 0
-75 -65 4 0
19 -44 59 0
47 21 16 0
-42 -10 -43 0
-25 67 -53 0
9 -74 -28 0
-5 -27 -56 0
65 34 -45 0
76 -41 39 0
-28 -8 -9 0
-16 -29 17 0
72 -8 6 0
-11 15 44 0
-48 30 -45 0
47 67 -16 0
49 -4 2 0
-35 61 -22 0
38 -34 55 0
58 7 -16 0
-6 20 -35 0
-80 64 21 0
4 58 18 0
-32 -56 -2 0
-71 -42 66 0
-77 -43 -23 0
38 -77 76 0
38 57 63 0
-4 -60 -32 0
80 -75 28 0
-59 -80 -31 0
33 79 27 0
41 -23 -76 0
66 77 -58 0
-37 -4 49 0
2 3 -1 0
-29 -8 78 0
-29 3 36 0
22 31 5 0
-67 -3 -77 0
-42 -9 -33 0
-52 61 -2 0
-16 -20 -59 0
6 18 -30 0
59 17 71 0
28 71 -29 0
47 -33 39 0
-72 -4 36 0
-35 -31 -70 0
60 80 -79 0
-10 31 -50 0
-69 64 -70 0
-36 27 -46 0
-75 40 33 0
34 1 58 0
42 -9 -36 0
67 34 -53 0
28 50 18 0
-52 -31 41 0
-20 -76 -34 0
-75 76 2 0
-43 -75 48 0
-5 68 36 0
14 65 49 0
-1 -68 -30 0
28 -31 52 0
38 71 -19 0
67 -77 48 0
14 27 -56 0
-42 -1 38 0
69 51 -47 0
67 79 36 0
26 18 -33 0
-68 -32 42 0
-79 18 78 0
-12 -33 -5 0
26 -31 -16 0
-5 20 78 0
-1 -54 28 0
-69 63 -61 0
71 5 -74 0
73 -2 -40 0
59 29 -42 0
-38 27 50 0
-39 -22 76 0
41 24 -26 0
80 54 23 0
-79 -57 44 0
-78 -30 -56 0
61 13 21 0
-55 -36 34 0
-3 -57 -15 0
14 -4 -35 0
30 -38 -61 0
77 59 40 0
64 76 12 0
75 -69 -64 0
-64 -76 62 0
-26 -11 -4 0
57 -2 -11 0
45 60 69 0
-80 44 11 0
-66 -8 23 0
-45 -2 -34 0
39 -32 34 0
-3 -37 -57 0
-65 59 -15 0
57 -53 27 0
-67 -56 -8 0
-40 -16 -9 0
69 -61 -48 0
5 14 -31 0
63 -58 17 0
78 57 -2 0
71 -68 63 0
70 -9 39 0
-1 27 -47 0
65 11 7 0
14 33 -23 0
9 -37 -33 0
78 -25 43 0
-42 64 80 0
54 -27 -44 0
-25 -39 -57 0
-75 -20 -48 0
-24 -56 -10 0
76 -50 -57 0
61 -43 26 0
2 48 -66 0
-48 -15 70 0
15 -56 60 0
14 -51 57 0
63 79 -5 0
-45 47 14 0
66 -12 -15 0
-50 -33 64 0
8 -12 -49 0
