c family=3-SAT n=80 instance=0 seed=2573548008 models=11928
c order 54 59 61 47 33 8 64 32 15 44 14 30 18 13 43 69 56 70 23 3 7 27 35 36 41 31 28 62 63 45 29 40 5 11 77 2 80 6 60 9 52 12 71 72 25 68 20 51 55 67 42 21 39 24 53 37 66 48 76 58 10 34 78 26 38 46 4 79 75 1 49 50 17 57 73 65 74 19 16 22
c order 38 70 56 35 45 24 15 59 54 68 27 61 26 11 40 5 18 19 67 22 44 41 4 64 52 30 23 72 62 79 20 51 31 74 13 53 73 28 69 21 14 33 3 34 80 10 43 16 55 48 77 66 75 76 25 57 8 47 71 7 60 32 17 1 12 58 63 46 65 6 36 78 2 42 39 49 29 37 9 50
c order 13 35 21 79 80 17 36 25 8 58 67 42 76 69 29 60 73 38 28 2 26 23 20 63 47 55 71 49 5 32 16 62 46 59 3 37 30 4 57 12 41 75 66 77 65 33 24 61 53 11 18 7 14 1 15 74 9 44 54 43 78 50 68 19 34 40 6 27 31 72 48 51 70 56 10 22 64 52 45 39
c order 1 72 23 37 8 80 26 54 33 53 20 10 60 30 24 12 41 65 48 73 16 34 52 21 57 50 43 19 9 63 15 51 79 38 71 69 64 68 74 66 28 75 42 44 29 4 11 56 49 31 77 36 7 39 6 22 2 59 13 76 47 5 45 46 61 18 35 3 25 14 27 78 67 70 17 58 62 32 55 40
c order 21 48 65 1 62 61 63 77 29 39 51 13 46 40 34 7 69 10 76 71 26 50 80 42 17 53 4 22 67 56 54 43 37 58 5 27 6 9 47 33 12 8 55 79 49 44 60 74 36 15 18 70 20 3 59 24 16 31 28 35 66 25 72 75 32 23 73 78 2 52 64 45 57 30 68 11 14 41 38 19
c order 71 39 78 67 18 6 72 14 74 30 29 12 28 20 73 36 47 53 42 51 13 2 11 16 26 15 24 33 60 10 65 49 17 25 48 50 70 54 77 31 52 59 7 5 4 32 62 68 3 43 9 19 38 69 80 21 58 79 56 8 61 1 45 41 46 64 27 57 76 35 40 55 34 23 75 22 66 63 37 44
c order 46 41 7 2 30 64 5 69 11 65 68 48 14 32 8 37 53 45 1 35 43 6 26 47 15 77 60 44 3 63 51 18 33 74 54 55 25 76 10 50 71 57 20 24 12 73 23 22 9 13 40 39 79 4 36 59 75 70 49 56 61 78 21 52 19 62 31 58 29 72 38 80 17 27 28 66 34 16 42 67
c order 45 53 79 71 33 22 11 30 34 20 51 68 65 44 58 59 8 77 25 32 1 29 38 27 76 28 50 37 17 46 18 36 3 15 56 40 49 9 41 7 23 35 12 63 62 2 80 31 6 4 72 54 67 61 16 14 19 42 52 66 26 10 5 21 47 78 57 60 55 48 43 24 73 75 74 13 69 70 39 64
c order 64 74 79 71 13 66 47 43 2 39 6 18 11 57 78 30 23 42 29 76 68 22 70 54 44 50 21 24 26 49 67 65 20 45 55 3 75 36 37 48 15 80 19 33 16 59 73 34 53 35 32 1 69 28 58 63 14 52 25 61 40 10 72 27 60 7 46 62 77 31 5 8 9 17 4 51 56 12 41 38
c order 34 11 54 7 19 21 24 63 32 2 10 17 69 58 52 77 59 15 45 39 75 35 57 67 31 72 53 33 8 5 71 37 36 55 68 27 74 4 79 47 22 62 70 60 23 73 20 26 64 25 76 16 78 6 42 28 13 48 50 18 66 65 30 1 80 40 43 9 12 49 46 56 29 14 41 44 61 3 38 51
p cnf 80 336
73 -28 -29 0
-79 4 33 0
-78 -9 43 0
29 -10 74 0
1 73 70 0
41 -72 -15 0
52 8 -16 0
-20 -42 -62 0
10 71 -16 0
48 -56 -2 0
-67 -53 -50 0
36 65 47 0
30 34 -7 0
11 -36 -39 0
-10 -22 -59 0
59 44 67 0
-4 -55 -54 0
-77 -27 -22 0
63 18 -68 0
-38 -7 -39 0
-42 20 35 0
11 -55 -38 0
-48 41 36 0
-2 69 18 0
-49 57 28 0
57 51 -63 0
-66 -16 -71 0
56 -69 -43 0
-20 19 4 0
-44 21 59 0
-11 30 58 0
-13 73 68 0
44 -10 -47 0
42 -26 66 0
-78 -58 75 0
64 19 -18 0
59 -67 61 0
80 -17 -76 0
-16 -11 58 0
-2 44 -37 0
-23 -14 -53 0
-23 -17 -22 0
79 7 -12 0
-71 -78 -40 0
64 -53 -78 0
-61 -38 -48 0
79 21 -52 0
-69 78 -3 0
-55 -65 23 0
17 62 22 0
-46 -63 78 0
59 -52 58 0
-40 -46 37 0
-28 68 61 0
11 -70 -47 0
51 -28 -79 0
60 55 6 0
9 -68 -50 0
48 43 -72 0
1 -80 -27 0
-6 -73 -16 0
-50 -68 -22 0
62 -58 75 0
27 -59 5 0
-33 -6 12 0
27 54 60 0
-54 6 26 0
-30 -61 -36 0
48 52 -33 0
-72 36 -35 0
-33 -68 -23 0
52 28 65 0
-49 40 52 0
77 78 22 0
60 -8 32 0
-48 -2 38 0
79 -22 17 0
-6 42 -71 0
-65 -42 3 0
19 61 -8 0
-6 18 -71 0
-47 -14 -41 0
45 77 -70 0
4 -13 -11 0
6 35 -14 0
-30 -8 20 0
57 -14 -36 0
60 70 -40 0
58 31 62 0
-65 -9 60 0
-45 66 -51 0
-20 57 18 0
-23 -1 -11 0
31 -37 -43 0
60 -35 -58 0
36 68 10 0
-78 -63 26 0
-11 -24 43 0
-74 62 32 0
-27 -25 -68 0
5 -8 21 0
41 -7 -58 0
-44 79 -29 0
40 -21 -4 0
46 -5 37 0
45 -29 -27 0
34 -52 18 0
79 -3 26 0
21 80 -45 0
9 -18 77 0
37 -71 20 0
35 29 -59 0
-75 -73 42 0
-21 59 2 0
-25 -76 -49 0
55 -23 -63 0
-60 8 80 0
36 15 75 0
47 68 58 0
78 -29 17 0
4 68 59 0
-4 17 48 0
59 -70 -64 0
56 38 8 0
5 -52 65 0
11 79 -53 0
-48 25 29 0
-10 69 79 0
2 31 -11 0
-7 63 66 0
25 -57 33 0
76 -53 42 0
-36 52 -42 0
20 -30 54 0
-46 -43 56 0
80 36 41 0
-9 -21 61 0
54 -38 24 0
-60 -16 37 0
-49 -66 -20 0
-21 -36 -7 0
-24 -8 26 0
13 23 -35 0
4 -18 -57 0
45 -30 16 0
-23 46 10 0
-16 9 39 0
58 -44 52 0
34 -44 -68 0
-76 71 -43 0
-37 7 51 0
20 -29 64 0
-77 22 -55 0
-5 70 -32 0
58 37 -67 0
-24 -36 52 0
-78 16 -73 0
33 26 -59 0
-31 76 -56 0
51 -74 52 0
39 -4 -9 0
-63 -10 23 0
13 -78 -53 0
-42 15 79 0
-45 7 -8 0
76 -27 2 0
78 -14 74 0
-73 72 -3 0
54 -23 -42 0
3 -34 -17 0
-35 51 1 0
50 -24 -47 0
-40 80 -66 0
65 -67 32 0
29 -28 -50 0
-8 -5 -71 0
-34 -41 -49 0
50 53 57 0
17 76 58 0
-52 -45 -15 0
56 44 -27 0
66 -57 -44 0
-1 -15 -68 0
-35 71 63 0
-68 22 70 0
-78 -45 11 0
-35 -2 -65 0
-80 58 -68 0
-22 -2 -29 0
-77 71 64 0
60 80 53 0
-12 32 -48 0
32 34 -1 0
62 -6 -19 0
-68 -77 27 0
-18 -40 -72 0
-47 -44 37 0
37 -12 62 0
68 42 -10 0
17 76 63 0
-52 -9 -17 0
16 48 78 0
-30 -49 78 0
-26 46 -76 0
-53 35 7 0
-13 30 76 0
74 -36 13 0
-37 -24 60 0
-23 63 62 0
-68 55 -61 0
32 -9 -8 0
62 7 55 0
80 -33 11 0
24 45 -18 0
25 4 69 0
79 -63 -17 0
-62 23 -77 0
-13 -36 -39 0
10 -9 23 0
67 -42 79 0
-66 2 -5 0
-7 29 6 0
-55 -32 47 0
72 -47 53 0
63 4 30 0
-49 19 78 0
-5 -33 20 0
1 2 10 0
-20 -76 74 0
-14 -42 -50 0
-41 28 -77 0
-61 77 35 0
-9 5 -71 0
-13 46 18 0
8 37 7 0
-80 26 62 0
45 -19 7 0
-5 56 -27 0
-8 79 -32 0
70 37 1 0
35 12 -68 0
-28 -51 -11 0
-74 -60 10 0
-17 61 31 0
-65 39 -52 0
-56 -21 50 0
50 43 72 0
47 -42 1 0
-59 -14 -13 0
50 -28 -5 0
72 4 -78 0
-70 45 59 0
-76 32 -74 0
73 45 -35 0
64 -22 -71 0
22 67 10 0
27 -30 -3 0
-17 -63 -6 0
-18 -14 -74 0
45 -6 -39 0
47 -32 -35 0
76 47 30 0
-55 -24 9 0
-65 48 -19 0
17 -40 -43 0
11 -28 -32 0
-23 -31 -26 0
76 78 -68 0
-43 -3 29 0
24 42 13 0
38 -5 48 0
46 44 -42 0
-36 -26 -2 0
50 -67 -7 0
-9 -52 -32 0
24 4 -23 0
-29 71 16 0
77 -60 -31 0
-59 15 -50 0
60 3 -68 0
-31 -68 -27 0
-17 -33 71 0
16 45 -38 0
-47 54 -9 0
-77 22 43 0
24 -54 44 0
-23 -22 -24 0
-31 34 -10 0
-13 35 37 0
53 38 70 0
-37 3 63 0
74 -26 -24 0
63 72 51 0
-28 15 65 0
80 61 44 0
-55 33 -11 0
62 12 -34 0
-46 45 -78 0
-58 -72 54 0
-8 -79 80 0
7 72 24 0
8 -44 -36 0
51 -9 70 0
-77 72 31 0
-55 46 -38 0
6 41 -20 0
53 -45 -50 0
73 -52 -4 0
-58 68 45 0
54 59 1 0
-21 30 -49 0
-40 51 66 0
30 -14 31 0
29 63 -16 0
53 74 -34 0
5 77 -21 0
-2 11 -68 0
-3 -27 1 0
-52 -41 74 0
-16 -31 45 0
55 42 37 0
5 -9 40 0
71 -22 72 0
12 1 55 0
58 -75 11 0
-56 -78 30 0
29 73 -58 0
-27 -34 24 0
-61 -28 50 0
62 48 -9 0
-45 6 -15 0
73 -17 -10 0
3 -29 61 0
-16 -74 -37 0
14 -43 69 0
57 -48 -20 0
