c family=3-SAT n=80 instance=9 seed=2573548008 models=8992
c order 63 51 41 71 24 34 79 62 9 73 75 74 18 76 20 66 69 57 54 53 70 6 12 4 14 16 45 36 72 27 56 37 21 40 59 32 5 13 10 50 11 30 60 19 28 43 47 2 55 78 38 67 7 46 65 61 23 35 29 22 25 31 52 26 44 15 49 1 8 68 3 80 48 42 39 77 33 64 58 17
c order 40 23 11 77 13 46 34 62 41 6 60 67 75 63 51 54 21 76 48 61 65 12 49 2 71 1 28 43 17 39 10 59 18 32 31 68 58 70 16 27 4 29 64 20 44 22 37 55 26 73 57 74 78 36 42 9 14 25 50 47 53 8 24 80 3 35 33 5 30 79 45 72 38 52 66 69 15 19 7 56
c order 38 28 33 75 7 79 50 11 14 62 37 73 54 78 48 65 22 5 12 63 46 6 18 2 30 35 57 36 52 64 9 72 32 1 56 21 43 53 16 4 13 26 15 8 19 59 60 47 34 66 25 45 70 76 80 69 3 23 20 17 67 31 71 51 41 10 40 68 58 29 55 49 44 27 39 61 77 74 42 24
c order 28 22 9 79 64 72 73 51 54 21 7 45 11 39 30 26 56 13 62 57 5 71 8 14 76 34 50 78 61 69 63 53 3 18 2 66 29 49 27 12 16 37 68 47 52 31 19 77 35 23 55 43 80 15 46 70 25 42 32 6 17 36 48 41 75 65 10 58 4 24 60 20 33 67 74 59 38 1 40 44
c order 51 75 74 17 26 13 76 2 68 33 47 18 54 12 14 31 34 15 23 9 56 44 60 62 8 79 64 55 25 48 80 58 65 43 22 16 72 39 6 59 24 35 32 42 53 63 49 5 3 61 71 4 52 67 7 27 69 45 19 38 11 29 41 70 10 46 50 77 1 20 36 28 57 30 73 40 21 78 37 66
c order 20 25 37 66 80 75 3 69 19 49 26 14 78 47 15 36 74 46 54 22 24 27 1 11 29 17 50 5 23 59 39 18 57 9 16 12 32 79 8 40 21 28 35 33 76 43 34 58 65 7 73 63 10 30 62 48 44 68 64 42 51 67 31 72 6 52 55 70 56 60 61 38 41 77 53 4 13 2 45 71
c order 34 71 5 24 9 68 19 22 46 39 67 66 54 2 31 26 12 30 33 35 62 7 77 41 16 75 36 37 45 20 69 13 52 63 76 59 8 17 14 72 49 32 4 27 29 74 42 80 70 15 21 58 43 73 25 61 51 60 10 28 64 65 55 48 3 44 11 38 79 1 57 53 78 56 6 23 18 40 50 47
c order 14 20 16 22 65 75 6 17 32 44 34 27 3 30 61 54 78 52 36 19 43 63 40 9 46 69 70 5 24 62 66 18 31 29 49 10 77 79 25 23 2 73 56 64 4 71 33 26 1 38 60 41 12 13 76 80 67 55 8 72 51 39 68 42 45 59 21 15 50 57 58 37 11 35 74 53 48 47 7 28
c order 61 11 48 37 3 78 21 54 49 76 23 52 80 50 74 9 69 60 41 43 35 70 7 4 79 56 32 71 12 42 38 28 62 58 18 59 10 13 72 63 22 1 55 75 34 2 26 57 77 64 36 31 40 73 47 20 53 8 30 19 24 25 16 68 29 66 27 44 65 6 45 33 17 67 15 5 46 14 39 51
c order 28 80 68 55 21 24 63 62 76 20 9 27 59 35 44 57 45 75 1 49 78 6 31 73 16 51 53 38 5 46 50 33 42 18 70 15 67 29 43 54 64 47 3 34 8 25 10 61 26 66 39 74 23 7 40 77 2 48 4 65 30 56 14 79 60 69 13 72 22 12 36 32 19 58 41 52 11 71 17 37
p cnf 80 336
-28 -1 -76 0
45 33 -69 0
-38 76 36 0
-35 71 -60 0
-10 4 -12 0
-79 -72 52 0
35 -5 74 0
-15 49 59 0
-10 30 39 0
43 18 38 0
-66 68 -14 0
32 52 29 0
-41 -49 6 0
46 78 13 0
10 64 -38 0
13 67 -31 0
-1 -45 -19 0
75 -37 -55 0
-71 -69 -53 0
76 -48 19 0
-44 60 -70 0
55 70 -5 0
-8 -40 60 0
61 -62 29 0
28 17 29 0
-3 -22 62 0
80 -54 43 0
79 -21 40 0
-27 -48 17 0
-5 -4 -22 0
68 -11 -46 0
-15 10 42 0
-75 -71 21 0
-34 -40 46 0
-29 -15 -31 0
15 36 56 0
-60 16 -75 0
21 63 25 0
-12 -71 30 0
-40 -73 -25 0
-23 55 11 0
-22 -77 62 0
-6 -28 20 0
-28 -54 -40 0
-32 59 46 0
-1 49 35 0
59 47 42 0
-40 74 -27 0
61 7 44 0
32 15 45 0
-78 63 6 0
37 22 -31 0
-51 10 -55 0
11 6 -77 0
50 21 25 0
-65 63 -13 0
-51 -46 7 0
11 63 68 0
58 36 25 0
-54 -64 -59 0
58 73 -21 0
64 63 -46 0
31 12 77 0
-27 -53 -79 0
24 -23 69 0
-79 52 39 0
-59 2 -56 0
23 58 15 0
-46 -74 -48 0
63 35 37 0
46 61 47 0
-66 -64 60 0
16 39 9 0
24 70 26 0
78 -71 66 0
23 16 73 0
52 -14 -50 0
2 22 42 0
-35 -2 32 0
-12 -32 73 0
-36 -75 17 0
-69 -13 -67 0
5 -69 37 0
-53 54 31 0
-75 -8 -58 0
-65 -76 -13 0
36 3 21 0
-37 -51 67 0
-75 -70 -29 0
-9 -80 -58 0
-16 -6 -55 0
10 -69 21 0
-8 -38 -2 0
-57 73 -10 0
31 -70 -74 0
-51 52 49 0
72 11 -26 0
-57 35 4 0
-28 -67 -53 0
-79 -58 -46 0
-76 17 -34 0
36 33 67 0
44 55 74 0
-29 -47 -11 0
63 -8 -37 0
-14 -35 64 0
-15 -51 65 0
-48 -61 -4 0
41 -19 -61 0
-15 36 42 0
76 -54 -3 0
-30 39 40 0
-41 23 -26 0
80 -18 -78 0
44 -52 -14 0
-57 4 39 0
48 8 66 0
-74 -13 26 0
-41 50 80 0
40 55 -66 0
-41 35 48 0
-24 -69 18 0
-26 -5 73 0
-32 4 -76 0
75 -37 64 0
44 -3 -31 0
50 -64 -44 0
39 53 45 0
-31 26 -29 0
-16 67 -65 0
54 -27 11 0
26 36 53 0
74 45 37 0
-79 -75 31 0
-9 -56 -45 0
-59 50 80 0
16 40 46 0
-58 77 -8 0
49 26 -8 0
-62 -57 53 0
-27 -71 77 0
51 20 67 0
36 54 23 0
-28 -76 60 0
-27 -28 74 0
23 55 -12 0
-77 35 29 0
-54 3 -71 0
47 -67 -68 0
-46 32 -77 0
-1 63 37 0
78 49 20 0
28 -20 -70 0
23 11 -54 0
-6 77 55 0
-30 56 42 0
-41 48 -17 0
-69 -63 -28 0
42 55 24 0
33 80 65 0
-11 76 -67 0
10 -66 -14 0
24 -59 -15 0
-61 68 50 0
11 20 3 0
-56 -36 35 0
-54 59 14 0
73 66 -26 0
10 66 -25 0
-32 17 43 0
-51 60 54 0
50 -39 5 0
-41 25 12 0
2 75 47 0
-48 -29 -69 0
-54 59 -52 0
60 -38 28 0
-58 31 -7 0
66 -79 68 0
-49 -11 -40 0
-24 79 51 0
-75 -31 -60 0
-39 64 -60 0
75 23 -60 0
-5 16 44 0
-18 76 -13 0
-4 -29 -38 0
68 -52 -60 0
34 12 -43 0
28 -10 19 0
-64 31 3 0
-53 -59 41 0
-64 7 75 0
-27 18 20 0
-62 42 26 0
-49 -20 -46 0
66 -70 -57 0
-78 75 -35 0
-33 24 78 0
-62 75 2 0
-18 61 -46 0
30 -51 -3 0
39 15 -46 0
-26 -80 -27 0
35 -69 -46 0
-68 48 -62 0
-29 -72 40 0
-80 -64 -13 0
-41 -65 -49 0
-62 -25 1 0
70 -27 68 0
4 -66 21 0
-10 54 6 0
-26 74 -66 0
-48 32 -29 0
-64 43 51 0
12 64 56 0
-67 -34 -70 0
6 -2 -69 0
-78 -9 -32 0
23 22 40 0
7 67 3 0
-24 -68 54 0
18 -27 30 0
-42 59 -19 0
15 74 8 0
-46 11 -20 0
-78 38 77 0
47 -31 -5 0
2 33 -54 0
-59 -52 -19 0
2 7 -62 0
38 16 20 0
18 21 -17 0
-50 -1 4 0
-8 52 -77 0
-43 63 58 0
45 70 -41 0
-32 39 -41 0
-44 36 76 0
-22 25 -57 0
60 72 7 0
-3 -21 22 0
37 -22 49 0
-60 -12 61 0
-67 -19 37 0
-44 -79 35 0
37 -8 -74 0
61 16 -33 0
25 58 -31 0
62 -78 27 0
-55 43 -15 0
-37 -16 68 0
-20 45 -73 0
-23 -17 -8 0
69 5 -68 0
-52 -34 36 0
75 19 -39 0
52 70 -5 0
52 -39 14 0
54 -77 -50 0
23 11 61 0
-30 -75 -52 0
-11 29 42 0
26 -58 -27 0
5 -56 19 0
64 -62 51 0
43 -54 8 0
-60 -1 41 0
-9 74 -24 0
-55 73 -8 0
8 66 -21 0
-2 -48 -54 0
5 28 14 0
-76 -74 -37 0
28 -16 65 0
56 10 -59 0
-4 -31 -51 0
-7 -52 -49 0
-51 73 45 0
-51 -80 61 0
-58 -38 -28 0
69 48 36 0
-8 26 34 0
-28 -54 40 0
-40 -2 26 0
19 37 -53 0
70 -23 -46 0
7 -27 -22 0
30 -7 -72 0
-36 30 53 0
35 75 40 0
34 -62 -75 0
-10 -30 29 0
77 37 -19 0
14 -21 -30 0
-47 68 44 0
-14 15 -34 0
-12 -8 35 0
59 71 26 0
69 -43 41 0
56 16 -73 0
41 -60 67 0
-50 7 -74 0
75 -65 -45 0
-72 -35 57 0
59 -64 -53 0
49 64 74 0
37 -36 47 0
48 4 -7 0
5 -15 62 0
-17 33 -38 0
39 12 35 0
-70 62 36 0
73 11 -50 0
52 64 -21 0
-65 53 -59 0
-18 37 78 0
-77 -45 -60 0
-7 36 -14 0
59 9 -29 0
-7 -68 -78 0
-18 79 -47 0
-65 -26 -36 0
-72 -34 -10 0
-44 16 61 0
38 -59 -4 0
59 12 1 0
57 -47 -72 0
26 52 18 0
-52 6 -22 0
-63 17 33 0
22 17 19 0
-8 46 44 0
39 -33 -22 0
35 25 49 0
