c family=3-SAT n=80 instance=5 seed=2573548008 models=1040
c order 48 60 78 77 6 58 63 38 47 35 70 76 72 65 18 12 3 37 52 66 15 2 34 54 13 59 36 5 24 69 26 27 41 4 44 64 21 30 8 55 31 75 16 28 25 14 33 56 80 49 17 7 9 79 53 10 22 50 40 73 67 51 42 1 68 71 32 61 46 45 62 11 29 39 74 23 43 57 19 20
c order 22 15 10 2 12 11 13 3 20 42 9 39 77 25 24 28 73 52 36 59 37 44 16 54 55 19 31 75 60 17 79 38 65 4 26 1 6 72 53 64 57 70 51 45 74 48 18 21 61 63 49 34 33 71 27 32 29 67 58 23 80 8 69 46 14 50 5 7 62 56 78 43 76 47 66 30 35 40 68 41
c order 3 27 40 43 5 51 79 7 33 57 48 34 68 76 8 65 6 39 49 63 2 54 14 18 42 32 45 37 21 38 25 50 17 29 44 24 75 36 4 46 15 26 9 52 61 69 10 31 41 30 55 12 77 80 59 78 56 73 53 22 60 47 1 11 66 35 19 67 62 20 64 70 28 71 74 58 23 16 13 72
c order 10 19 52 25 61 7 49 56 1 3 20 74 63 73 18 38 33 54 27 41 47 72 21 26 37 22 44 46 67 45 80 65 42 66 5 36 78 43 62 2 24 14 30 32 34 76 77 13 75 6 58 15 50 23 68 8 12 70 35 69 57 79 71 28 29 16 9 40 64 31 55 11 60 4 17 59 53 39 48 51
c order 6 38 80 18 67 43 49 7 69 42 52 26 76 3 1 16 33 21 66 11 56 58 64 5 20 62 9 77 23 46 41 44 30 54 63 27 34 36 35 10 70 8 39 19 71 14 55 15 13 47 24 59 40 29 79 17 57 74 45 73 61 25 28 75 4 32 60 37 51 65 48 22 78 50 68 12 53 2 31 72
c order 53 67 58 75 72 70 32 31 30 39 8 77 33 7 61 13 5 51 47 54 63 46 6 74 68 34 19 45 29 49 11 24 57 15 76 43 1 20 79 64 60 56 10 50 41 78 14 36 59 16 27 52 73 42 23 3 37 80 18 48 2 35 22 17 9 62 65 71 66 69 38 40 55 4 28 12 21 44 25 26
c order 26 31 39 9 38 28 33 66 13 5 46 63 58 51 75 74 4 61 8 80 53 54 19 71 76 3 35 21 79 48 43 7 73 67 68 78 50 10 36 12 32 52 34 20 18 17 41 14 47 25 49 40 11 37 2 64 44 29 30 22 6 56 59 69 77 70 60 1 72 16 65 62 45 27 55 57 42 15 23 24
c order 25 36 43 61 40 16 10 12 45 46 54 15 53 71 48 44 69 65 5 18 68 57 42 49 70 17 14 33 56 59 66 23 26 58 51 24 76 6 4 30 2 3 31 77 29 27 60 55 67 47 28 34 11 52 37 39 1 19 13 32 72 22 41 38 8 7 20 64 79 35 78 62 74 75 21 63 73 50 9 80
c order 58 63 57 41 3 29 20 44 42 5 15 17 72 47 27 24 61 77 35 46 49 64 2 11 6 80 37 52 75 30 8 48 53 22 68 55 60 10 43 34 23 14 9 18 65 12 28 21 33 54 56 51 73 74 32 76 7 79 39 67 69 26 25 70 13 78 31 16 1 71 45 19 4 50 59 40 66 38 62 36
c order 43 21 31 20 72 22 48 4 2 40 16 54 79 38 59 75 36 12 6 50 76 24 64 57 10 60 26 56 47 73 66 77 69 58 15 62 71 35 55 19 63 51 68 80 70 44 9 13 29 65 74 34 11 30 14 49 67 17 33 45 32 28 78 37 46 8 42 5 41 25 53 52 27 18 39 7 23 1 61 3
p cnf 80 336
38 -78 7 0
44 -15 -62 0
42 -7 46 0
-66 57 16 0
-69 62 -25 0
13 -49 -56 0
15 39 -41 0
-39 -43 -18 0
79 -49 7 0
-55 31 -29 0
-21 29 30 0
-57 19 -10 0
-47 3 -53 0
46 3 -36 0
78 32 43 0
-40 1 -76 0
54 18 -69 0
49 39 -20 0
-53 -45 44 0
-80 65 13 0
-7 22 -28 0
1 -59 18 0
-73 -1 71 0
-75 -34 -80 0
-22 -12 -9 0
71 44 79 0
-50 -36 -78 0
5 59 -73 0
34 57 8 0
-37 -1 -13 0
2 -23 68 0
-42 -32 -13 0
73 -75 54 0
40 43 -58 0
-33 -10 -48 0
70 36 -26 0
17 24 -48 0
-7 52 -19 0
-67 -19 26 0
-42 -50 61 0
55 15 -39 0
52 -8 25 0
-3 74 -2 0
37 -70 60 0
32 -43 -54 0
77 -42 17 0
-43 -27 -2 0
11 -9 63 0
63 72 16 0
-31 -48 42 0
-6 28 2 0
-26 64 -66 0
-71 -26 -42 0
-21 -48 -71 0
-29 -78 64 0
-46 49 -68 0
60 69 58 0
56 -38 44 0
14 33 -66 0
-14 -79 2 0
-2 34 71 0
-11 61 69 0
-77 -65 15 0
-40 -50 -8 0
3 42 33 0
32 62 55 0
56 -41 15 0
-61 -62 48 0
-69 -38 54 0
-74 55 67 0
37 21 54 0
42 72 15 0
16 -46 -8 0
20 56 -41 0
-36 27 24 0
28 -44 35 0
15 20 8 0
43 52 45 0
-29 -52 79 0
64 18 -76 0
6 64 -76 0
-16 54 -6 0
-55 79 76 0
68 -58 7 0
56 -54 74 0
-77 54 -70 0
21 -10 -71 0
41 -63 -68 0
71 77 -22 0
-78 26 52 0
3 -36 59 0
21 66 -17 0
62 31 20 0
20 -56 -34 0
-1 -20 4 0
44 19 49 0
-32 -12 -35 0
-45 -12 -9 0
-79 -72 21 0
-77 -47 44 0
59 80 -42 0
-16 18 -21 0
-14 -57 -7 0
-21 -56 6 0
22 16 -14 0
68 56 -54 0
-71 10 -49 0
-17 46 -60 0
-26 -54 -31 0
-29 55 -75 0
6 -80 47 0
2 -29 16 0
-51 -31 -8 0
5 50 68 0
52 60 40 0
-28 -59 16 0
35 -50 58 0
-41 36 -51 0
6 -34 66 0
-50 60 47 0
-16 17 46 0
9 -8 7 0
38 -5 24 0
-7 -55 -57 0
-49 -25 -41 0
72 61 63 0
-73 -69 -39 0
-72 -46 -43 0
-78 60 64 0
29 62 -14 0
4 -80 -9 0
-29 26 -66 0
9 -80 -64 0
-29 74 -63 0
-64 -62 70 0
-34 64 2 0
-12 74 72 0
-16 54 3 0
33 58 -12 0
5 63 -16 0
40 -69 48 0
-26 27 50 0
64 44 71 0
-64 6 -31 0
-22 -19 15 0
-7 -40 -35 0
-9 21 34 0
72 -53 -56 0
41 -1 -14 0
-4 13 -66 0
68 75 11 0
-55 51 23 0
28 -25 -6 0
-27 -65 43 0
-27 54 -13 0
32 41 -49 0
-60 47 18 0
-78 -40 -4 0
-68 -4 -13 0
56 23 18 0
-26 -60 38 0
23 24 -60 0
-64 24 46 0
-21 -3 71 0
23 -16 51 0
39 13 54 0
79 39 -56 0
-55 -8 -16 0
69 52 -9 0
66 74 79 0
63 48 9 0
-77 -55 11 0
-36 -78 48 0
-15 39 24 0
43 47 39 0
-45 38 6 0
-22 54 15 0
-30 -59 12 0
-38 42 -47 0
-57 -69 29 0
25 55 22 0
30 -80 24 0
-74 2 -5 0
-75 15 -3 0
26 -60 42 0
-79 -67 41 0
-9 -4 52 0
-73 -44 -25 0
-52 -79 72 0
-4 78 -30 0
-42 41 12 0
50 -3 70 0
47 35 -23 0
-28 -14 -21 0
38 -76 -2 0
80 34 76 0
9 -71 57 0
38 27 -23 0
6 32 39 0
27 76 -45 0
79 -69 -40 0
-74 58 28 0
-46 -53 50 0
-65 -72 -11 0
56 52 53 0
-55 -70 -3 0
-55 74 37 0
3 -1 63 0
-32 48 12 0
15 -2 40 0
-71 -18 -15 0
54 -53 21 0
12 8 59 0
12 -65 73 0
-68 23 77 0
-49 51 -40 0
60 -35 -3 0
-5 4 -11 0
-65 69 -35 0
-10 -60 34 0
36 15 -29 0
33 57 21 0
6 50 -10 0
-37 -68 2 0
43 10 70 0
40 80 -50 0
3 -32 55 0
51 -22 -6 0
69 -71 25 0
23 3 -25 0
-68 -1 -20 0
27 -74 -10 0
-49 56 -61 0
64 30 -24 0
-6 -24 -14 0
-5 -63 -79 0
7 -69 -44 0
-8 -35 -48 0
-16 -76 53 0
-39 61 -35 0
17 -20 -29 0
33 62 -66 0
8 -22 -15 0
49 79 -64 0
13 -25 34 0
58 38 10 0
-12 63 -76 0
-50 -36 4 0
-18 -45 -56 0
-67 -72 -59 0
-16 -13 53 0
56 -40 46 0
25 -69 23 0
-67 32 12 0
55 -51 38 0
-55 23 -9 0
-33 9 34 0
50 57 -1 0
-40 -77 -3 0
46 61 -5 0
28 -36 -18 0
33 77 12 0
58 -73 12 0
22 -42 67 0
-11 3 -20 0
-75 48 37 0
-24 26 -7 0
57 50 -79 0
66 -47 -51 0
4 -69 -38 0
48 57 70 0
76 -5 -27 0
-68 -9 -13 0
63 -26 -44 0
44 64 -51 0
76 -80 14 0
-70 -21 -77 0
-50 -72 -41 0
41 -60 38 0
41 -29 -32 0
6 80 -76 0
50 -78 39 0
-71 44 30 0
2 -57 -76 0
6 -41 -58 0
9 -44 -46 0
11 42 8 0
-58 -41 -26 0
-38 2 -3 0
-68 12 63 0
64 -21 70 0
-80 -22 -68 0
-17 47 6 0
-44 6 -17 0
-15 -37 64 0
53 24 -34 0
67 44 -17 0
30 7 -52 0
-31 -41 26 0
-58 -17 -34 0
11 -46 13 0
-62 23 -57 0
-10 21 32 0
31 -50 -44 0
70 38 -50 0
-4 25 -31 0
1 18 75 0
46 -7 76 0
46 31 80 0
-67 -41 80 0
-29 21 -24 0
-5 -1 -49 0
-44 60 -57 0
-18 -10 -65 0
69 7 77 0
31 80 40 0
-80 -14 66 0
-46 -4 -35 0
-48 -6 29 0
-56 73 -39 0
-51 62 21 0
70 73 -9 0
7 -68 -53 0
-54 -76 27 0
-8 -22 80 0
-38 26 -76 0
-11 -59 -35 0
27 67 43 0
-77 -15 -50 0
-67 -77 21 0
30 76 -48 0
-65 -18 70 0
74 -51 -35 0
-13 2 66 0
-66 79 -16 0
-14 -80 46 0
