c family=3-SAT n=80 instance=1 seed=2573548008 models=8439
c order 51 16 20 18 11 54 30 10 48 36 39 2 13 79 38 42 8 5 76 45 50 49 33 28 22 75 40 62 4 55 77 60 29 44 47 52 21 63 14 34 23 37 53 32 65 57 25 71 17 9 66 19 41 72 68 27 73 24 31 74 56 64 26 15 61 7 80 12 35 1 43 58 78 6 67 70 59 3 46 69
c order 37 53 20 36 69 74 41 31 25 56 61 79 44 3 38 6 11 50 64 14 57 80 21 26 78 51 77 54 32 67 8 5 73 70 34 19 40 23 28 15 72 65 9 66 46 60 1 58 45 17 42 62 76 47 16 35 27 18 55 68 10 43 22 29 2 59 49 30 7 75 24 33 48 12 39 13 63 71 4 52
c order 56 68 53 12 64 28 34 55 20 57 77 22 3 23 6 43 24 59 45 25 79 44 60 14 41 38 66 5 58 30 32 49 76 48 42 9 70 8 16 33 46 26 47 35 19 40 13 74 71 17 50 21 15 73 75 67 72 62 31 11 78 54 52 4 65 80 37 69 18 2 7 1 29 39 61 27 10 36 51 63
c order 19 68 61 2 9 51 40 26 21 41 33 73 52 50 75 36 13 8 38 79 54 37 66 15 58 16 43 53 18 3 31 5 27 56 14 29 65 20 72 34 74 28 71 35 77 48 64 12 49 59 10 39 24 60 42 22 7 55 62 6 44 17 69 4 23 78 67 45 47 76 63 32 80 30 70 25 57 11 46 1
c order 57 3 70 55 21 22 48 6 50 73 25 12 18 2 32 64 34 54 23 36 75 30 76 8 69 62 79 33 43 14 31 7 41 10 45 24 29 60 42 61 49 11 26 4 40 59 53 15 17 67 52 77 51 37 46 74 78 71 65 5 9 38 47 68 63 72 35 44 20 19 28 1 56 39 80 27 13 66 16 58
c order 45 70 25 18 64 58 9 41 71 52 48 40 53 36 68 54 78 4 44 69 38 10 80 35 13 19 60 61 74 23 21 51 11 63 17 43 2 55 34 33 30 28 46 3 12 29 65 62 6 72 57 50 5 22 76 7 8 47 39 66 42 56 37 27 75 32 24 20 49 79 15 31 16 77 67 59 14 1 26 73
c order 56 44 36 3 40 25 68 13 41 27 15 18 73 21 20 74 30 58 8 48 72 57 28 6 50 54 7 37 63 2 26 47 70 17 52 11 22 53 12 29 49 1 60 23 42 75 16 10 33 80 39 55 34 67 79 59 77 69 64 5 24 78 61 19 66 9 14 38 31 32 62 43 35 51 76 45 65 71 4 46
c order 16 9 50 1 2 47 41 78 27 72 39 26 67 20 38 75 6 19 5 49 4 25 65 68 46 28 52 8 14 70 35 73 3 29 53 36 13 48 42 54 17 80 71 30 12 61 15 57 76 33 60 22 32 63 51 23 64 59 24 77 62 7 58 34 31 55 40 74 21 66 56 11 18 37 10 45 44 69 79 43
c order 28 29 2 4 72 8 33 23 21 43 26 39 75 46 76 45 31 47 51 67 50 77 41 30 24 13 69 66 3 38 42 44 18 58 12 37 54 6 56 74 71 62 79 36 25 5 80 49 32 27 17 48 61 9 40 57 65 53 60 63 10 59 34 68 16 73 15 22 35 52 20 19 64 11 70 14 1 55 78 7
c order 52 73 70 46 58 28 35 59 41 78 44 40 30 57 14 53 13 17 51 19 24 54 76 37 38 60 25 62 11 47 9 69 5 42 32 39 3 80 63 68 75 20 12 43 1 49 23 34 21 36 22 79 6 26 15 56 66 29 31 71 77 16 18 65 72 10 7 55 61 50 48 33 2 64 27 67 74 8 4 45
p cnf 80 336
-29 -7 69 0
-25 69 63 0
54 14 -50 0
71 33 80 0
-34 -60 17 0
-18 -12 61 0
38 33 75 0
-18 -65 -51 0
-29 -1 -78 0
-67 51 -16 0
-22 -66 23 0
32 45 71 0
-1 16 -6 0
51 80 -71 0
8 -62 -9 0
-58 23 -39 0
27 -71 72 0
-34 71 45 0
-58 -49 79 0
8 71 -21 0
70 44 71 0
-33 80 11 0
-5 74 72 0
72 75 -73 0
-13 69 64 0
31 -67 4 0
-24 -48 -12 0
-27 -44 37 0
-45 -66 -24 0
-5 6 32 0
59 -42 -34 0
-1 29 -34 0
-35 -79 10 0
77 32 -15 0
-56 1 -54 0
-53 76 -43 0
-19 -8 63 0
10 -9 60 0
-66 27 68 0
-70 17 14 0
47 55 -17 0
-74 62 35 0
-8 -19 -1 0
-4 68 14 0
39 -34 -10 0
-22 35 11 0
23 -71 37 0
-24 57 -5 0
49 -28 -35 0
56 46 -22 0
3 52 -78 0
39 -14 64 0
-35 21 57 0
16 37 -33 0
-44 34 36 0
-1 19 57 0
32 74 46 0
8 29 1 0
50 2 6 0
-68 29 35 0
-52 70 -55 0
-24 -53 -12 0
47 -56 -55 0
33 44 -4 0
77 42 -24 0
66 -80 -67 0
-50 -24 -61 0
52 56 22 0
63 -65 -58 0
48 -4 -76 0
41 -27 52 0
-62 -65 -24 0
-53 17 10 0
-19 15 36 0
26 -45 60 0
40 59 79 0
-59 -54 58 0
61 34 41 0
40 38 34 0
-54 -5 -25 0
-5 -41 -57 0
-23 -1 -40 0
47 -80 75 0
-58 -15 -47 0
72 -45 -57 0
-8 -71 -51 0
-72 15 52 0
35 46 -52 0
44 -18 -46 0
57 48 -78 0
-74 -64 -10 0
51 3 -27 0
64 31 -27 0
-44 -41 -14 0
73 79 3 0
-7 -59 -12 0
-27 -19 34 0
-76 -35 43 0
-43 -11 -17 0
-38 24 14 0
-20 23 80 0
-64 74 69 0
-71 62 68 0
-32 -76 55 0
13 -77 71 0
-30 68 -49 0
60 -11 74 0
-18 -43 20 0
2 76 69 0
-55 25 21 0
72 -64 -4 0
-9 -17 -55 0
4 -66 -13 0
-71 -20 57 0
-77 11 -22 0
6 5 3 0
-42 3 7 0
74 -5 4 0
46 38 73 0
-61 50 -38 0
-52 19 60 0
-20 77 59 0
55 -61 1 0
69 66 -80 0
49 -51 47 0
-23 45 -25 0
75 -73 27 0
31 75 8 0
70 -57 -72 0
-48 31 54 0
63 54 33 0
3 28 50 0
-9 76 -34 0
-40 -9 -60 0
76 -63 -9 0
48 -30 -29 0
76 17 -46 0
4 -39 -22 0
44 15 -48 0
-62 -51 10 0
67 -75 57 0
73 -76 7 0
53 70 68 0
-61 26 -52 0
-30 13 26 0
-60 19 1 0
71 28 31 0
-69 -45 -55 0
-23 10 71 0
46 -1 37 0
-3 74 47 0
54 -8 42 0
57 -8 61 0
35 -46 -25 0
24 -15 28 0
63 7 -43 0
-78 53 14 0
-13 -31 20 0
25 72 -18 0
-45 -49 36 0
-19 63 58 0
-79 -52 -63 0
71 78 35 0
-13 -22 -19 0
-7 -60 78 0
10 -25 34 0
-58 -45 -22 0
49 64 29 0
-71 33 38 0
-27 8 -23 0
-45 17 -15 0
1 -55 76 0
16 -40 -79 0
-62 -2 -11 0
45 18 -52 0
47 -62 54 0
56 6 -53 0
-57 -68 -25 0
-28 51 47 0
76 7 61 0
75 -6 -2 0
17 25 2 0
-47 -53 -32 0
-47 78 -70 0
18 19 -33 0
-2 40 78 0
73 -37 22 0
-7 18 1 0
-29 74 55 0
46 28 80 0
-67 -77 -5 0
16 57 50 0
-57 -55 -35 0
-40 -49 -62 0
20 14 33 0
3 11 -67 0
-38 69 -40 0
-30 16 65 0
-7 -68 35 0
-3 31 -70 0
18 -1 12 0
-19 79 30 0
-36 45 -66 0
-42 34 -46 0
72 -59 -10 0
38 10 33 0
23 47 71 0
-78 -50 22 0
-37 54 76 0
9 -18 -24 0
72 -59 25 0
19 5 -66 0
23 -66 50 0
-21 -75 -60 0
-30 -68 53 0
70 59 -23 0
14 -5 -48 0
67 -19 21 0
-55 39 21 0
-62 42 9 0
31 -22 -10 0
-47 -11 -73 0
-63 -68 -65 0
-60 -20 44 0
-55 -36 32 0
39 -72 -52 0
-31 37 63 0
80 -52 8 0
-53 45 -64 0
47 -55 71 0
74 -13 18 0
-10 -38 -27 0
-63 -16 78 0
-75 -68 -59 0
-29 -9 -62 0
-32 -66 2 0
78 -8 53 0
52 -62 15 0
22 42 18 0
-47 -50 -58 0
69 -72 -21 0
-38 15 32 0
34 8 74 0
66 5 -60 0
-28 19 14 0
-29 -13 35 0
72 -68 -77 0
-19 -31 43 0
-26 74 -12 0
60 -62 -19 0
67 16 77 0
40 79 -13 0
-68 53 22 0
-40 45 80 0
49 24 -32 0
23 31 10 0
13 63 -56 0
66 -26 30 0
49 22 73 0
-18 5 -48 0
-26 42 28 0
11 -59 -72 0
24 28 79 0
-2 17 -38 0
-48 -37 -28 0
33 8 32 0
47 63 54 0
80 14 -25 0
-59 63 9 0
50 72 -5 0
-25 -21 63 0
-3 -39 69 0
27 8 -72 0
-41 -12 -42 0
-14 -30 -48 0
24 -3 54 0
-25 -30 35 0
79 -40 -45 0
-23 71 73 0
-66 67 -14 0
-26 -55 -8 0
-44 55 41 0
1 4 -54 0
-40 26 -64 0
51 -17 -43 0
63 -72 17 0
-1 -37 -65 0
68 42 54 0
8 -80 -74 0
24 -68 -57 0
-80 -9 -74 0
-4 -74 -51 0
67 -79 -5 0
30 4 -40 0
62 27 76 0
-63 -11 -76 0
26 75 -12 0
-35 73 23 0
-44 3 73 0
-25 63 71 0
-60 -23 12 0
-55 10 -33 0
37 -59 -4 0
-32 26 20 0
12 -79 7 0
-8 -5 23 0
80 13 6 0
76 -29 -50 0
24 -61 -51 0
2 70 17 0
49 -72 -33 0
-61 58 -46 0
-14 -42 4 0
-16 -40 -42 0
7 67 80 0
-9 -11 61 0
73 -70 7 0
-66 12 61 0
-77 -78 56 0
24 25 -71 0
11 62 5 0
65 54 -75 0
-78 74 -50 0
-40 46 80 0
53 62 21 0
76 -59 -11 0
-30 -7 -49 0
42 -9 44 0
19 24 54 0
-2 40 59 0
77 39 46 0
-68 35 49 0
23 -53 31 0
-52 -44 -35 0
-19 -71 -30 0
-45 3 36 0
