c family=3-SAT n=80 instance=3 seed=2573548008 models=303
c order 23 30 3 47 49 27 74 21 42 59 50 4 17 10 71 35 33 56 12 45 6 9 57 63 37 39 55 48 11 26 53 78 32 69 77 22 14 20 31 64 76 40 15 1 19 18 41 43 72 80 73 16 60 52 36 5 79 68 29 44 67 25 13 46 58 54 61 2 66 70 62 38 8 28 75 24 7 34 65 51
c order 45 12 23 27 72 36 50 14 2 51 67 16 65 32 7 59 52 69 39 18 37 35 20 28 24 43 62 79 76 58 13 54 25 47 21 41 44 22 8 57 6 34 75 4 19 33 64 31 77 60 68 26 66 70 63 53 48 3 46 29 30 49 42 9 17 5 80 78 40 10 56 73 1 38 55 71 61 74 15 11
c order 78 62 18 19 4 20 7 31 61 60 49 40 24 76 6 1 14 50 77 23 26 27 8 67 55 47 15 25 48 53 56 64 74 43 68 79 30 22 52 38 80 42 35 9 71 66 58 32 39 34 72 28 51 63 29 70 65 3 11 46 21 16 10 41 5 33 69 44 45 13 17 37 12 57 36 73 75 54 2 59
c order 25 9 20 50 37 80 51 66 38 73 22 39 56 53 74 12 10 71 79 5 77 70 31 26 33 19 8 59 27 40 16 4 52 76 29 67 46 34 43 69 28 24 58 48 47 49 41 32 75 57 14 60 17 72 62 55 64 44 30 23 18 45 65 2 13 15 42 68 36 54 3 61 21 1 11 7 63 35 78 6
c order 53 12 57 38 14 76 6 16 46 5 21 11 50 31 39 30 2 8 68 24 47 13 26 67 1 29 41 40 51 75 20 56 64 28 32 63 18 17 49 3 42 23 58 74 72 4 34 22 80 7 35 70 79 78 10 69 73 25 43 44 66 59 15 65 54 37 55 61 71 27 33 48 52 9 19 36 60 77 62 45
c order 65 46 45 72 52 34 66 80 38 8 53 25 78 39 27 33 32 68 70 13 10 2 40 74 48 76 6 21 67 3 26 16 30 41 73 23 37 49 5 31 20 57 42 59 62 9 19 75 71 43 56 51 35 47 61 17 12 36 54 77 63 1 15 55 64 79 24 11 22 58 4 14 69 7 29 18 60 44 50 28
c order 58 24 30 25 57 38 33 26 67 27 5 14 51 73 59 6 45 72 20 16 62 74 75 54 12 8 1 76 2 17 29 52 34 3 35 42 48 65 18 31 9 66 56 68 37 61 44 22 49 43 50 78 15 77 64 40 71 21 36 19 32 79 28 69 23 39 46 60 70 80 55 41 7 10 13 53 47 11 4 63
c order 10 28 29 37 44 75 68 72 41 74 30 19 11 42 58 8 23 38 34 13 73 66 6 16 52 39 60 63 33 32 77 2 70 53 65 61 25 21 7 40 43 1 24 15 35 4 22 14 46 3 27 71 45 57 59 79 9 18 56 69 49 50 76 67 47 54 62 51 80 31 78 17 5 36 12 20 48 64 55 26
c order 9 32 43 35 44 57 25 61 77 28 17 73 52 80 6 21 19 46 66 22 50 63 30 13 4 74 34 56 1 71 23 47 3 26 5 12 45 16 40 27 36 54 33 65 20 38 76 69 18 75 68 51 64 8 7 11 39 62 49 15 31 10 79 59 72 37 41 78 60 53 14 70 55 2 58 48 67 29 42 24
c order 58 34 77 2 37 76 52 21 5 56 20 10 69 42 67 3 66 51 78 17 48 15 1 26 43 7 80 9 63 41 27 28 62 57 38 60 46 8 73 16 22 55 53 65 44 25 79 31 30 59 68 72 14 54 74 6 45 71 18 13 64 19 35 23 49 11 70 12 4 29 24 33 75 50 32 61 39 36 47 40
p cnf 80 336
7 76 -60 0
-46 8 65 0
75 27 72 0
1 -26 -62 0
-59 15 -28 0
-60 -4 -24 0
77 -7 -3 0
76 -14 -67 0
31 -21 68 0
-20 -51 1 0
-67 -10 50 0
47 65 72 0
47 -58 59 0
-63 -14 70 0
66 -33 57 0
73 2 -64 0
-13 52 71 0
43 25 -39 0
-10 -38 34 0
44 41 -21 0
66 62 -48 0
18 -59 37 0
-41 36 -5 0
25 67 -68 0
-70 47 -28 0
-66 -37 36 0
47 -9 17 0
59 -20 44 0
62 49 29 0
-43 53 37 0
-42 -34 -16 0
49 -17 26 0
8 -46 -77 0
-61 53 58 0
-59 16 -2 0
59 -16 43 0
13 -65 60 0
-71 -34 68 0
-59 33 78 0
-12 -31 8 0
25 1 -20 0
22 43 -76 0
-34 -38 -44 0
76 -18 -36 0
-39 12 62 0
42 -29 13 0
64 -68 76 0
31 52 -8 0
36 -46 -73 0
-80 53 -41 0
15 30 6 0
57 60 -7 0
-70 55 -53 0
-40 -32 -66 0
6 17 52 0
13 -14 27 0
24 -52 -56 0
-37 -9 80 0
16 -78 15 0
2 57 -60 0
59 1 -40 0
62 63 51 0
47 -7 61 0
25 18 8 0
69 -4 19 0
72 -56 12 0
-11 18 46 0
-1 75 -29 0
-45 17 21 0
-59 -36 -74 0
-56 -8 13 0
-20 -45 69 0
4 -41 55 0
-35 -57 1 0
-18 -61 35 0
71 22 45 0
-15 24 38 0
69 74 61 0
21 45 -75 0
-51 -39 48 0
10 -39 -7 0
-29 -43 49 0
-27 -68 3 0
73 -48 -74 0
-52 -13 -64 0
-15 8 -40 0
-79 71 -12 0
-33 -19 -38 0
-41 -51 -52 0
-11 -74 -28 0
1 35 37 0
-63 45 -77 0
50 -20 -43 0
17 -33 -14 0
57 61 -4 0
62 25 -49 0
45 -80 -68 0
-54 -52 -72 0
21 15 75 0
37 -75 -19 0
20 19 -17 0
17 -54 48 0
10 9 -71 0
18 75 37 0
-67 71 64 0
-51 -1 -63 0
49 48 -54 0
-67 -77 -38 0
-8 -15 32 0
62 45 38 0
-74 -36 50 0
24 -18 -16 0
42 79 -8 0
4 -72 22 0
22 28 77 0
-75 -79 60 0
34 1 76 0
-47 56 49 0
39 -31 -29 0
40 -10 1 0
9 -74 -60 0
-25 64 -17 0
68 -24 -29 0
-17 -78 -5 0
58 -1 32 0
11 70 62 0
-40 56 14 0
-35 56 -23 0
-7 74 -50 0
-23 59 65 0
-20 2 -39 0
-2 20 11 0
-43 11 44 0
-34 -43 -80 0
-4 40 8 0
-49 -7 -33 0
-80 11 -58 0
73 46 50 0
2 8 -78 0
-51 80 -2 0
-39 51 -49 0
80 70 1 0
-34 -56 30 0
5 66 -67 0
-57 69 30 0
-19 -78 -56 0
-80 -67 9 0
10 73 78 0
34 -48 1 0
-63 -43 -47 0
-59 -43 10 0
7 6 -72 0
36 -54 47 0
-70 2 3 0
5 69 -77 0
7 -46 28 0
43 -68 -40 0
-1 25 -16 0
-25 -61 67 0
56 55 -42 0
-61 -23 -3 0
-50 -61 53 0
-78 57 -8 0
-70 75 72 0
-17 -26 -59 0
1 21 38 0
-23 -3 -20 0
15 41 -80 0
-72 35 42 0
12 71 67 0
-58 -20 -56 0
48 -70 -20 0
32 73 -50 0
24 61 46 0
-60 51 4 0
74 75 -78 0
48 27 -39 0
-43 -15 46 0
73 1 76 0
45 38 74 0
-1 44 60 0
61 47 -53 0
-55 -60 -3 0
75 67 -58 0
15 -38 63 0
-66 7 77 0
55 72 64 0
18 72 5 0
-54 -27 -40 0
31 38 1 0
35 4 12 0
60 -18 -73 0
-31 43 8 0
-39 8 5 0
-28 -8 -49 0
25 66 -26 0
76 -60 -20 0
-10 -32 60 0
-74 60 -71 0
-52 40 58 0
-18 -21 74 0
41 -16 44 0
-29 48 79 0
-27 -48 55 0
71 -22 -21 0
-57 -69 -64 0
26 31 77 0
-49 18 30 0
-36 -32 -75 0
-2 -1 38 0
13 73 72 0
-4 -15 -79 0
19 -11 62 0
17 -66 21 0
-63 -20 30 0
53 26 22 0
74 -70 33 0
36 16 2 0
62 -34 -1 0
77 78 20 0
-2 29 30 0
31 27 49 0
16 55 -54 0
10 52 45 0
44 28 78 0
-44 -19 -27 0
61 29 -18 0
65 50 66 0
-48 -71 -2 0
50 36 -40 0
-5 -67 49 0
42 10 -56 0
-67 54 -19 0
-40 -52 -73 0
-38 53 57 0
-35 -41 43 0
66 -60 -37 0
-57 -35 -6 0
-76 59 -54 0
38 -75 36 0
63 77 -57 0
-42 -7 37 0
-48 -52 10 0
-68 -54 -50 0
-69 -45 53 0
80 59 7 0
44 68 -71 0
-36 69 9 0
-39 3 -55 0
4 -71 -11 0
-44 4 63 0
-1 -35 -45 0
69 71 9 0
66 28 47 0
79 3 50 0
-50 65 -1 0
-31 -14 -51 0
-51 36 3 0
-31 13 -55 0
-33 24 -80 0
-32 -12 -55 0
38 27 -4 0
-21 -19 22 0
19 58 15 0
40 -15 32 0
41 47 59 0
48 34 43 0
-6 -44 -23 0
59 -1 35 0
44 -79 -42 0
-61 -22 -7 0
47 -28 -50 0
10 72 -18 0
-38 -35 45 0
-3 -37 77 0
29 -3 68 0
-53 14 -33 0
-31 80 -13 0
4 -58 -49 0
-36 -48 -13 0
68 -67 47 0
-34 49 -6 0
58 41 -36 0
-42 -13 75 0
68 -4 -41 0
-14 2 -70 0
80 -45 -7 0
76 -75 -16 0
55 -11 34 0
40 -76 46 0
59 -51 66 0
-1 -74 27 0
63 -43 44 0
21 -39 -41 0
59 -3 77 0
-7 79 -26 0
-60 -76 -31 0
77 -63 -69 0
-18 -8 43 0
76 -39 20 0
-52 -64 77 0
-64 10 -15 0
-23 55 9 0
30 18 -15 0
76 -36 38 0
2 62 69 0
18 41 67 0
-53 -6 -3 0
-37 35 21 0
-39 30 65 0
78 -31 -9 0
46 36 -19 0
27 -10 26 0
-11 -74 68 0
79 -73 -3 0
-2 15 13 0
2 -53 -67 0
40 39 -8 0
59 26 22 0
63 -62 -24 0
-14 -70 65 0
-14 -70 -27 0
-33 44 61 0
-3 -75 55 0
-48 -26 53 0
33 -26 8 0
-66 -27 -43 0
-72 -24 20 0
-40 -19 -4 0
1 19 34 0
38 -70 -80 0
-77 51 -70 0
-48 42 -17 0
-19 -50 57 0
66 43 53 0
71 -32 43 0
