c family=3-SAT n=80 instance=8 seed=2573548008 models=84
c order 54 63 56 19 24 13 10 43 14 16 23 7 28 73 2 38 61 17 80 31 60 40 20 8 32 45 41 58 33 49 4 75 76 51 42 48 36 77 6 21 69 47 12 39 78 15 57 5 26 34 1 52 64 35 74 62 9 37 55 53 65 59 67 3 46 72 25 68 27 29 66 70 18 11 71 50 44 79 30 22
c order 70 44 33 51 43 74 22 48 79 75 9 14 28 46 18 7 37 1 12 39 55 57 36 41 69 66 54 27 10 71 52 62 3 21 24 38 61 59 72 2 56 67 47 26 17 15 30 4 25 58 78 13 49 60 31 6 20 80 73 11 32 50 65 42 23 16 64 34 77 19 8 53 29 68 45 35 63 76 40 5
c order 69 72 29 46 44 56 53 11 4 32 9 33 27 14 37 20 67 21 66 17 12 78 64 51 34 15 50 3 48 80 41 31 23 77 24 28 2 5 42 65 49 63 18 52 6 73 70 35 19 38 22 60 62 1 57 36 45 26 59 43 55 68 54 16 76 7 30 58 8 74 13 39 79 40 25 71 61 47 10 75
c order 73 48 15 68 55 39 33 21 62 74 22 53 51 37 61 36 63 2 50 1 19 18 47 75 46 9 10 29 67 27 40 49 41 8 76 64 5 69 80 56 54 70 79 16 58 14 38 6 59 17 78 31 11 34 57 25 60 42 28 4 12 45 32 52 44 66 35 23 71 26 77 7 30 72 13 65 3 20 43 24
c order 78 31 10 58 40 32 7 71 6 19 16 36 15 25 73 69 53 76 54 72 17 3 8 60 64 39 43 75 67 34 18 20 46 42 66 47 70 21 59 52 4 11 74 61 37 30 50 12 24 27 22 51 23 48 26 14 62 79 77 49 55 45 1 44 33 41 63 68 28 57 56 35 9 2 80 5 13 38 29 65
c order 14 41 68 25 15 24 2 74 42 29 8 22 5 62 72 52 27 79 67 69 36 28 26 47 78 18 59 40 7 3 4 12 71 75 39 57 61 66 23 37 48 56 1 13 64 10 60 44 49 76 6 31 35 51 38 54 65 43 50 32 11 55 45 34 17 77 73 46 80 21 70 63 16 33 20 53 58 30 19 9
c order 70 63 7 22 43 29 30 71 14 36 53 57 59 61 31 50 11 72 26 77 19 1 34 18 69 52 40 17 46 79 13 38 78 6 12 42 60 33 9 32 10 45 5 64 3 23 41 16 4 21 48 39 68 44 47 75 56 66 55 62 15 67 51 73 20 28 37 2 80 58 49 54 8 35 65 24 74 76 25 27
c order 6 34 75 25 32 52 2 20 78 80 3 7 73 70 47 24 15 29 45 53 14 67 16 38 59 74 35 62 41 28 22 19 17 68 49 79 18 51 27 42 48 11 55 1 33 65 12 46 63 54 21 37 9 69 26 58 72 60 39 44 77 57 4 66 10 13 36 61 64 8 56 30 50 31 76 23 71 40 5 43
c order 10 5 34 44 3 76 70 2 68 74 52 36 66 28 16 63 39 1 13 50 19 23 79 67 21 80 32 26 57 53 35 14 8 45 71 30 27 56 62 22 78 25 65 9 58 41 18 42 40 33 6 15 54 48 49 47 31 38 24 55 7 69 64 59 61 75 77 73 43 4 51 17 29 37 11 20 12 72 60 46
c order 34 12 4 61 66 74 57 15 55 39 31 10 45 37 54 27 30 16 48 70 50 75 19 21 69 49 26 35 64 80 13 62 28 46 24 14 79 52 11 17 18 22 7 51 56 76 32 6 29 44 59 1 73 23 25 63 43 53 2 68 36 41 67 58 42 47 3 9 5 71 38 20 40 78 60 72 33 65 77 8
p cnf 80 336
-67 47 -30 0
-11 43 79 0
-60 46 -65 0
18 -24 -4 0
40 -45 -63 0
26 -73 -68 0
31 -44 -51 0
-35 -30 5 0
-68 -9 -74 0
25 -54 -3 0
-29 18 76 0
3 -79 -29 0
-66 -71 -67 0
80 52 -21 0
-73 -55 -30 0
-39 -43 -45 0
-65 50 -77 0
-53 5 8 0
71 -3 -27 0
48 60 2 0
60 21 -23 0
-47 7 13 0
73 -75 -30 0
-43 -3 -1 0
55 -23 -25 0
-43 -35 3 0
-3 68 -37 0
70 19 53 0
-68 7 -12 0
27 -5 58 0
54 5 14 0
25 -66 33 0
-60 32 -2 0
-13 -14 -18 0
36 46 -39 0
-79 -53 -58 0
37 33 -63 0
-24 -3 -73 0
37 35 -9 0
68 44 -6 0
69 8 12 0
18 6 -56 0
-53 -28 48 0
36 -71 80 0
-33 31 -27 0
5 6 74 0
-26 -22 50 0
-75 80 10 0
27 -11 18 0
-21 -69 -40 0
48 -44 34 0
14 -54 -8 0
37 -55 15 0
-49 74 -46 0
37 59 31 0
20 -10 -78 0
-73 -2 -50 0
-3 -21 -79 0
-63 58 -36 0
55 -66 -28 0
61 -74 71 0
-68 11 -14 0
73 -35 58 0
-19 51 36 0
-33 -37 -2 0
37 -22 78 0
68 -42 65 0
-31 40 -60 0
-36 -33 53 0
58 2 13 0
-44 -26 -31 0
71 -79 23 0
16 -10 72 0
49 -3 24 0
25 28 -13 0
78 54 47 0
-46 73 35 0
-44 -51 -37 0
-4 -31 -60 0
-38 42 21 0
-68 57 -30 0
27 -30 23 0
-21 46 -15 0
-68 -6 -23 0
78 8 -22 0
59 44 42 0
-58 -37 -76 0
22 -50 2 0
67 -56 -79 0
-30 4 -11 0
-68 -11 29 0
-65 59 -1 0
-5 36 44 0
39 -44 57 0
79 19 50 0
-63 -6 42 0
-24 -13 -10 0
53 58 24 0
-45 3 -6 0
46 -37 -51 0
16 -64 -51 0
15 -24 60 0
9 19 28 0
-22 -76 -43 0
-23 -62 -65 0
69 -5 -79 0
40 16 32 0
61 -33 -66 0
30 -39 24 0
57 -7 41 0
-55 52 -28 0
-72 23 -32 0
2 -27 -22 0
55 63 -1 0
79 -66 11 0
-13 -54 16 0
-15 28 49 0
-8 -34 -5 0
-58 13 -38 0
74 65 63 0
57 53 70 0
-40 58 -13 0
52 6 3 0
63 58 -28 0
18 -39 15 0
30 5 -74 0
22 25 -49 0
-72 -47 -7 0
54 8 45 0
-20 27 2 0
-56 -60 5 0
-40 -36 -3 0
-8 -77 -21 0
67 -47 -39 0
-3 -11 22 0
-66 7 -18 0
34 45 -74 0
80 22 -67 0
1 -74 46 0
-19 34 31 0
-39 -55 -65 0
11 68 -69 0
26 -80 72 0
-35 46 8 0
40 45 -17 0
-1 32 -42 0
72 -16 -31 0
59 -53 -46 0
61 -24 15 0
51 -49 -27 0
53 64 19 0
5 42 -36 0
31 57 -1 0
-58 -32 -35 0
-54 -43 -5 0
-31 -65 -12 0
-63 -76 -19 0
45 6 -18 0
80 -57 13 0
-49 51 -35 0
-15 65 -71 0
74 54 60 0
7 -10 48 0
9 -76 58 0
-25 59 -52 0
63 28 26 0
-37 74 -43 0
-10 -3 2 0
-15 6 -4 0
-16 -25 -65 0
-19 -2 29 0
4 54 -79 0
67 -65 -17 0
-77 -33 -20 0
20 -26 66 0
49 15 -23 0
49 -69 79 0
53 4 73 0
-49 -39 42 0
-30 34 14 0
72 -30 49 0
1 47 -28 0
-55 74 -48 0
-40 -8 -76 0
16 72 -67 0
-41 7 52 0
-21 -9 54 0
-37 27 79 0
-51 3 60 0
-73 67 -43 0
62 47 -16 0
67 21 -58 0
17 49 54 0
63 24 58 0
-68 42 74 0
-38 -75 40 0
59 -21 -47 0
-23 51 33 0
-34 44 53 0
80 31 74 0
65 -23 -70 0
-6 -69 78 0
-73 67 -80 0
-80 -15 -42 0
36 -76 -18 0
8 -77 43 0
-64 41 24 0
-42 80 19 0
-52 -67 25 0
48 -78 4 0
-56 -32 -29 0
-24 33 -31 0
-58 53 68 0
11 71 -62 0
54 11 -68 0
11 -39 49 0
10 22 -73 0
64 -19 35 0
57 -21 -53 0
38 -1 8 0
19 7 21 0
-20 -36 -12 0
74 7 -38 0
24 33 -55 0
-64 61 11 0
-60 68 67 0
11 -31 -63 0
59 26 -5 0
-42 24 35 0
42 -48 32 0
49 20 -70 0
-57 -1 -77 0
43 -22 -41 0
36 -50 57 0
80 -43 53 0
-18 -26 -9 0
-18 76 4 0
-3 -60 -7 0
-43 -15 73 0
-56 -63 9 0
7 -55 -65 0
13 44 -69 0
-79 -26 -43 0
-1 -33 -37 0
-38 54 6 0
-54 7 -77 0
-26 -57 1 0
20 75 43 0
1 75 3 0
-56 57 49 0
-60 -29 -5 0
-3 42 -48 0
-36 24 74 0
16 -64 -26 0
65 58 -24 0
-56 -55 43 0
-47 19 -78 0
19 69 -14 0
-41 -1 -16 0
62 -70 -36 0
-11 -62 -60 0
-59 -54 26 0
-43 -17 64 0
-19 16 -24 0
-44 -59 71 0
-62 4 46 0
-66 21 18 0
-71 77 66 0
32 -57 -48 0
43 1 -18 0
50 18 45 0
73 45 -17 0
79 11 -32 0
-54 9 77 0
-80 -23 -3 0
-75 25 31 0
58 -65 22 0
59 -4 14 0
-19 13 8 0
-22 -80 -65 0
-40 -5 -12 0
50 61 -17 0
-42 48 9 0
-55 59 -1 0
-53 30 -15 0
-38 77 76 0
53 7 -37 0
16 -79 -7 0
-64 -11 45 0
-31 50 30 0
80 -63 77 0
75 19 45 0
-22 -42 56 0
19 41 40 0
-52 -24 -16 0
8 24 -60 0
6 62 8 0
-59 41 28 0
52 -75 -40 0
-28 -72 68 0
35 -7 -21 0
-9 -77 7 0
10 43 24 0
70 61 -78 0
-80 14 -33 0
-76 -52 58 0
8 11 7 0
16 47 18 0
39 6 43 0
-47 5 -17 0
-17 53 63 0
38 -9 -54 0
-28 -58 -5 0
-17 66 9 0
16 -31 68 0
-67 -38 -65 0
-74 11 29 0
1 25 31 0
69 -68 25 0
-73 -51 71 0
-28 54 29 0
27 -4 12 0
42 -25 44 0
-8 -22 73 0
-68 -46 63 0
-31 35 25 0
18 10 -45 0
-50 -47 76 0
17 -22 79 0
62 -33 42 0
-14 -79 7 0
-8 47 -65 0
28 77 -67 0
59 64 -10 0
35 48 -24 0
78 8 19 0
