c E6 resource-count instance family=1-in-3-SAT n=20 (Random(9) stream)
c order 3 10 19 1 4 13 14 16 15 6 5 20 7 17 12 11 8 18 9 2
p cnf 20 48
16 3 12 0
-16 -3 0
-16 -12 0
-3 -12 0
1 8 6 0
-1 -8 0
-1 -6 0
-8 -6 0
9 17 18 0
-9 -17 0
-9 -18 0
-17 -18 0
19 1 8 0
-19 -1 0
-19 -8 0
-1 -8 0
6 12 7 0
-6 -12 0
-6 -7 0
-12 -7 0
20 5 16 0
-20 -5 0
-20 -16 0
-5 -16 0
13 10 11 0
-13 -10 0
-13 -11 0
-10 -11 0
1 5 15 0
-1 -5 0
-1 -15 0
-5 -15 0
7 4 12 0
-7 -4 0
-7 -12 0
-4 -12 0
3 15 2 0
-3 -15 0
-3 -2 0
-15 -2 0
4 9 17 0
-4 -9 0
-4 -17 0
-9 -17 0
20 2 5 0
-20 -2 0
-20 -5 0
-2 -5 0
