c E6 resource-count instance family=1-in-3-SAT n=30 (Random(9) stream)
c order 7 27 3 29 12 10 21 13 16 30 19 2 26 22 25 1 5 8 14 9 17 15 20 18 11 23 28 4 24 6
p cnf 30 72
30 22 29 0
-30 -22 0
-30 -29 0
-22 -29 0
24 8 22 0
-24 -8 0
-24 -22 0
-8 -22 0
11 19 7 0
-11 -19 0
-11 -7 0
-19 -7 0
2 12 1 0
-2 -12 0
-2 -1 0
-12 -1 0
27 10 2 0
-27 -10 0
-27 -2 0
-10 -2 0
16 10 29 0
-16 -10 0
-16 -29 0
-10 -29 0
11 4 9 0
-11 -4 0
-11 -9 0
-4 -9 0
20 24 21 0
-20 -24 0
-20 -21 0
-24 -21 0
18 4 23 0
-18 -4 0
-18 -23 0
-4 -23 0
17 16 4 0
-17 -16 0
-17 -4 0
-16 -4 0
13 16 4 0
-13 -16 0
-13 -4 0
-16 -4 0
12 15 29 0
-12 -15 0
-12 -29 0
-15 -29 0
17 13 30 0
-17 -13 0
-17 -30 0
-13 -30 0
7 17 6 0
-7 -17 0
-7 -6 0
-17 -6 0
13 26 4 0
-13 -26 0
-13 -4 0
-26 -4 0
15 22 1 0
-15 -22 0
-15 -1 0
-22 -1 0
27 4 23 0
-27 -4 0
-27 -23 0
-4 -23 0
6 16 28 0
-6 -16 0
-6 -28 0
-16 -28 0
