c E6 resource-count instance family=1-in-3-SAT n=40 (Random(9) stream)
c order 23 5 6 16 28 33 26 27 4 11 10 30 9 7 15 32 13 3 17 21 34 14 37 22 36 20 24 31 35 38 18 29 8 39 12 40 1 2 19 25
p cnf 40 96
8 37 1 0
-8 -37 0
-8 -1 0
-37 -1 0
25 38 7 0
-25 -38 0
-25 -7 0
-38 -7 0
13 31 20 0
-13 -31 0
-13 -20 0
-31 -20 0
5 25 33 0
-5 -25 0
-5 -33 0
-25 -33 0
30 3 40 0
-30 -3 0
-30 -40 0
-3 -40 0
3 27 32 0
-3 -27 0
-3 -32 0
-27 -32 0
8 28 4 0
-8 -28 0
-8 -4 0
-28 -4 0
16 9 8 0
-16 -9 0
-16 -8 0
-9 -8 0
5 7 12 0
-5 -7 0
-5 -12 0
-7 -12 0
29 24 36 0
-29 -24 0
-29 -36 0
-24 -36 0
27 29 8 0
-27 -29 0
-27 -8 0
-29 -8 0
1 5 40 0
-1 -5 0
-1 -40 0
-5 -40 0
15 3 22 0
-15 -3 0
-15 -22 0
-3 -22 0
31 8 40 0
-31 -8 0
-31 -40 0
-8 -40 0
19 13 4 0
-19 -13 0
-19 -4 0
-13 -4 0
32 4 39 0
-32 -4 0
-32 -39 0
-4 -39 0
8 2 36 0
-8 -2 0
-8 -36 0
-2 -36 0
21 14 6 0
-21 -14 0
-21 -6 0
-14 -6 0
30 39 18 0
-30 -39 0
-30 -18 0
-39 -18 0
11 31 33 0
-11 -31 0
-11 -33 0
-31 -33 0
14 11 39 0
-14 -11 0
-14 -39 0
-11 -39 0
6 8 19 0
-6 -8 0
-6 -19 0
-8 -19 0
27 14 13 0
-27 -14 0
-27 -13 0
-14 -13 0
27 7 31 0
-27 -7 0
-27 -31 0
-7 -31 0
