c E6 resource-count instance family=1-in-3-SAT n=50 (Random(9) stream)
c order 38 8 34 4 33 49 48 10 37 14 27 35 22 46 24 50 32 16 26 19 41 2 43 9 39 23 15 47 45 21 25 11 40 17 29 36 20 18 31 3 6 1 28 44 5 30 7 42 13 12
p cnf 50 120
49 20 14 0
-49 -20 0
-49 -14 0
-20 -14 0
50 16 25 0
-50 -16 0
-50 -25 0
-16 -25 0
35 18 49 0
-35 -18 0
-35 -49 0
-18 -49 0
39 7 32 0
-39 -7 0
-39 -32 0
-7 -32 0
11 18 49 0
-11 -18 0
-11 -49 0
-18 -49 0
38 39 17 0
-38 -39 0
-38 -17 0
-39 -17 0
44 30 31 0
-44 -30 0
-44 -31 0
-30 -31 0
36 4 25 0
-36 -4 0
-36 -25 0
-4 -25 0
26 22 36 0
-26 -22 0
-26 -36 0
-22 -36 0
39 31 46 0
-39 -31 0
-39 -46 0
-31 -46 0
15 23 22 0
-15 -23 0
-15 -22 0
-23 -22 0
24 35 49 0
-24 -35 0
-24 -49 0
-35 -49 0
43 30 1 0
-43 -30 0
-43 -1 0
-30 -1 0
22 7 39 0
-22 -7 0
-22 -39 0
-7 -39 0
11 43 31 0
-11 -43 0
-11 -31 0
-43 -31 0
29 40 25 0
-29 -40 0
-29 -25 0
-40 -25 0
3 39 21 0
-3 -39 0
-3 -21 0
-39 -21 0
23 47 39 0
-23 -47 0
-23 -39 0
-47 -39 0
47 13 19 0
-47 -13 0
-47 -19 0
-13 -19 0
5 6 50 0
-5 -6 0
-5 -50 0
-6 -50 0
36 18 6 0
-36 -18 0
-36 -6 0
-18 -6 0
29 47 23 0
-29 -47 0
-29 -23 0
-47 -23 0
8 2 26 0
-8 -2 0
-8 -26 0
-2 -26 0
26 39 21 0
-26 -39 0
-26 -21 0
-39 -21 0
3 10 40 0
-3 -10 0
-3 -40 0
-10 -40 0
35 46 12 0
-35 -46 0
-35 -12 0
-46 -12 0
43 24 1 0
-43 -24 0
-43 -1 0
-24 -1 0
3 9 34 0
-3 -9 0
-3 -34 0
-9 -34 0
40 23 49 0
-40 -23 0
-40 -49 0
-23 -49 0
12 38 49 0
-12 -38 0
-12 -49 0
-38 -49 0
