c E6 resource-count instance family=1-in-3-SAT n=60 (Random(9) stream)
c order 3 18 39 54 58 28 50 9 8 25 56 22 38 51 46 49 23 52 16 31 34 19 6 36 30 42 15 4 1 10 5 45 60 14 43 40 32 37 53 24 33 26 11 17 59 29 44 13 35 27 41 21 20 12 48 47 55 7 57 2
p cnf 60 144
9 1 54 0
-9 -1 0
-9 -54 0
-1 -54 0
14 57 42 0
-14 -57 0
-14 -42 0
-57 -42 0
49 42 41 0
-49 -42 0
-49 -41 0
-42 -41 0
36 45 51 0
-36 -45 0
-36 -51 0
-45 -51 0
13 23 33 0
-13 -23 0
-13 -33 0
-23 -33 0
15 21 28 0
-15 -21 0
-15 -28 0
-21 -28 0
31 2 28 0
-31 -2 0
-31 -28 0
-2 -28 0
47 18 14 0
-47 -18 0
-47 -14 0
-18 -14 0
18 50 15 0
-18 -50 0
-18 -15 0
-50 -15 0
5 28 46 0
-5 -28 0
-5 -46 0
-28 -46 0
28 31 16 0
-28 -31 0
-28 -16 0
-31 -16 0
57 32 47 0
-57 -32 0
-57 -47 0
-32 -47 0
35 57 15 0
-35 -57 0
-35 -15 0
-57 -15 0
16 20 47 0
-16 -20 0
-16 -47 0
-20 -47 0
25 58 9 0
-25 -58 0
-25 -9 0
-58 -9 0
34 57 46 0
-34 -57 0
-34 -46 0
-57 -46 0
36 13 4 0
-36 -13 0
-36 -4 0
-13 -4 0
24 22 4 0
-24 -22 0
-24 -4 0
-22 -4 0
39 16 23 0
-39 -16 0
-39 -23 0
-16 -23 0
21 5 20 0
-21 -5 0
-21 -20 0
-5 -20 0
28 9 6 0
-28 -9 0
-28 -6 0
-9 -6 0
36 9 57 0
-36 -9 0
-36 -57 0
-9 -57 0
43 17 16 0
-43 -17 0
-43 -16 0
-17 -16 0
35 9 44 0
-35 -9 0
-35 -44 0
-9 -44 0
38 59 28 0
-38 -59 0
-38 -28 0
-59 -28 0
36 45 6 0
-36 -45 0
-36 -6 0
-45 -6 0
38 17 32 0
-38 -17 0
-38 -32 0
-17 -32 0
27 12 47 0
-27 -12 0
-27 -47 0
-12 -47 0
58 3 40 0
-58 -3 0
-58 -40 0
-3 -40 0
7 45 42 0
-7 -45 0
-7 -42 0
-45 -42 0
4 22 25 0
-4 -22 0
-4 -25 0
-22 -25 0
31 36 40 0
-31 -36 0
-31 -40 0
-36 -40 0
41 14 11 0
-41 -14 0
-41 -11 0
-14 -11 0
59 10 4 0
-59 -10 0
-59 -4 0
-10 -4 0
36 13 10 0
-36 -13 0
-36 -10 0
-13 -10 0
1 48 8 0
-1 -48 0
-1 -8 0
-48 -8 0
