c E6 resource-count instance family=1-in-3-SAT n=70 (Random(9) stream)
c order 10 64 8 15 12 5 24 28 33 1 32 4 44 16 70 2 49 19 3 39 37 54 67 66 26 43 13 55 38 47 22 17 23 59 42 51 65 36 41 30 61 40 52 7 60 62 18 21 53 46 35 50 56 58 14 20 57 9 63 68 45 69 6 27 25 48 31 29 34 11
p cnf 70 168
48 25 65 0
-48 -25 0
-48 -65 0
-25 -65 0
6 14 22 0
-6 -14 0
-6 -22 0
-14 -22 0
22 57 17 0
-22 -57 0
-22 -17 0
-57 -17 0
52 4 59 0
-52 -4 0
-52 -59 0
-4 -59 0
6 46 50 0
-6 -46 0
-6 -50 0
-46 -50 0
11 32 20 0
-11 -32 0
-11 -20 0
-32 -20 0
50 46 31 0
-50 -46 0
-50 -31 0
-46 -31 0
11 60 9 0
-11 -60 0
-11 -9 0
-60 -9 0
60 23 55 0
-60 -23 0
-60 -55 0
-23 -55 0
58 5 24 0
-58 -5 0
-58 -24 0
-5 -24 0
65 32 37 0
-65 -32 0
-65 -37 0
-32 -37 0
53 61 1 0
-53 -61 0
-53 -1 0
-61 -1 0
42 55 68 0
-42 -55 0
-42 -68 0
-55 -68 0
9 50 43 0
-9 -50 0
-9 -43 0
-50 -43 0
43 19 5 0
-43 -19 0
-43 -5 0
-19 -5 0
52 10 22 0
-52 -10 0
-52 -22 0
-10 -22 0
17 41 53 0
-17 -41 0
-17 -53 0
-41 -53 0
70 56 63 0
-70 -56 0
-70 -63 0
-56 -63 0
6 17 34 0
-6 -17 0
-6 -34 0
-17 -34 0
69 70 36 0
-69 -70 0
-69 -36 0
-70 -36 0
51 4 32 0
-51 -4 0
-51 -32 0
-4 -32 0
1 33 32 0
-1 -33 0
-1 -32 0
-33 -32 0
50 68 8 0
-50 -68 0
-50 -8 0
-68 -8 0
68 40 27 0
-68 -40 0
-68 -27 0
-40 -27 0
3 14 30 0
-3 -14 0
-3 -30 0
-14 -30 0
18 49 31 0
-18 -49 0
-18 -31 0
-49 -31 0
50 60 6 0
-50 -60 0
-50 -6 0
-60 -6 0
33 63 29 0
-33 -63 0
-33 -29 0
-63 -29 0
33 3 26 0
-33 -3 0
-33 -26 0
-3 -26 0
36 56 38 0
-36 -56 0
-36 -38 0
-56 -38 0
15 38 41 0
-15 -38 0
-15 -41 0
-38 -41 0
46 26 52 0
-46 -26 0
-46 -52 0
-26 -52 0
45 53 64 0
-45 -53 0
-45 -64 0
-53 -64 0
68 41 67 0
-68 -41 0
-68 -67 0
-41 -67 0
7 8 3 0
-7 -8 0
-7 -3 0
-8 -3 0
65 63 42 0
-65 -63 0
-65 -42 0
-63 -42 0
52 17 62 0
-52 -17 0
-52 -62 0
-17 -62 0
59 6 40 0
-59 -6 0
-59 -40 0
-6 -40 0
20 8 33 0
-20 -8 0
-20 -33 0
-8 -33 0
13 57 30 0
-13 -57 0
-13 -30 0
-57 -30 0
63 56 40 0
-63 -56 0
-63 -40 0
-56 -40 0
25 8 63 0
-25 -8 0
-25 -63 0
-8 -63 0
