c multiple knapsack weights=[4, 3, 5, 2, 6, 3] values=[6, 4, 7, 3, 8, 4] capacities=[7, 6, 8] value>=29
c variable x_(i,k) = i*K+k+1 (item i in knapsack k)
p cnf 18 58
-1 -2 0
-1 -3 0
-2 -3 0
-4 -5 0
-4 -6 0
-5 -6 0
-7 -8 0
-7 -9 0
-8 -9 0
-10 -11 0
-10 -12 0
-11 -12 0
-13 -14 0
-13 -15 0
-14 -15 0
-16 -17 0
-16 -18 0
-17 -18 0
-1 -7 0
-1 -13 0
-4 -7 0
-4 -13 0
-7 -13 0
-7 -16 0
-10 -13 0
-13 -16 0
-1 -4 -10 0
-1 -4 -16 0
-1 -10 -16 0
-4 -10 -16 0
-2 -5 0
-2 -8 0
-2 -14 0
-2 -17 0
-5 -8 0
-5 -14 0
-8 -11 0
-8 -14 0
-8 -17 0
-11 -14 0
-14 -17 0
-5 -11 -17 0
-3 -9 0
-3 -15 0
-6 -15 0
-9 -15 0
-15 -18 0
-3 -6 -12 0
-3 -6 -18 0
-3 -12 -18 0
-6 -9 -12 0
-6 -9 -18 0
-9 -12 -18 0
16 17 18 0
13 14 15 0
7 8 9 0
4 5 6 0
1 2 3 0
